EA155  19.337 19.287 18.941 90.00 90.00 90.00 Sym.group:    0
1.0000
   19.337165     0.000000     0.000000
    0.000000    19.286523     0.000000
    0.000000     0.000000    18.940709
   O  Cu
   4   24 
Direct
    0.648960     0.327596     0.473362
    0.649466     0.672214     0.472136
    0.412686     0.500667     0.691544
    0.349696     0.499503     0.358911
    0.670958     0.499770     0.505263
    0.324620     0.500311     0.499938
    0.500722     0.436258     0.499857
    0.500912     0.563735     0.499400
    0.493808     0.500226     0.565480
    0.496626     0.499773     0.435786
    0.561575     0.499913     0.501988
    0.434340     0.500083     0.498304
    0.462058     0.537580     0.460583
    0.461951     0.462235     0.460864
    0.460727     0.537923     0.537301
    0.460620     0.462449     0.537582
    0.535741     0.535675     0.464597
    0.535630     0.463977     0.464844
    0.533776     0.535912     0.537564
    0.533665     0.464232     0.537811
    0.407413     0.609932     0.383036
    0.407177     0.389182     0.384094
    0.417287     0.610675     0.609448
    0.417099     0.390623     0.610533
    0.587453     0.555378     0.445259
    0.587157     0.444295     0.445359
    0.574087     0.555652     0.559527
    0.573790     0.444229     0.559628
