EA155  19.337 19.287 18.941 90.00 90.00 90.00 Sym.group:    0
1.0000
   19.337165     0.000000     0.000000
    0.000000    19.286523     0.000000
    0.000000     0.000000    18.940709
   O  Cu
   4   24 
Direct
    0.648960     0.327596     0.473362     0.005896
    0.649466     0.672214     0.472136     0.005830
    0.412686     0.500667     0.691544     0.007626
    0.349696     0.499503     0.358911     0.009040
    0.670958     0.499770     0.505263     0.013948
    0.324620     0.500311     0.499938     0.012969
    0.500722     0.436258     0.499857     0.046376
    0.500912     0.563735     0.499400     0.046236
    0.493808     0.500226     0.565480     0.048178
    0.496626     0.499773     0.435786     0.047580
    0.561575     0.499913     0.501988     0.056977
    0.434340     0.500083     0.498304     0.054899
    0.462058     0.537580     0.460583     0.040527
    0.461951     0.462235     0.460864     0.040558
    0.460727     0.537923     0.537301     0.040770
    0.460620     0.462449     0.537582     0.040762
    0.535741     0.535675     0.464597     0.051106
    0.535630     0.463977     0.464844     0.051193
    0.533776     0.535912     0.537564     0.046110
    0.533665     0.464232     0.537811     0.046165
    0.407413     0.609932     0.383036     0.010158
    0.407177     0.389182     0.384094     0.010176
    0.417287     0.610675     0.609448     0.009889
    0.417099     0.390623     0.610533     0.010158
    0.587453     0.555378     0.445259     0.021682
    0.587157     0.444295     0.445359     0.021694
    0.574087     0.555652     0.559527     0.022644
    0.573790     0.444229     0.559628     0.022650
