===== USPEX WARNING @ 19:47:28 28-Feb-2025 ===== 
The structure after relaxation cannot satisfy distance constraint
1.00
19.5664            0            0
0      19.5664            0
0            0      18.1737
 O  Cu 
4  24
Direct
0.5         0.5     0.60259
0.5         0.5     0.33529
0.5         0.5     0.54487
0.5         0.5     0.50136
0.56855     0.40323     0.43747
0.59677     0.56855     0.43747
0.51995     0.61689     0.43747
0.43145     0.59677     0.43747
0.38311     0.51995     0.43747
0.40323     0.43145     0.43747
0.48005     0.38311     0.43747
0.61689     0.48005     0.43747
0.55336     0.31867     0.42473
0.68133     0.55336     0.42473
0.59048     0.66595     0.42473
0.44664     0.68133     0.42473
0.33405     0.59048     0.42473
0.31867     0.44664     0.42473
0.40952     0.33405     0.42473
0.66595     0.40952     0.42473
0.58701     0.39948     0.63978
0.60052     0.58701     0.63978
0.50955      0.6326     0.63978
0.41299     0.60052     0.63978
0.3674     0.50955     0.63978
0.39948     0.41299     0.63978
0.49045      0.3674     0.63978
0.6326     0.49045     0.63978


Struture before relaxation, for checking
1.00
19.5664            0            0
0      19.5664            0
0            0      18.1737
 O  Cu 
4  24
Direct
0.5         0.5     0.60259
0.5         0.5     0.33529
0.5         0.5     0.54487
0.5         0.5     0.50136
0.56855     0.40323     0.43747
0.59677     0.56855     0.43747
0.51995     0.61689     0.43747
0.43145     0.59677     0.43747
0.38311     0.51995     0.43747
0.40323     0.43145     0.43747
0.48005     0.38311     0.43747
0.61689     0.48005     0.43747
0.55337     0.31867     0.42473
0.68133     0.55337     0.42473
0.59048     0.66595     0.42473
0.44663     0.68133     0.42473
0.33405     0.59048     0.42473
0.31867     0.44663     0.42473
0.40952     0.33405     0.42473
0.66595     0.40952     0.42473
0.58701     0.39948     0.63978
0.60052     0.58701     0.63978
0.50955     0.63261     0.63978
0.41299     0.60052     0.63978
0.36739     0.50955     0.63978
0.39948     0.41299     0.63978
0.49045     0.36739     0.63978
0.63261     0.49045     0.63978


