===== USPEX WARNING @ 23:6:21 21-Feb-2025 ===== 
The structure after relaxation cannot satisfy distance constraint
1.00
6.8396           0           0
0      6.8396           0
0            0      22.2718
 O  Cu 
20  40
Direct
0.76997    0.007075     0.38349
0.47075    0.040805     0.51112
0.042578     0.53853     0.51157
0.96888     0.47225     0.51141
0.87963     0.82554     0.56246
0.11701     0.16485     0.55727
0.83645     0.12576     0.46305
0.17346     0.88961     0.46374
0.38941     0.66798     0.55696
0.62091      0.3431     0.55693
0.53813     0.96832     0.51134
0.66803     0.62161     0.46596
0.50967     0.73367     0.64049
0.50092     0.27656     0.64057
0.7336     0.50082     0.38255
0.27686     0.50994     0.38246
0.004588     0.77023     0.63953
0.007242     0.22984      0.6407
0.22936    0.004262     0.38234
0.34287     0.38981     0.46599
0.017239    0.017276     0.51066
0.17874     0.59937     0.61649
0.68573     0.91685     0.61545
0.60147     0.83017     0.40805
0.41148     0.17817     0.40635
0.5051      0.5051     0.51136
0.82989     0.40823     0.61482
0.35375     0.85039     0.51097
0.01192     0.99929      0.3592
0.85004     0.65551     0.51119
0.16074     0.35344     0.51124
0.99896    0.011411     0.66326
0.50519     0.50512     0.66221
0.50511      0.5053     0.36026
0.003114     0.50562     0.33719
0.50495    0.002955     0.68581
0.32722    0.094325     0.61658
0.65594     0.16074     0.51108
0.093736      0.6828     0.40628
0.50524     0.50527      0.2241
0.93609     0.28065     0.24201
0.074955     0.28886     0.74788
0.93634     0.72385     0.74867
0.28571      0.9361     0.27383
0.72263    0.075281     0.27454
0.57391     0.22173     0.74697
0.4344     0.78585     0.74886
0.78475     0.57642     0.27357
0.22286     0.43657     0.27547
0.99952    0.002291     0.22383
0.50435    0.001551     0.33547
0.22654     0.57214     0.78039
0.78383      0.4384     0.78049
0.57349     0.78843      0.2428
0.43736     0.22195     0.24291
0.7349     0.93716     0.78133
0.27578    0.073622     0.78133
0.075177     0.72759     0.24218
0.91726     0.32505     0.40736
0.001486     0.50581     0.68754


Struture before relaxation, for checking
1.00
6.8396           0           0
0      6.8396           0
0            0      22.2718
 O  Cu 
20  40
Direct
0.76997   0.0070746     0.38349
0.47075    0.040805     0.51112
0.042578     0.53853     0.51157
0.96888     0.47225     0.51141
0.87963     0.82554     0.56246
0.11701     0.16485     0.55727
0.83645     0.12576     0.46305
0.17346     0.88961     0.46374
0.38941     0.66798     0.55696
0.62091      0.3431     0.55693
0.53813     0.96832     0.51134
0.66803     0.62161     0.46596
0.50967     0.73367     0.64049
0.50092     0.27656     0.64057
0.7336     0.50082     0.38254
0.27686     0.50994     0.38246
0.0045882     0.77023     0.63953
0.0072416     0.22984      0.6407
0.22936   0.0042617     0.38234
0.34287     0.38981     0.46599
0.017239    0.017276     0.51066
0.17874     0.59937     0.61649
0.68573     0.91685     0.61545
0.60147     0.83017     0.40805
0.41148     0.17817     0.40635
0.5051      0.5051     0.51136
0.82989     0.40823     0.61482
0.35375     0.85039     0.51097
0.01192     0.99929      0.3592
0.85004     0.65551     0.51119
0.16074     0.35344     0.51124
0.99896    0.011411     0.66326
0.50519     0.50512     0.66221
0.50511     0.50529     0.36026
0.0031141     0.50562     0.33719
0.50495   0.0029552     0.68581
0.32722    0.094325     0.61658
0.65593     0.16074     0.51108
0.093736      0.6828     0.40628
0.50524     0.50527      0.2241
0.93609     0.28065     0.24201
0.074955     0.28886     0.74788
0.93634     0.72385     0.74867
0.28571     0.93609     0.27383
0.72263    0.075281     0.27454
0.57391     0.22173     0.74697
0.43441     0.78585     0.74886
0.78475     0.57642     0.27357
0.22286     0.43657     0.27547
0.99952   0.0022907     0.22383
0.50435    0.001551     0.33547
0.22654     0.57214     0.78039
0.78383      0.4384     0.78049
0.57349     0.78843      0.2428
0.43736     0.22195     0.24291
0.7349     0.93716     0.78133
0.27578    0.073622     0.78133
0.075177     0.72759     0.24218
0.91725     0.32505     0.40736
0.001486     0.50581     0.68754


