EA153   8.593  8.593 21.019 90.08 90.08 90.08 Sym.group:    0
1.0000
    8.593017     0.000000     0.000000
   -0.011983     8.593000     0.000000
   -0.029353    -0.029394    21.018959
   O  Cu
  21   40 
Direct
    0.500000     0.000000     0.480961     1.034879
    0.000000     0.500000     0.480961     1.034879
    0.500000     0.500000     0.453754     1.029783
    0.500000     0.500000     0.397124     1.032056
    0.000000     0.000000     0.406021     1.036169
    0.000610     0.000610     0.004757     0.000000
    0.500610     0.000610     0.004757     0.000000
    0.000610     0.500610     0.004757     0.000000
    0.500610     0.500610     0.004757     0.000000
    0.250790     0.250800     0.107041     0.000000
    0.750790     0.250800     0.107041     0.000000
    0.250790     0.750800     0.107041     0.000000
    0.750790     0.750800     0.107041     0.000000
    0.000610     0.000610     0.209175     0.000000
    0.500610     0.000610     0.209175     0.000000
    0.000610     0.500610     0.209175     0.000000
    0.500610     0.500610     0.209175     0.000000
    0.250790     0.250800     0.311459     0.000000
    0.750790     0.250800     0.311459     0.000000
    0.250790     0.750800     0.311459     0.000000
    0.750790     0.750800     0.311459     0.000000
    0.821850     0.500000     0.436274     1.030281
    0.178150     0.500000     0.436274     1.030360
    0.500000     0.821850     0.436274     1.030281
    0.500000     0.178150     0.436274     1.030361
    0.305350     0.305350     0.496878     1.025863
    0.694650     0.694650     0.496878     1.028117
    0.694650     0.305350     0.496878     1.028094
    0.305350     0.694650     0.496878     1.028094
    0.125670     0.125670     0.055888     0.000000
    0.625670     0.125670     0.055888     0.000000
    0.375590     0.375590     0.055892     0.000000
    0.875590     0.375590     0.055892     0.000000
    0.125670     0.625670     0.055888     0.000000
    0.625670     0.625670     0.055888     0.000000
    0.375590     0.875590     0.055892     0.000000
    0.875590     0.875590     0.055892     0.000000
    0.375580     0.125690     0.158064     0.000000
    0.875580     0.125690     0.158064     0.000000
    0.125680     0.375590     0.158064     0.000000
    0.625680     0.375590     0.158064     0.000000
    0.375580     0.625690     0.158064     0.000000
    0.875580     0.625690     0.158064     0.000000
    0.125680     0.875590     0.158064     0.000000
    0.625680     0.875590     0.158064     0.000000
    0.125670     0.125670     0.260306     0.000000
    0.625670     0.125670     0.260306     0.000000
    0.375590     0.375590     0.260313     0.000000
    0.875590     0.375590     0.260313     0.000000
    0.125670     0.625670     0.260306     0.000000
    0.625670     0.625670     0.260306     0.000000
    0.375590     0.875590     0.260313     0.000000
    0.875590     0.875590     0.260313     0.000000
    0.375580     0.125690     0.362482     0.000000
    0.875580     0.125690     0.362482     0.000000
    0.125680     0.375590     0.362482     0.000000
    0.625680     0.375590     0.362482     0.000000
    0.375580     0.625690     0.362482     0.000000
    0.875580     0.625690     0.362482     0.000000
    0.125680     0.875590     0.362482     0.000000
    0.625680     0.875590     0.362482     0.000000
