EA41    5.534  8.073 21.257 90.00 90.00 90.00 Sym.group:    0
1.0000
    5.533738     0.000000     0.000000
    0.000000     8.072519     0.000000
    0.000000     0.000000    21.257090
   O  Cu
  19   40 
Direct
    0.684333     0.520256     0.423462     1.020746
    0.374782     0.723018     0.278605     1.032507
    0.735089     0.502642     0.144022     1.027812
    0.072660     0.107024     0.169558     0.000000
    0.083402     0.672598     0.858675     0.000000
    0.032432     0.324829     0.820599     0.000000
    0.403258     0.037225     0.919638     0.000000
    0.851348     0.985187     0.616817     0.000000
    0.673995     0.697235     0.715335     0.000000
    0.334370     0.688569     0.147314     0.000000
    0.844380     0.105469     0.435567     0.000000
    0.741592     0.532894     0.285805     0.000000
    0.534733     0.073809     0.279171     0.000000
    0.820549     0.958924     0.786255     0.000000
    0.159479     0.244015     0.595208     0.000000
    0.766348     0.453471     0.625522     0.000000
    0.969375     0.840100     0.335058     0.000000
    0.230630     0.381236     0.305039     0.000000
    0.518850     0.219134     0.700728     0.000000
    0.038444     0.588448     0.151435     1.028689
    0.445000     0.149649     0.168459     1.030716
    0.109745     0.802529     0.418441     1.024537
    0.582142     0.978627     0.710353     1.030624
    0.594405     0.456382     0.709855     1.035591
    0.551197     0.610624     0.212081     1.026410
    0.938777     0.744007     0.650842     1.029604
    0.605563     0.026827     0.847913     1.026938
    0.107806     0.224139     0.250961     0.000000
    0.681800     0.332968     0.819413     0.000000
    0.196241     0.890258     0.160878     0.000000
    0.788535     0.016990     0.220072     0.000000
    0.244327     0.853439     0.887931     0.000000
    0.880478     0.711849     0.788779     0.000000
    0.214715     0.183965     0.872890     0.000000
    0.773523     0.220545     0.609784     0.000000
    0.726042     0.050066     0.354866     0.000000
    0.285258     0.526000     0.812330     0.000000
    0.606030     0.319631     0.287129     0.000000
    0.174068     0.412915     0.395533     0.000000
    0.275315     0.257169     0.758894     0.000000
    0.134278     0.482024     0.624049     0.000000
    0.523342     0.540587     0.571910     0.000000
    0.407544     0.120605     0.539255     0.000000
    0.884125     0.611423     0.490800     0.000000
    0.387950     0.605384     0.462799     0.000000
    0.203458     0.112697     0.431374     0.000000
    0.584910     0.851110     0.579501     0.000000
    0.177326     0.367385     0.510268     0.000000
    0.226491     0.995083     0.635376     0.000000
    0.512190     0.908157     0.458391     0.000000
    0.565757     0.286115     0.446410     0.000000
    0.904322     0.013441     0.519923     0.000000
    0.189265     0.755531     0.549646     0.000000
    0.277688     0.943370     0.318753     0.000000
    0.071021     0.604261     0.293860     0.000000
    0.543582     0.645245     0.354242     0.000000
    0.178852     0.961493     0.775851     0.000000
    0.318146     0.712006     0.704542     0.000000
    0.851142     0.291692     0.151889     0.000000
EA89    5.534  8.073 21.257 90.00 90.00 90.00 Sym.group:    0
1.0000
    5.533738     0.000000     0.000000
    0.000000     8.072519     0.000000
    0.000000     0.000000    21.257090
   O  Cu
  19   40 
Direct
    0.684333     0.520256     0.423462     1.020746
    0.374782     0.723018     0.278605     1.032507
    0.735089     0.502642     0.144022     1.027812
    0.072660     0.107024     0.169558     0.000000
    0.083402     0.672598     0.858675     0.000000
    0.032432     0.324829     0.820599     0.000000
    0.403258     0.037225     0.919638     0.000000
    0.851348     0.985187     0.616817     0.000000
    0.673995     0.697235     0.715335     0.000000
    0.334370     0.688569     0.147314     0.000000
    0.844380     0.105469     0.435567     0.000000
    0.741592     0.532894     0.285805     0.000000
    0.534733     0.073809     0.279171     0.000000
    0.820549     0.958924     0.786255     0.000000
    0.159479     0.244015     0.595208     0.000000
    0.766348     0.453471     0.625522     0.000000
    0.969375     0.840100     0.335058     0.000000
    0.230630     0.381236     0.305039     0.000000
    0.518850     0.219134     0.700728     0.000000
    0.038444     0.588448     0.151435     1.028689
    0.445000     0.149649     0.168459     1.030716
    0.109745     0.802529     0.418441     1.024537
    0.582142     0.978627     0.710353     1.030624
    0.594405     0.456382     0.709855     1.035591
    0.551197     0.610624     0.212081     1.026410
    0.938777     0.744007     0.650842     1.029604
    0.605563     0.026827     0.847913     1.026938
    0.107806     0.224139     0.250961     0.000000
    0.681800     0.332968     0.819413     0.000000
    0.196241     0.890258     0.160878     0.000000
    0.788535     0.016990     0.220072     0.000000
    0.244327     0.853439     0.887931     0.000000
    0.880478     0.711849     0.788779     0.000000
    0.214715     0.183965     0.872890     0.000000
    0.773523     0.220545     0.609784     0.000000
    0.726042     0.050066     0.354866     0.000000
    0.285258     0.526000     0.812330     0.000000
    0.606030     0.319631     0.287129     0.000000
    0.174068     0.412915     0.395533     0.000000
    0.275315     0.257169     0.758894     0.000000
    0.134278     0.482024     0.624049     0.000000
    0.523342     0.540587     0.571910     0.000000
    0.407544     0.120605     0.539255     0.000000
    0.884125     0.611423     0.490800     0.000000
    0.387950     0.605384     0.462799     0.000000
    0.203458     0.112697     0.431374     0.000000
    0.584910     0.851110     0.579501     0.000000
    0.177326     0.367385     0.510268     0.000000
    0.226491     0.995083     0.635376     0.000000
    0.512190     0.908157     0.458391     0.000000
    0.565757     0.286115     0.446410     0.000000
    0.904322     0.013441     0.519923     0.000000
    0.189265     0.755531     0.549646     0.000000
    0.277688     0.943370     0.318753     0.000000
    0.071021     0.604261     0.293860     0.000000
    0.543582     0.645245     0.354242     0.000000
    0.178852     0.961493     0.775851     0.000000
    0.318146     0.712006     0.704542     0.000000
    0.851142     0.291692     0.151889     0.000000
EA137   5.534  8.073 21.257 90.00 90.00 90.00 Sym.group:    0
1.0000
    5.533738     0.000000     0.000000
    0.000000     8.072519     0.000000
    0.000000     0.000000    21.257090
   O  Cu
  19   40 
Direct
    0.684333     0.520256     0.423462     1.020746
    0.374782     0.723018     0.278605     1.032507
    0.735089     0.502642     0.144022     1.027812
    0.072660     0.107024     0.169558     0.000000
    0.083402     0.672598     0.858675     0.000000
    0.032432     0.324829     0.820599     0.000000
    0.403258     0.037225     0.919638     0.000000
    0.851348     0.985187     0.616817     0.000000
    0.673995     0.697235     0.715335     0.000000
    0.334370     0.688569     0.147314     0.000000
    0.844380     0.105469     0.435567     0.000000
    0.741592     0.532894     0.285805     0.000000
    0.534733     0.073809     0.279171     0.000000
    0.820549     0.958924     0.786255     0.000000
    0.159479     0.244015     0.595208     0.000000
    0.766348     0.453471     0.625522     0.000000
    0.969375     0.840100     0.335058     0.000000
    0.230630     0.381236     0.305039     0.000000
    0.518850     0.219134     0.700728     0.000000
    0.038444     0.588448     0.151435     1.028689
    0.445000     0.149649     0.168459     1.030716
    0.109745     0.802529     0.418441     1.024537
    0.582142     0.978627     0.710353     1.030624
    0.594405     0.456382     0.709855     1.035591
    0.551197     0.610624     0.212081     1.026410
    0.938777     0.744007     0.650842     1.029604
    0.605563     0.026827     0.847913     1.026938
    0.107806     0.224139     0.250961     0.000000
    0.681800     0.332968     0.819413     0.000000
    0.196241     0.890258     0.160878     0.000000
    0.788535     0.016990     0.220072     0.000000
    0.244327     0.853439     0.887931     0.000000
    0.880478     0.711849     0.788779     0.000000
    0.214715     0.183965     0.872890     0.000000
    0.773523     0.220545     0.609784     0.000000
    0.726042     0.050066     0.354866     0.000000
    0.285258     0.526000     0.812330     0.000000
    0.606030     0.319631     0.287129     0.000000
    0.174068     0.412915     0.395533     0.000000
    0.275315     0.257169     0.758894     0.000000
    0.134278     0.482024     0.624049     0.000000
    0.523342     0.540587     0.571910     0.000000
    0.407544     0.120605     0.539255     0.000000
    0.884125     0.611423     0.490800     0.000000
    0.387950     0.605384     0.462799     0.000000
    0.203458     0.112697     0.431374     0.000000
    0.584910     0.851110     0.579501     0.000000
    0.177326     0.367385     0.510268     0.000000
    0.226491     0.995083     0.635376     0.000000
    0.512190     0.908157     0.458391     0.000000
    0.565757     0.286115     0.446410     0.000000
    0.904322     0.013441     0.519923     0.000000
    0.189265     0.755531     0.549646     0.000000
    0.277688     0.943370     0.318753     0.000000
    0.071021     0.604261     0.293860     0.000000
    0.543582     0.645245     0.354242     0.000000
    0.178852     0.961493     0.775851     0.000000
    0.318146     0.712006     0.704542     0.000000
    0.851142     0.291692     0.151889     0.000000
