EA163  21.038 20.796 13.740 90.00 90.00 90.00 Sym.group:    0
1.0000
   21.037669     0.000000     0.000000
    0.000000    20.796090     0.000000
    0.000000     0.000000    13.740262
   O  Cu
  12   24 
Direct
    0.388207     0.331070     0.500000
    0.587933     0.314540     0.500000
    0.703524     0.487362     0.500000
    0.611793     0.668930     0.500000
    0.412067     0.685460     0.500000
    0.296476     0.512638     0.500000
    0.326944     0.393969     0.500000
    0.323602     0.595571     0.500000
    0.492716     0.705349     0.500000
    0.673056     0.606031     0.500000
    0.676398     0.404429     0.500000
    0.507284     0.294651     0.500000
    0.683499     0.515801     0.459963
    0.575949     0.666167     0.459964
    0.397995     0.652116     0.459962
    0.316501     0.484199     0.459963
    0.424051     0.333833     0.459964
    0.602005     0.347884     0.459962
    0.522523     0.682875     0.540037
    0.670182     0.569299     0.540036
    0.642054     0.387962     0.540038
    0.477477     0.317125     0.540037
    0.329818     0.430701     0.540036
    0.357946     0.612038     0.540038
    0.683499     0.515801     0.540037
    0.575949     0.666167     0.540036
    0.397995     0.652116     0.540038
    0.316501     0.484199     0.540037
    0.424051     0.333833     0.540036
    0.602005     0.347884     0.540038
    0.522523     0.682875     0.459963
    0.670182     0.569299     0.459964
    0.642054     0.387962     0.459962
    0.477477     0.317125     0.459963
    0.329818     0.430701     0.459964
    0.357946     0.612038     0.459962
