===== USPEX WARNING @ 19:47:28 28-Feb-2025 ===== 
The structure after relaxation cannot satisfy distance constraint
1.00
18.3228            0            0
0      18.7086            0
0            0      17.0476
 O  Cu 
12  24
Direct
0.5097     0.63662     0.44157
0.5097     0.36338     0.44157
0.53402         0.5     0.59103
0.6487     0.65188     0.51657
0.6487     0.34812     0.51657
0.40263     0.34812     0.56283
0.40263     0.65188     0.56283
0.6219         0.5     0.54076
0.43549         0.5     0.57581
0.51627         0.5     0.48197
0.53946         0.5     0.43963
0.48109         0.5     0.45061
0.56915     0.64413     0.45066
0.56915     0.35587     0.45066
0.45665     0.35587     0.47181
0.45665     0.64413     0.47181
0.52169     0.60148     0.51528
0.52169     0.39852     0.51528
0.67953         0.5     0.48124
0.36248         0.5     0.54085
0.49801     0.60896     0.36975
0.49801     0.39104     0.36975
0.34129     0.62145      0.4689
0.34129     0.37855      0.4689
0.34129     0.37855      0.4689
0.34129     0.62145      0.4689
0.50799     0.56683     0.43112
0.50799     0.43317     0.43112
0.63431         0.5     0.37517
0.3715         0.5     0.42458
0.63549         0.5     0.60637
0.44343         0.5     0.64249
0.68299     0.58177     0.58636
0.68299     0.41823     0.58636
0.39243     0.41823       0.641
0.39243     0.58177       0.641


Struture before relaxation, for checking
1.00
18.3228            0            0
0      18.7086            0
0            0      17.0476
 O  Cu 
12  24
Direct
0.5097     0.63662     0.44157
0.5097     0.36338     0.44157
0.53402         0.5     0.59103
0.64871     0.65188     0.51657
0.64871     0.34812     0.51657
0.40263     0.34812     0.56283
0.40263     0.65188     0.56283
0.6219         0.5     0.54076
0.43548         0.5     0.57581
0.51627         0.5     0.48197
0.53946         0.5     0.43963
0.48109         0.5     0.45061
0.56915     0.64413     0.45066
0.56915     0.35587     0.45066
0.45665     0.35587     0.47181
0.45665     0.64413     0.47181
0.52169     0.60148     0.51528
0.52169     0.39852     0.51528
0.67953         0.5     0.48124
0.36248         0.5     0.54085
0.49801     0.60895     0.36975
0.49801     0.39105     0.36975
0.34129     0.62145      0.4689
0.34129     0.37855      0.4689
0.34129     0.37855      0.4689
0.34129     0.62145      0.4689
0.50799     0.56684     0.43111
0.50799     0.43316     0.43111
0.63431         0.5     0.37517
0.3715         0.5     0.42458
0.63549         0.5     0.60638
0.44343         0.5     0.64249
0.68299     0.58177     0.58636
0.68299     0.41823     0.58636
0.39243     0.41823       0.641
0.39243     0.58177       0.641


