EA137   6.165  8.510 22.598 90.00 90.00 90.00 Sym.group:    0
1.0000
    6.165197     0.000000     0.000000
    0.000000     8.510023     0.000000
    0.000000     0.000000    22.598329
   O  Cu
  18   40 
Direct
    0.904530     0.560265     0.595484     1.029919
    0.017577     0.188606     0.405902     1.026691
    0.119984     0.137703     0.211089     0.000000
    0.282063     0.758426     0.804357     0.000000
    0.665435     0.365100     0.479754     0.000000
    0.682274     0.136765     0.155646     0.000000
    0.651486     0.098515     0.771513     0.000000
    0.776696     0.532924     0.771964     0.000000
    0.238936     0.302959     0.813874     0.000000
    0.410542     0.785714     0.549239     0.000000
    0.331963     0.557883     0.434460     0.000000
    0.800658     0.780866     0.420207     0.000000
    0.200078     0.829530     0.282197     0.000000
    0.751592     0.666118     0.260808     0.000000
    0.121848     0.433678     0.174585     0.000000
    0.808727     0.027420     0.581810     0.000000
    0.313606     0.265433     0.560292     0.000000
    0.373472     0.969678     0.426521     0.000000
    0.035789     0.640518     0.792855     1.034363
    0.560548     0.499762     0.274452     1.026584
    0.920562     0.557292     0.208451     1.029465
    0.293068     0.037325     0.271104     1.035966
    0.924874     0.436792     0.518099     1.023012
    0.324292     0.399989     0.493886     1.029680
    0.707595     0.223211     0.413478     1.029944
    0.523362     0.638328     0.791458     1.027002
    0.543348     0.239625     0.311131     0.000000
    0.574137     0.835199     0.478507     0.000000
    0.149987     0.668729     0.562143     0.000000
    0.330275     0.902245     0.620510     0.000000
    0.392603     0.164106     0.172466     0.000000
    0.912226     0.276676     0.166307     0.000000
    0.705143     0.063152     0.235952     0.000000
    0.438993     0.654513     0.680882     0.000000
    0.933837     0.957923     0.653878     0.000000
    0.189711     0.860859     0.729130     0.000000
    0.063957     0.566078     0.671452     0.000000
    0.956632     0.360035     0.797347     0.000000
    0.947106     0.080815     0.763745     0.000000
    0.643581     0.667446     0.581803     0.000000
    0.564766     0.149540     0.577541     0.000000
    0.056271     0.151206     0.572182     0.000000
    0.239709     0.352559     0.252653     0.000000
    0.497295     0.791991     0.274627     0.000000
    0.897759     0.856137     0.291220     0.000000
    0.685570     0.567015     0.440143     0.000000
    0.061130     0.656760     0.441127     0.000000
    0.325207     0.190485     0.406187     0.000000
    0.301482     0.408147     0.736809     0.000000
    0.924715     0.131281     0.325681     0.000000
    0.559453     0.978356     0.704709     0.000000
    0.333698     0.454658     0.359240     0.000000
    0.586656     0.975805     0.358862     0.000000
    0.046064     0.943501     0.417416     0.000000
    0.794954     0.750682     0.717918     0.000000
    0.343196     0.115038     0.780187     0.000000
    0.358103     0.405617     0.628436     0.000000
    0.230338     0.146277     0.677144     0.000000
