EA137   5.566  5.566 27.563 90.00 90.00 90.00 Sym.group:    0
1.0000
    5.566384     0.000000     0.000000
    0.000000     5.566384     0.000000
    0.000000     0.000000    27.563083
   O  Cu
  18   40 
Direct
    0.961193     0.959684     0.522407
    0.924147     0.600454     0.459698
    0.630765     0.210681     0.433237
    0.504641     0.078551     0.197647
    0.155814     0.407250     0.216432
    0.916374     0.428740     0.587330
    0.447813     0.981592     0.847938
    0.082661     0.615113     0.857957
    0.747352     0.840058     0.691571
    0.541380     0.067288     0.584259
    0.859057     0.287589     0.752383
    0.193514     0.658481     0.739714
    0.338264     0.259100     0.349697
    0.755240     0.845698     0.358255
    0.194014     0.718088     0.297538
    0.843492     0.356582     0.299799
    0.435311     0.538960     0.125002
    0.364847     0.212010     0.689863
    0.957711     0.339153     0.892431
    0.530327     0.434397     0.582622
    0.239172     0.192313     0.531532
    0.823800     0.638791     0.638700
    0.341964     0.369936     0.841213
    0.698244     0.999206     0.898686
    0.078978     0.969464     0.856580
    0.559421     0.493579     0.486059
    0.727786     0.627340     0.841738
    0.646975     0.853253     0.432830
    0.337171     0.409163     0.413961
    0.941060     0.664952     0.203984
    0.353844     0.206516     0.126302
    0.080825     0.082349     0.197961
    0.167895     0.772779     0.127136
    0.913454     0.027674     0.592584
    0.318103     0.813218     0.609021
    0.235507     0.805880     0.457187
    0.670833     0.142755     0.799950
    0.699721     0.198321     0.249358
    0.803868     0.641685     0.750545
    0.777140     0.543751     0.120603
    0.728197     0.945591     0.150562
    0.571801     0.903349     0.520799
    0.020657     0.589583     0.527945
    0.702554     0.279276     0.361207
    0.399539     0.767511     0.353360
    0.986293     0.602875     0.387097
    0.072177     0.049033     0.366156
    0.805662     0.723789     0.289583
    0.217178     0.342734     0.286033
    0.978475     0.209551     0.453928
    0.368734     0.874160     0.249556
    0.439792     0.595486     0.687813
    0.734498     0.211790     0.684836
    0.161224     0.317746     0.637008
    0.113394     0.929307     0.689761
    0.219991     0.273388     0.755487
    0.369960     0.781606     0.791645
    0.501703     0.502333     0.202933
