EA41    8.217  8.217 18.217 90.00 90.00 90.00 Sym.group:    0
1.0000
    8.216907     0.000000     0.000000
    0.000000     8.216907     0.000000
    0.000000     0.000000    18.216907
   O  Cu
  20   40 
Direct
    0.081100     0.663023     0.429539
    0.486177     0.067459     0.232941
    0.059562     0.410964     0.785772
    0.472532     0.552067     0.530706
    0.753288     0.323992     0.627304
    0.769675     0.755256     0.301619
    0.310768     0.733996     0.701617
    0.193316     0.130451     0.405119
    0.888317     0.641756     0.613999
    0.046631     0.059955     0.763133
    0.052288     0.026711     0.547687
    0.572659     0.395567     0.226016
    0.696303     0.660705     0.801736
    0.138743     0.833234     0.190990
    0.770773     0.334232     0.416168
    0.311588     0.226641     0.607091
    0.642862     0.893707     0.529049
    0.911001     0.224743     0.197708
    0.485483     0.262435     0.808814
    0.360839     0.837312     0.373548
    0.850305     0.970870     0.347278
    0.376364     0.641280     0.612571
    0.619233     0.367671     0.335619
    0.175978     0.156549     0.687193
    0.808927     0.673858     0.713263
    0.633621     0.938077     0.635758
    0.126945     0.543072     0.338799
    0.250698     0.166279     0.508700
    0.432814     0.614866     0.352925
    0.161769     0.879967     0.735734
    0.666029     0.589966     0.251947
    0.350770     0.111338     0.315314
    0.912602     0.361407     0.708663
    0.989806     0.853083     0.608648
    0.026522     0.032720     0.197521
    0.510793     0.882750     0.446953
    0.265798     0.819962     0.275139
    0.762464     0.363603     0.519981
    0.962809     0.762546     0.246891
    0.177214     0.567523     0.737364
    0.534800     0.249868     0.625561
    0.675843     0.641870     0.564165
    0.061118     0.329178     0.256596
    0.560158     0.092257     0.747061
    0.118275     0.896773     0.411650
    0.840686     0.993546     0.726349
    0.632056     0.139878     0.423188
    0.154606     0.417463     0.599710
    0.348663     0.407680     0.262048
    0.329460     0.345311     0.397544
    0.978556     0.615609     0.518989
    0.613639     0.899130     0.263661
    0.911124     0.166862     0.598389
    0.267857     0.317231     0.800311
    0.279428     0.588769     0.478130
    0.849178     0.970806     0.485428
    0.692074     0.175676     0.221236
    0.975957     0.225347     0.402896
    0.516426     0.737969     0.750032
    0.594731     0.457183     0.800240
EA105   8.217  8.217 18.217 90.00 90.00 90.00 Sym.group:    0
1.0000
    8.216907     0.000000     0.000000
    0.000000     8.216907     0.000000
    0.000000     0.000000    18.216907
   O  Cu
  20   40 
Direct
    0.081100     0.663023     0.429539
    0.486177     0.067459     0.232941
    0.059562     0.410964     0.785772
    0.472532     0.552067     0.530706
    0.753288     0.323992     0.627304
    0.769675     0.755256     0.301619
    0.310768     0.733996     0.701617
    0.193316     0.130451     0.405119
    0.888317     0.641756     0.613999
    0.046631     0.059955     0.763133
    0.052288     0.026711     0.547687
    0.572659     0.395567     0.226016
    0.696303     0.660705     0.801736
    0.138743     0.833234     0.190990
    0.770773     0.334232     0.416168
    0.311588     0.226641     0.607091
    0.642862     0.893707     0.529049
    0.911001     0.224743     0.197708
    0.485483     0.262435     0.808814
    0.360839     0.837312     0.373548
    0.850305     0.970870     0.347278
    0.376364     0.641280     0.612571
    0.619233     0.367671     0.335619
    0.175978     0.156549     0.687193
    0.808927     0.673858     0.713263
    0.633621     0.938077     0.635758
    0.126945     0.543072     0.338799
    0.250698     0.166279     0.508700
    0.432814     0.614866     0.352925
    0.161769     0.879967     0.735734
    0.666029     0.589966     0.251947
    0.350770     0.111338     0.315314
    0.912602     0.361407     0.708663
    0.989806     0.853083     0.608648
    0.026522     0.032720     0.197521
    0.510793     0.882750     0.446953
    0.265798     0.819962     0.275139
    0.762464     0.363603     0.519981
    0.962809     0.762546     0.246891
    0.177214     0.567523     0.737364
    0.534800     0.249868     0.625561
    0.675843     0.641870     0.564165
    0.061118     0.329178     0.256596
    0.560158     0.092257     0.747061
    0.118275     0.896773     0.411650
    0.840686     0.993546     0.726349
    0.632056     0.139878     0.423188
    0.154606     0.417463     0.599710
    0.348663     0.407680     0.262048
    0.329460     0.345311     0.397544
    0.978556     0.615609     0.518989
    0.613639     0.899130     0.263661
    0.911124     0.166862     0.598389
    0.267857     0.317231     0.800311
    0.279428     0.588769     0.478130
    0.849178     0.970806     0.485428
    0.692074     0.175676     0.221236
    0.975957     0.225347     0.402896
    0.516426     0.737969     0.750032
    0.594731     0.457183     0.800240
EA153   8.217  8.217 18.217 90.00 90.00 90.00 Sym.group:    0
1.0000
    8.216907     0.000000     0.000000
    0.000000     8.216907     0.000000
    0.000000     0.000000    18.216907
   O  Cu
  20   40 
Direct
    0.081100     0.663023     0.429539
    0.486177     0.067459     0.232941
    0.059562     0.410964     0.785772
    0.472532     0.552067     0.530706
    0.753288     0.323992     0.627304
    0.769675     0.755256     0.301619
    0.310768     0.733996     0.701617
    0.193316     0.130451     0.405119
    0.888317     0.641756     0.613999
    0.046631     0.059955     0.763133
    0.052288     0.026711     0.547687
    0.572659     0.395567     0.226016
    0.696303     0.660705     0.801736
    0.138743     0.833234     0.190990
    0.770773     0.334232     0.416168
    0.311588     0.226641     0.607091
    0.642862     0.893707     0.529049
    0.911001     0.224743     0.197708
    0.485483     0.262435     0.808814
    0.360839     0.837312     0.373548
    0.850305     0.970870     0.347278
    0.376364     0.641280     0.612571
    0.619233     0.367671     0.335619
    0.175978     0.156549     0.687193
    0.808927     0.673858     0.713263
    0.633621     0.938077     0.635758
    0.126945     0.543072     0.338799
    0.250698     0.166279     0.508700
    0.432814     0.614866     0.352925
    0.161769     0.879967     0.735734
    0.666029     0.589966     0.251947
    0.350770     0.111338     0.315314
    0.912602     0.361407     0.708663
    0.989806     0.853083     0.608648
    0.026522     0.032720     0.197521
    0.510793     0.882750     0.446953
    0.265798     0.819962     0.275139
    0.762464     0.363603     0.519981
    0.962809     0.762546     0.246891
    0.177214     0.567523     0.737364
    0.534800     0.249868     0.625561
    0.675843     0.641870     0.564165
    0.061118     0.329178     0.256596
    0.560158     0.092257     0.747061
    0.118275     0.896773     0.411650
    0.840686     0.993546     0.726349
    0.632056     0.139878     0.423188
    0.154606     0.417463     0.599710
    0.348663     0.407680     0.262048
    0.329460     0.345311     0.397544
    0.978556     0.615609     0.518989
    0.613639     0.899130     0.263661
    0.911124     0.166862     0.598389
    0.267857     0.317231     0.800311
    0.279428     0.588769     0.478130
    0.849178     0.970806     0.485428
    0.692074     0.175676     0.221236
    0.975957     0.225347     0.402896
    0.516426     0.737969     0.750032
    0.594731     0.457183     0.800240
