EA96    8.593  8.593 21.019 90.08 90.08 90.08 Sym.group:    0
1.0000
    8.593017     0.000000     0.000000
   -0.011983     8.593000     0.000000
   -0.029353    -0.029394    21.018959
   O  Cu
  20   40 
Direct
    0.514330     0.081120     0.477040
    0.469214     0.947497     0.476069
    0.918821     0.512308     0.475382
    0.074027     0.484482     0.474928
    0.000610     0.000610     0.004757
    0.500610     0.000610     0.004757
    0.000610     0.500610     0.004757
    0.500610     0.500610     0.004757
    0.250790     0.250800     0.107041
    0.750790     0.250800     0.107041
    0.250790     0.750800     0.107041
    0.750790     0.750800     0.107041
    0.000610     0.000610     0.209175
    0.500610     0.000610     0.209175
    0.000610     0.500610     0.209175
    0.500610     0.500610     0.209175
    0.250790     0.250800     0.311459
    0.750790     0.250800     0.311459
    0.250790     0.750800     0.311459
    0.750790     0.750800     0.311459
    0.881799     0.692086     0.433018
    0.129457     0.305671     0.429017
    0.297924     0.867568     0.431547
    0.692692     0.122177     0.430069
    0.151391     0.845206     0.539429
    0.858369     0.157113     0.540729
    0.165524     0.133093     0.541004
    0.846452     0.851680     0.541518
    0.125670     0.125670     0.055888
    0.625670     0.125670     0.055888
    0.375590     0.375590     0.055892
    0.875590     0.375590     0.055892
    0.125670     0.625670     0.055888
    0.625670     0.625670     0.055888
    0.375590     0.875590     0.055892
    0.875590     0.875590     0.055892
    0.375580     0.125690     0.158064
    0.875580     0.125690     0.158064
    0.125680     0.375590     0.158064
    0.625680     0.375590     0.158064
    0.375580     0.625690     0.158064
    0.875580     0.625690     0.158064
    0.125680     0.875590     0.158064
    0.625680     0.875590     0.158064
    0.125670     0.125670     0.260306
    0.625670     0.125670     0.260306
    0.375590     0.375590     0.260313
    0.875590     0.375590     0.260313
    0.125670     0.625670     0.260306
    0.625670     0.625670     0.260306
    0.375590     0.875590     0.260313
    0.875590     0.875590     0.260313
    0.375580     0.125690     0.362482
    0.875580     0.125690     0.362482
    0.125680     0.375590     0.362482
    0.625680     0.375590     0.362482
    0.375580     0.625690     0.362482
    0.875580     0.625690     0.362482
    0.125680     0.875590     0.362482
    0.625680     0.875590     0.362482
