EA1
 1.0000000000000000
     9.2190013972649290    0.0000000000000000    0.0000000000000000
     0.0000000000000000    9.2190013972649290    0.0000000000000000
     0.0000000000000000    0.0000000000000000   16.3471629943076024
 O   Cu 
  20  40
Direct
  0.4759015700000000  0.6818505100000000  0.3675495200000000
  0.9749971700000000  0.5217855700000000  0.2587234200000000
  0.2822586300000000  0.9226215700000000  0.3838274500000000
  0.7382065300000000  0.1257708100000000  0.3689633900000000
  0.0274326700000000  0.6217511100000001  0.7711070600000000
  0.1156646200000000  0.3031849100000000  0.6617455000000000
  0.7971865800000000  0.5975729700000000  0.3696319300000000
  0.2387041100000000  0.4763995200000000  0.3669353500000000
  0.4051713900000000  0.8000493400000001  0.6529532500000000
  0.4659603800000000  0.1288115100000000  0.7686525600000000
  0.5012647300000000  0.0262245700000000  0.2598390100000000
  0.0264682400000000  0.0298641300000000  0.2311583300000000
  0.8241178600000000  0.0229071800000000  0.7009757200000000
  0.1525974500000000  0.9800619500000001  0.6977895100000000
  0.1328760500000000  0.2025115000000000  0.3712932500000000
  0.9530674299999999  0.8715119900000000  0.3776067900000000
  0.3645266400000000  0.4837386000000000  0.6875594000000000
  0.6898708500000000  0.5059600400000001  0.6747060800000000
  0.4791716000000000  0.3048680300000000  0.3929403500000000
  0.5954011400000000  0.4017622500000000  0.2601344200000000
  0.5510717000000001  0.8704709800000000  0.5677986900000001
  0.8702916500000000  0.4955960100000000  0.4618853900000000
  0.2940509400000000  0.2820883700000000  0.4501385100000000
  0.7407122900000001  0.3476765600000000  0.5977621400000001
  0.2522791300000000  0.7139077400000000  0.5850686200000000
  0.5130043900000000  0.1645570200000000  0.5694255200000000
  0.1648486500000000  0.5433589000000000  0.4697886200000000
  0.6309501500000000  0.0102204800000000  0.4483348000000000
  0.7133884700000001  0.6284757399999999  0.5613332900000000
  0.9954969799999999  0.6523638000000000  0.5712972800000000
  0.0093716200000000  0.3599563000000000  0.5622069500000000
  0.3674222900000000  0.4250320900000000  0.5726795200000000
  0.4289159200000000  0.6407740500000000  0.4822822300000000
  0.5880903600000000  0.4008932700000000  0.4763901200000000
  0.8642222899999999  0.8576516000000000  0.4906628100000000
  0.0627319000000000  0.1172591400000000  0.4751269400000000
  0.6617758900000000  0.7271549700000000  0.4228746700000000
  0.3458266100000000  0.0033934500000000  0.4884648400000000
  0.2417066500000000  0.1758571300000000  0.5922517400000000
  0.8869947999999999  0.0401025400000000  0.3079183900000000
  0.8136488900000000  0.2328711400000000  0.4611567600000000
  0.8611519000000000  0.5814604500000000  0.7141780700000000
  0.1596890300000000  0.5045072900000001  0.7126717700000000
  0.5583993200000000  0.2054207200000000  0.2936239400000000
  0.4649042000000000  0.8733728300000000  0.3245185900000000
  0.3741397900000000  0.9864332200000000  0.7029630300000000
  0.6410470900000000  0.0995156000000000  0.7166311000000000
  0.0677753300000000  0.3758202800000000  0.3182255100000000
  0.9669702099999999  0.6990797399999999  0.3161573600000000
  0.1726000400000000  0.0267655700000000  0.3053422500000000
  0.0759307600000000  0.9363661500000000  0.5868091500000000
  0.0776696400000000  0.7996121700000000  0.7279909700000000
  0.9817418300000000  0.1513985200000000  0.6810138900000000
  0.7802617900000000  0.4648848300000000  0.2732341800000000
  0.4335434500000000  0.4847517700000000  0.3213546900000000
  0.5291738600000000  0.6396823100000000  0.6689946700000000
  0.4301581200000000  0.3012172200000000  0.7177242400000000
  0.1341759500000000  0.8201235300000000  0.4524800500000000
  0.8258810400000000  0.8305519099999999  0.6442682300000000
  0.7786933199999999  0.0717204000000000  0.5771072500000000
EA2
 1.0000000000000000
     6.8395705244633067    0.0000000000000000    0.0000000000000000
     0.0000000000000000    6.8395705244633067    0.0000000000000000
     0.0000000000000000    0.0000000000000000   22.2717929618284174
 O   Cu 
  20  40
Direct
  0.7699671100000000  0.0070746000000000  0.3834855900000000
  0.4707540000000000  0.0408053800000000  0.5111229100000000
  0.0425779700000000  0.5385295400000000  0.5115729900000000
  0.9688789500000000  0.4722531500000000  0.5114076400000001
  0.8796338500000001  0.8255362700000000  0.5624640400000001
  0.1170113100000000  0.1648486000000000  0.5572730400000000
  0.8364481000000001  0.1257551400000000  0.4630504100000000
  0.1734631300000000  0.8896079000000000  0.4637389400000000
  0.3894072900000000  0.6679776100000000  0.5569573200000000
  0.6209096599999999  0.3431044300000000  0.5569286800000000
  0.5381284600000000  0.9683230500000000  0.5113411600000000
  0.6680314500000000  0.6216131900000000  0.4659575000000000
  0.5096691200000000  0.7336714100000000  0.6404924600000000
  0.5009215299999999  0.2765636700000000  0.6405654200000001
  0.7335976200000000  0.5008247300000001  0.3825446900000000
  0.2768600500000000  0.5099368300000000  0.3824646400000001
  0.0045881700000000  0.7702299600000000  0.6395338100000000
  0.0072416100000000  0.2298446700000000  0.6406965100000001
  0.2293603200000000  0.0042617200000000  0.3823414900000000
  0.3428670300000000  0.3898078900000000  0.4659908600000000
  0.0172388800000000  0.0172760600000000  0.5106597200000000
  0.1787360300000000  0.5993713100000001  0.6164879200000000
  0.6857344900000000  0.9168471800000000  0.6154504400000000
  0.6014694500000000  0.8301746100000000  0.4080543699999999
  0.4114826200000000  0.1781732200000000  0.4063512100000000
  0.5050964999999999  0.5050973500000000  0.5113587100000000
  0.8298885400000000  0.4082254000000000  0.6148231700000000
  0.3537459600000000  0.8503918699999999  0.5109681500000000
  0.0119203100000000  0.9992930100000000  0.3592017400000000
  0.8500377600000000  0.6555083600000000  0.5111931600000000
  0.1607404700000000  0.3534391700000000  0.5112442600000000
  0.9989620600000000  0.0114110100000000  0.6632566100000000
  0.5051860400000000  0.5051165000000000  0.6622121700000000
  0.5051118200000000  0.5052947100000000  0.3602555600000000
  0.0031141400000000  0.5056244200000000  0.3371886800000000
  0.5049501000000000  0.0029552300000000  0.6858072500000000
  0.3272240900000000  0.0943253600000000  0.6165763300000000
  0.6559347899999999  0.1607382800000000  0.5110755200000000
  0.0937364600000000  0.6828045300000000  0.4062842900000000
  0.5052367200000000  0.5052696200000000  0.2241010600000000
  0.9360917100000000  0.2806529700000000  0.2420090900000000
  0.0749552500000000  0.2888579300000000  0.7478766000000000
  0.9363401099999999  0.7238538900000000  0.7486744800000000
  0.2857141600000000  0.9360945200000000  0.2738289900000000
  0.7226315100000000  0.0752813300000000  0.2745425700000000
  0.5739104100000000  0.2217322000000000  0.7469711900000000
  0.4344055000000000  0.7858513800000000  0.7488607900000001
  0.7847492000000000  0.5764172400000001  0.2735725300000000
  0.2228630600000000  0.4365731800000000  0.2754654500000000
  0.9995190400000000  0.0022907000000000  0.2238298000000000
  0.5043526500000000  0.0015510500000000  0.3354672300000000
  0.2265417800000000  0.5721355800000000  0.7803875700000000
  0.7838257100000000  0.4384001600000000  0.7804900700000001
  0.5734920800000000  0.7884289799999999  0.2428046800000000
  0.4373558500000000  0.2219472200000000  0.2429099200000000
  0.7348958300000000  0.9371582100000001  0.7813262199999998
  0.2757778500000000  0.0736223600000000  0.7813272200000000
  0.0751767600000000  0.7275864599999999  0.2421824700000000
  0.9172548700000001  0.3250497500000000  0.4073593400000000
  0.0014859800000000  0.5058112200000000  0.6875382400000000
EA3
 1.0000000000000000
     8.6215932602148087    0.0000000000000000    0.0000000000000000
     0.0000000000000000    8.6215932602148087    0.0000000000000000
     0.0000000000000000    0.0000000000000000   18.2829278799735988
 O   Cu 
  20  40
Direct
  0.6934868500000000  0.7427925700000000  0.3650105500000000
  0.9682001000000000  0.5366593300000000  0.3827438000000000
  0.3889051700000000  0.9130698800000000  0.7670271200000000
  0.1319955700000000  0.5659244300000000  0.7540878800000000
  0.7217448200000000  0.0304312600000000  0.5252136200000000
  0.2906501600000000  0.9732893100000001  0.5240644200000000
  0.9862043799999999  0.7322274600000001  0.5231540800000000
  0.0519723900000000  0.2957477900000000  0.5117319600000000
  0.7124428300000000  0.0297599200000000  0.2484497300000000
  0.3053475500000000  0.9937209400000001  0.2551565300000000
  0.5244923600000000  0.0467663700000000  0.3870632000000000
  0.9921460500000000  0.7205433300000000  0.2472218300000000
  0.7393630500000000  0.4705792400000000  0.5457736700000000
  0.2925469200000000  0.5434782600000000  0.5628592900000000
  0.5585122500000000  0.7294381300000000  0.5764725500000000
  0.4795809100000000  0.2890805600000000  0.5622581800000001
  0.7464676200000000  0.3101401900000000  0.3620641500000000
  0.2707054600000000  0.6929046900000000  0.3620201900000000
  0.3071974100000000  0.2634075400000000  0.3618008300000000
  0.0264044900000000  0.3089974800000000  0.2503294000000000
  0.0934829900000000  0.7152095500000000  0.4258983600000000
  0.1566692200000000  0.8462367400000000  0.2685806900000000
  0.2671174800000000  0.2915655800000000  0.5371825900000000
  0.1764463500000000  0.1620220900000000  0.2689149900000000
  0.8444810300000000  0.8679650700000000  0.2616842200000000
  0.9192610999999999  0.2827946200000000  0.4267385800000000
  0.8579260300000000  0.1812475800000000  0.2692582800000000
  0.2954509100000000  0.0922470300000000  0.4318115700000000
  0.5498986500000000  0.0333275100000000  0.7282431200000000
  0.0905127900000000  0.3297600200000000  0.7249294100000000
  0.9182157800000000  0.6395566400000000  0.7382080700000000
  0.2215344500000000  0.7772151100000000  0.7557659100000000
  0.0057355700000000  0.0090882200000000  0.3640350300000000
  0.0104592900000000  0.0494520200000000  0.7136317500000000
  0.0062105600000000  0.5162510000000000  0.2768820300000000
  0.5095810100000000  0.0115237000000000  0.2813299200000000
  0.7676874600000000  0.7351575700000000  0.5407419800000000
  0.6956302300000000  0.9186618300000000  0.4294895600000000
  0.2868707900000000  0.7574919700000000  0.5427065800000000
  0.7715609700000000  0.9927515600000000  0.6309541600000000
  0.2137459200000000  0.5581463200000000  0.6586076300000000
  0.5198011100000000  0.5101587900000000  0.5657022300000000
  0.6314016900000000  0.4537324100000000  0.7357466900000000
  0.7961874500000000  0.9047014600000000  0.7588106700000000
  0.2640767200000000  0.0983032500000000  0.7570507800000000
  0.0332350000000000  0.9355710900000002  0.8336118500000000
  0.7780362800000000  0.2121669800000000  0.7206849200000000
  0.9897195099999999  0.2090963100000000  0.6063537500000000
  0.0147741300000000  0.8259004900000000  0.6229814700000000
  0.2282820300000000  0.0474265100000000  0.6222942900000000
  0.0129062500000000  0.5113792200000000  0.5266711600000000
  0.5293886700000000  0.2807018300000000  0.3705860900000000
  0.4837677300000000  0.6940246300000000  0.3695096500000000
  0.7398013000000000  0.5297786900000000  0.3729152900000000
  0.2821548300000000  0.4769443400000001  0.3659512700000000
  0.6797495500000000  0.7143131300000000  0.6742344100000000
  0.4276415600000000  0.2641781600000000  0.6704285100000000
  0.8380073600000000  0.4545925100000000  0.6458755800000000
  0.7256881200000000  0.2503904900000000  0.5348967900000000
  0.5067184100000000  0.9981919199999999  0.5393694100000000
EA4
 1.0000000000000000
     6.5246017161133656    0.0000000000000000    0.0000000000000000
     0.0000000000000000    8.7225183812534990    0.0000000000000000
     0.0000000000000000    0.0000000000000000   22.9449020373693280
 O   Cu 
  20  40
Direct
  0.7470213700000000  0.8692798300000000  0.5306615000000000
  0.8165554200000000  0.8295937600000000  0.1945666400000000
  0.1760529900000000  0.5115343200000000  0.1898700900000000
  0.8523847000000000  0.4000727300000000  0.7753709000000000
  0.0286387000000000  0.3940807800000000  0.4095389400000000
  0.5752665600000000  0.5417588300000000  0.6368901200000000
  0.4310614500000000  0.6369721100000000  0.3892047800000000
  0.2891185800000000  0.4417272800000000  0.2384671700000000
  0.2841414100000000  0.2042507100000000  0.7017535600000000
  0.2579901100000000  0.0006027500000000  0.4591241099999999
  0.3915719600000000  0.1607706500000000  0.3173660700000000
  0.2783605700000000  0.9136871900000000  0.6146160300000000
  0.2112852700000000  0.7562271400000000  0.2774505700000000
  0.6076538100000000  0.7663316200000000  0.7530804000000000
  0.6698919399999999  0.5002734800000000  0.2864072900000000
  0.7502673200000000  0.2525516100000000  0.7952345799999999
  0.8778404299999999  0.2365918100000000  0.2248790600000000
  0.2843311900000000  0.3480967400000000  0.5608477300000000
  0.6267226299999999  0.2694620700000000  0.4717616700000001
  0.7684416400000000  0.8898787600000000  0.3765497500000000
  0.1354437200000000  0.6280083500000000  0.4164475900000000
  0.6359912400000000  0.2224497000000000  0.2748423700000000
  0.9767170099999999  0.7811205500000000  0.3270168700000000
  0.7105270300000001  0.6884114500000000  0.2474099000000000
  0.1063310600000000  0.5849122600000000  0.6842530900000000
  0.2658516600000000  0.1954285700000000  0.5014265400000000
  0.3148776500000000  0.7535311500000000  0.7488744400000000
  0.6990081000000000  0.0664460900000000  0.4966520300000000
  0.2675258000000000  0.9030993100000000  0.5334025999999999
  0.8601330700000001  0.4420741800000000  0.4834957800000000
  0.0155253700000000  0.9321399900000000  0.4222859600000000
  0.9596496000000000  0.7311629500000000  0.5047500700000001
  0.8463716800000001  0.4375313800000000  0.3481720100000000
  0.0640009500000000  0.3161434300000000  0.7299706400000000
  0.9053637000000000  0.7423194900000000  0.7547878700000000
  0.0525500100000000  0.7071474300000000  0.2025293700000000
  0.2892925500000000  0.9550635300000000  0.3029973500000000
  0.6099517900000000  0.3786552100000000  0.5683056900000000
  0.6844736899999999  0.9415594300000000  0.7071840300000000
  0.7451018200000000  0.6660244000000000  0.4131431200000000
  0.5262184100000000  0.2129152000000000  0.7489727400000000
  0.3856239500000000  0.5775323999999999  0.3043019700000000
  0.7423216200000000  0.4851417700000001  0.7036501800000000
  0.9938728900000000  0.3636985400000000  0.5869640200000000
  0.2253272900000000  0.5424944000000000  0.5216076900000000
  0.8887923300000000  0.4572383300000000  0.2143420000000000
  0.8481305400000000  0.0272178600000000  0.2154037600000000
  0.3958579800000000  0.3875142000000000  0.6671133000000000
  0.4942819600000000  0.4517090900000000  0.4323132900000001
  0.4131567500000000  0.7203737600000000  0.6280234400000000
  0.5869755400000000  0.1913596200000000  0.3905144100000000
  0.4883314900000000  0.9094354000000000  0.4142135200000000
  0.7821001000000001  0.9688720599999999  0.6052638800000000
  0.5644286400000000  0.6818962100000000  0.5194455900000000
  0.0661073600000000  0.8717856200000000  0.6738101200000000
  0.9022591900000000  0.0768604400000000  0.3305197700000000
  0.7874345200000000  0.2087937800000000  0.6619595100000000
  0.2107436900000000  0.2668540200000000  0.3723218400000001
  0.1361465800000000  0.2316183000000000  0.2662305200000000
  0.4554567200000000  0.0870742900000000  0.6397966200000000
