EA0    21.652 21.639 17.000 90.00 90.00 90.00 Sym.group:    0
1.0000
   21.652190     0.000000     0.000000
    0.000000    21.638563     0.000000
    0.000000     0.000000    16.999973
   8   24 
Direct
    0.446484     0.679310     0.615976
    0.391143     0.388013     0.525293
    0.365273     0.478138     0.524648
    0.566130     0.656996     0.462182
    0.509876     0.432972     0.412953
    0.582546     0.501275     0.577786
    0.681324     0.571853     0.531627
    0.582521     0.337547     0.461703
    0.402379     0.614685     0.461193
    0.343282     0.546502     0.433569
    0.274778     0.657732     0.360530
    0.314808     0.479823     0.473960
    0.362306     0.626938     0.607040
    0.372826     0.341047     0.465958
    0.290312     0.426811     0.605927
    0.603889     0.688773     0.518784
    0.504718     0.597608     0.490331
    0.428829     0.460603     0.504944
    0.427480     0.551085     0.483585
    0.506293     0.500536     0.548723
    0.562675     0.466404     0.443753
    0.548963     0.557233     0.548128
    0.518762     0.393684     0.448949
    0.624016     0.511162     0.540021
    0.608646     0.354274     0.504626
    0.664187     0.599312     0.490582
    0.685613     0.446542     0.497748
    0.451561     0.338312     0.484081
    0.596671     0.383828     0.571464
    0.629181     0.592610     0.420140
    0.474124     0.347151     0.549270
    0.678403     0.471238     0.434526
