EA41    8.282  8.282 20.057 90.00 90.00 90.00 Sym.group:    0
1.0000
    8.281653     0.000000     0.000000
    0.000000     8.281653     0.000000
    0.000000     0.000000    20.057129
   O  Cu
  18   40 
Direct
    0.136786     0.210755     0.747744     1.029178
    0.364322     0.903860     0.653965     1.021259
    0.032983     0.569026     0.687275     0.000000
    0.330870     0.639355     0.408611     0.000000
    0.038867     0.853649     0.410088     0.000000
    0.637106     0.085840     0.349358     0.000000
    0.666089     0.360299     0.590164     0.000000
    0.950240     0.141357     0.592051     0.000000
    0.538472     0.738113     0.564979     0.000000
    0.971343     0.430779     0.314965     0.000000
    0.392536     0.408011     0.260000     0.000000
    0.277236     0.969628     0.247104     0.000000
    0.455124     0.255634     0.434894     0.000000
    0.013327     0.213584     0.415301     0.000000
    0.619457     0.607063     0.747842     0.000000
    0.729492     0.044563     0.746342     0.000000
    0.868579     0.813529     0.241214     0.000000
    0.979328     0.782300     0.586783     0.000000
    0.120570     0.992120     0.566884     1.028034
    0.541422     0.036017     0.694367     1.021416
    0.611868     0.440862     0.417581     1.025893
    0.871208     0.007304     0.432488     1.029770
    0.184970     0.444669     0.290756     1.024089
    0.461826     0.960480     0.301620     1.033438
    0.385478     0.557003     0.584124     1.032424
    0.236113     0.222959     0.427984     1.030155
    0.934217     0.457761     0.416822     0.000000
    0.756486     0.774129     0.574175     0.000000
    0.304309     0.192247     0.248440     0.000000
    0.434154     0.973784     0.559340     0.000000
    0.064666     0.540238     0.585322     0.000000
    0.065621     0.911075     0.253007     0.000000
    0.486990     0.634859     0.335897     0.000000
    0.554670     0.016629     0.442070     0.000000
    0.822964     0.560406     0.715733     0.000000
    0.706032     0.821701     0.751494     0.000000
    0.779601     0.967415     0.297118     0.000000
    0.780508     0.491160     0.523135     0.000000
    0.530720     0.291812     0.521816     0.000000
    0.365886     0.261205     0.758060     0.000000
    0.749399     0.709500     0.420202     0.000000
    0.649751     0.735374     0.244569     0.000000
    0.247722     0.288566     0.576751     0.000000
    0.004849     0.813260     0.692249     0.000000
    0.463413     0.708387     0.692402     0.000000
    0.215351     0.510696     0.477284     0.000000
    0.249843     0.903702     0.448895     0.000000
    0.000749     0.189278     0.307563     0.000000
    0.542133     0.284417     0.312155     0.000000
    0.939882     0.107834     0.738370     0.000000
    0.742194     0.086380     0.552214     0.000000
    0.001396     0.745771     0.491140     0.000000
    0.466402     0.704393     0.477324     0.000000
    0.237429     0.463369     0.687075     0.000000
    0.224784     0.040974     0.699334     0.000000
    0.989694     0.251559     0.511319     0.000000
    0.763383     0.525001     0.314161     0.000000
    0.509186     0.348357     0.660080     0.000000
EA105   8.282  8.282 20.057 90.00 90.00 90.00 Sym.group:    0
1.0000
    8.281653     0.000000     0.000000
    0.000000     8.281653     0.000000
    0.000000     0.000000    20.057129
   O  Cu
  18   40 
Direct
    0.136786     0.210755     0.747744     1.029178
    0.364322     0.903860     0.653965     1.021259
    0.032983     0.569026     0.687275     0.000000
    0.330870     0.639355     0.408611     0.000000
    0.038867     0.853649     0.410088     0.000000
    0.637106     0.085840     0.349358     0.000000
    0.666089     0.360299     0.590164     0.000000
    0.950240     0.141357     0.592051     0.000000
    0.538472     0.738113     0.564979     0.000000
    0.971343     0.430779     0.314965     0.000000
    0.392536     0.408011     0.260000     0.000000
    0.277236     0.969628     0.247104     0.000000
    0.455124     0.255634     0.434894     0.000000
    0.013327     0.213584     0.415301     0.000000
    0.619457     0.607063     0.747842     0.000000
    0.729492     0.044563     0.746342     0.000000
    0.868579     0.813529     0.241214     0.000000
    0.979328     0.782300     0.586783     0.000000
    0.120570     0.992120     0.566884     1.028034
    0.541422     0.036017     0.694367     1.021416
    0.611868     0.440862     0.417581     1.025893
    0.871208     0.007304     0.432488     1.029770
    0.184970     0.444669     0.290756     1.024089
    0.461826     0.960480     0.301620     1.033438
    0.385478     0.557003     0.584124     1.032424
    0.236113     0.222959     0.427984     1.030155
    0.934217     0.457761     0.416822     0.000000
    0.756486     0.774129     0.574175     0.000000
    0.304309     0.192247     0.248440     0.000000
    0.434154     0.973784     0.559340     0.000000
    0.064666     0.540238     0.585322     0.000000
    0.065621     0.911075     0.253007     0.000000
    0.486990     0.634859     0.335897     0.000000
    0.554670     0.016629     0.442070     0.000000
    0.822964     0.560406     0.715733     0.000000
    0.706032     0.821701     0.751494     0.000000
    0.779601     0.967415     0.297118     0.000000
    0.780508     0.491160     0.523135     0.000000
    0.530720     0.291812     0.521816     0.000000
    0.365886     0.261205     0.758060     0.000000
    0.749399     0.709500     0.420202     0.000000
    0.649751     0.735374     0.244569     0.000000
    0.247722     0.288566     0.576751     0.000000
    0.004849     0.813260     0.692249     0.000000
    0.463413     0.708387     0.692402     0.000000
    0.215351     0.510696     0.477284     0.000000
    0.249843     0.903702     0.448895     0.000000
    0.000749     0.189278     0.307563     0.000000
    0.542133     0.284417     0.312155     0.000000
    0.939882     0.107834     0.738370     0.000000
    0.742194     0.086380     0.552214     0.000000
    0.001396     0.745771     0.491140     0.000000
    0.466402     0.704393     0.477324     0.000000
    0.237429     0.463369     0.687075     0.000000
    0.224784     0.040974     0.699334     0.000000
    0.989694     0.251559     0.511319     0.000000
    0.763383     0.525001     0.314161     0.000000
    0.509186     0.348357     0.660080     0.000000
EA153   8.282  8.282 20.057 90.00 90.00 90.00 Sym.group:    0
1.0000
    8.281653     0.000000     0.000000
    0.000000     8.281653     0.000000
    0.000000     0.000000    20.057129
   O  Cu
  18   40 
Direct
    0.136786     0.210755     0.747744     1.029178
    0.364322     0.903860     0.653965     1.021259
    0.032983     0.569026     0.687275     0.000000
    0.330870     0.639355     0.408611     0.000000
    0.038867     0.853649     0.410088     0.000000
    0.637106     0.085840     0.349358     0.000000
    0.666089     0.360299     0.590164     0.000000
    0.950240     0.141357     0.592051     0.000000
    0.538472     0.738113     0.564979     0.000000
    0.971343     0.430779     0.314965     0.000000
    0.392536     0.408011     0.260000     0.000000
    0.277236     0.969628     0.247104     0.000000
    0.455124     0.255634     0.434894     0.000000
    0.013327     0.213584     0.415301     0.000000
    0.619457     0.607063     0.747842     0.000000
    0.729492     0.044563     0.746342     0.000000
    0.868579     0.813529     0.241214     0.000000
    0.979328     0.782300     0.586783     0.000000
    0.120570     0.992120     0.566884     1.028034
    0.541422     0.036017     0.694367     1.021416
    0.611868     0.440862     0.417581     1.025893
    0.871208     0.007304     0.432488     1.029770
    0.184970     0.444669     0.290756     1.024089
    0.461826     0.960480     0.301620     1.033438
    0.385478     0.557003     0.584124     1.032424
    0.236113     0.222959     0.427984     1.030155
    0.934217     0.457761     0.416822     0.000000
    0.756486     0.774129     0.574175     0.000000
    0.304309     0.192247     0.248440     0.000000
    0.434154     0.973784     0.559340     0.000000
    0.064666     0.540238     0.585322     0.000000
    0.065621     0.911075     0.253007     0.000000
    0.486990     0.634859     0.335897     0.000000
    0.554670     0.016629     0.442070     0.000000
    0.822964     0.560406     0.715733     0.000000
    0.706032     0.821701     0.751494     0.000000
    0.779601     0.967415     0.297118     0.000000
    0.780508     0.491160     0.523135     0.000000
    0.530720     0.291812     0.521816     0.000000
    0.365886     0.261205     0.758060     0.000000
    0.749399     0.709500     0.420202     0.000000
    0.649751     0.735374     0.244569     0.000000
    0.247722     0.288566     0.576751     0.000000
    0.004849     0.813260     0.692249     0.000000
    0.463413     0.708387     0.692402     0.000000
    0.215351     0.510696     0.477284     0.000000
    0.249843     0.903702     0.448895     0.000000
    0.000749     0.189278     0.307563     0.000000
    0.542133     0.284417     0.312155     0.000000
    0.939882     0.107834     0.738370     0.000000
    0.742194     0.086380     0.552214     0.000000
    0.001396     0.745771     0.491140     0.000000
    0.466402     0.704393     0.477324     0.000000
    0.237429     0.463369     0.687075     0.000000
    0.224784     0.040974     0.699334     0.000000
    0.989694     0.251559     0.511319     0.000000
    0.763383     0.525001     0.314161     0.000000
    0.509186     0.348357     0.660080     0.000000
