Generation:1
EA1  8.282  8.282  20.057  90.00  90.00  90.00  Sym.group:    0
1.0000
    8.281653     0.000000     0.000000
    0.000000     8.281653     0.000000
    0.000000     0.000000    20.057129
   O  Cu
  18   40 
Direct
    0.136786     0.210755     0.747744
    0.364322     0.903860     0.653965
    0.032983     0.569026     0.687275
    0.330870     0.639355     0.408611
    0.038867     0.853649     0.410088
    0.637106     0.085840     0.349358
    0.666089     0.360299     0.590164
    0.950240     0.141357     0.592051
    0.538472     0.738113     0.564979
    0.971343     0.430779     0.314965
    0.392536     0.408011     0.260000
    0.277236     0.969628     0.247104
    0.455124     0.255634     0.434894
    0.013327     0.213584     0.415301
    0.619457     0.607063     0.747842
    0.729492     0.044563     0.746342
    0.868579     0.813529     0.241214
    0.979328     0.782300     0.586783
    0.120570     0.992120     0.566884
    0.541422     0.036017     0.694367
    0.611868     0.440862     0.417581
    0.871208     0.007304     0.432488
    0.184970     0.444669     0.290756
    0.461826     0.960480     0.301620
    0.385478     0.557003     0.584124
    0.236113     0.222959     0.427984
    0.934217     0.457761     0.416822
    0.756486     0.774129     0.574175
    0.304309     0.192247     0.248440
    0.434154     0.973784     0.559340
    0.064666     0.540238     0.585322
    0.065621     0.911075     0.253007
    0.486990     0.634859     0.335897
    0.554670     0.016629     0.442070
    0.822964     0.560406     0.715733
    0.706032     0.821701     0.751494
    0.779601     0.967415     0.297118
    0.780508     0.491160     0.523135
    0.530720     0.291812     0.521816
    0.365886     0.261205     0.758060
    0.749399     0.709500     0.420202
    0.649751     0.735374     0.244569
    0.247722     0.288566     0.576751
    0.004849     0.813260     0.692249
    0.463413     0.708387     0.692402
    0.215351     0.510696     0.477284
    0.249843     0.903702     0.448895
    0.000749     0.189278     0.307563
    0.542133     0.284417     0.312155
    0.939882     0.107834     0.738370
    0.742194     0.086380     0.552214
    0.001396     0.745771     0.491140
    0.466402     0.704393     0.477324
    0.237429     0.463369     0.687075
    0.224784     0.040974     0.699334
    0.989694     0.251559     0.511319
    0.763383     0.525001     0.314161
    0.509186     0.348357     0.660080
EA2  8.593  8.593  21.019  90.08  90.08  90.08  Sym.group:    0
1.0000
    8.593017     0.000000     0.000000
   -0.011983     8.593000     0.000000
   -0.029353    -0.029394    21.018959
   O  Cu
  18   40 
Direct
    0.500000     0.500000     0.453921
    0.000000     0.000000     0.512865
    0.000610     0.000610     0.004757
    0.500610     0.000610     0.004757
    0.000610     0.500610     0.004757
    0.500610     0.500610     0.004757
    0.250790     0.250800     0.107041
    0.750790     0.250800     0.107041
    0.250790     0.750800     0.107041
    0.750790     0.750800     0.107041
    0.000610     0.000610     0.209175
    0.500610     0.000610     0.209175
    0.000610     0.500610     0.209175
    0.500610     0.500610     0.209175
    0.250790     0.250800     0.311459
    0.750790     0.250800     0.311459
    0.250790     0.750800     0.311459
    0.750790     0.750800     0.311459
    0.780090     0.116080     0.448723
    0.219910     0.883920     0.448723
    0.883920     0.780090     0.448723
    0.116080     0.219910     0.448723
    0.251220     0.586390     0.478720
    0.748780     0.413610     0.478720
    0.413610     0.251220     0.478720
    0.586390     0.748780     0.478720
    0.125670     0.125670     0.055888
    0.625670     0.125670     0.055888
    0.375590     0.375590     0.055892
    0.875590     0.375590     0.055892
    0.125670     0.625670     0.055888
    0.625670     0.625670     0.055888
    0.375590     0.875590     0.055892
    0.875590     0.875590     0.055892
    0.375580     0.125690     0.158064
    0.875580     0.125690     0.158064
    0.125680     0.375590     0.158064
    0.625680     0.375590     0.158064
    0.375580     0.625690     0.158064
    0.875580     0.625690     0.158064
    0.125680     0.875590     0.158064
    0.625680     0.875590     0.158064
    0.125670     0.125670     0.260306
    0.625670     0.125670     0.260306
    0.375590     0.375590     0.260313
    0.875590     0.375590     0.260313
    0.125670     0.625670     0.260306
    0.625670     0.625670     0.260306
    0.375590     0.875590     0.260313
    0.875590     0.875590     0.260313
    0.375580     0.125690     0.362482
    0.875580     0.125690     0.362482
    0.125680     0.375590     0.362482
    0.625680     0.375590     0.362482
    0.375580     0.625690     0.362482
    0.875580     0.625690     0.362482
    0.125680     0.875590     0.362482
    0.625680     0.875590     0.362482
EA3  8.593  8.593  21.019  90.08  90.08  90.08  Sym.group:    0
1.0000
    8.593017     0.000000     0.000000
   -0.011983     8.593000     0.000000
   -0.029353    -0.029394    21.018959
   O  Cu
  18   40 
Direct
    0.040803     0.248309     0.498165
    0.996070     0.676399     0.479731
    0.000610     0.000610     0.004757
    0.500610     0.000610     0.004757
    0.000610     0.500610     0.004757
    0.500610     0.500610     0.004757
    0.250790     0.250800     0.107041
    0.750790     0.250800     0.107041
    0.250790     0.750800     0.107041
    0.750790     0.750800     0.107041
    0.000610     0.000610     0.209175
    0.500610     0.000610     0.209175
    0.000610     0.500610     0.209175
    0.500610     0.500610     0.209175
    0.250790     0.250800     0.311459
    0.750790     0.250800     0.311459
    0.250790     0.750800     0.311459
    0.750790     0.750800     0.311459
    0.245603     0.268729     0.469699
    0.020383     0.432679     0.469699
    0.306895     0.509611     0.456308
    0.751078     0.274830     0.492404
    0.544103     0.528719     0.430102
    0.281695     0.797719     0.498262
    0.824467     0.519315     0.503172
    0.998543     0.018849     0.506076
    0.125670     0.125670     0.055888
    0.625670     0.125670     0.055888
    0.375590     0.375590     0.055892
    0.875590     0.375590     0.055892
    0.125670     0.625670     0.055888
    0.625670     0.625670     0.055888
    0.375590     0.875590     0.055892
    0.875590     0.875590     0.055892
    0.375580     0.125690     0.158064
    0.875580     0.125690     0.158064
    0.125680     0.375590     0.158064
    0.625680     0.375590     0.158064
    0.375580     0.625690     0.158064
    0.875580     0.625690     0.158064
    0.125680     0.875590     0.158064
    0.625680     0.875590     0.158064
    0.125670     0.125670     0.260306
    0.625670     0.125670     0.260306
    0.375590     0.375590     0.260313
    0.875590     0.375590     0.260313
    0.125670     0.625670     0.260306
    0.625670     0.625670     0.260306
    0.375590     0.875590     0.260313
    0.875590     0.875590     0.260313
    0.375580     0.125690     0.362482
    0.875580     0.125690     0.362482
    0.125680     0.375590     0.362482
    0.625680     0.375590     0.362482
    0.375580     0.625690     0.362482
    0.875580     0.625690     0.362482
    0.125680     0.875590     0.362482
    0.625680     0.875590     0.362482
EA4  8.593  8.593  21.019  90.08  90.08  90.08  Sym.group:    0
1.0000
    8.593017     0.000000     0.000000
   -0.011983     8.593000     0.000000
   -0.029353    -0.029394    21.018959
   O  Cu
  18   40 
Direct
    0.333330     0.666670     0.487596
    0.666670     0.333330     0.487596
    0.000610     0.000610     0.004757
    0.500610     0.000610     0.004757
    0.000610     0.500610     0.004757
    0.500610     0.500610     0.004757
    0.250790     0.250800     0.107041
    0.750790     0.250800     0.107041
    0.250790     0.750800     0.107041
    0.750790     0.750800     0.107041
    0.000610     0.000610     0.209175
    0.500610     0.000610     0.209175
    0.000610     0.500610     0.209175
    0.500610     0.500610     0.209175
    0.250790     0.250800     0.311459
    0.750790     0.250800     0.311459
    0.250790     0.750800     0.311459
    0.750790     0.750800     0.311459
    0.538130     0.687090     0.459130
    0.312910     0.851040     0.459130
    0.148960     0.461870     0.459130
    0.461870     0.148960     0.459130
    0.851040     0.312910     0.459130
    0.687090     0.538130     0.459130
    0.000000     0.000000     0.386350
    0.000000     1.000000     0.504030
    0.125670     0.125670     0.055888
    0.625670     0.125670     0.055888
    0.375590     0.375590     0.055892
    0.875590     0.375590     0.055892
    0.125670     0.625670     0.055888
    0.625670     0.625670     0.055888
    0.375590     0.875590     0.055892
    0.875590     0.875590     0.055892
    0.375580     0.125690     0.158064
    0.875580     0.125690     0.158064
    0.125680     0.375590     0.158064
    0.625680     0.375590     0.158064
    0.375580     0.625690     0.158064
    0.875580     0.625690     0.158064
    0.125680     0.875590     0.158064
    0.625680     0.875590     0.158064
    0.125670     0.125670     0.260306
    0.625670     0.125670     0.260306
    0.375590     0.375590     0.260313
    0.875590     0.375590     0.260313
    0.125670     0.625670     0.260306
    0.625670     0.625670     0.260306
    0.375590     0.875590     0.260313
    0.875590     0.875590     0.260313
    0.375580     0.125690     0.362482
    0.875580     0.125690     0.362482
    0.125680     0.375590     0.362482
    0.625680     0.375590     0.362482
    0.375580     0.625690     0.362482
    0.875580     0.625690     0.362482
    0.125680     0.875590     0.362482
    0.625680     0.875590     0.362482
EA5  8.593  8.593  21.019  90.08  90.08  90.08  Sym.group:    0
1.0000
    8.593017     0.000000     0.000000
   -0.011983     8.593000     0.000000
   -0.029353    -0.029394    21.018959
   O  Cu
  18   40 
Direct
    0.250000     0.663720     0.474210
    0.750000     0.336280     0.474210
    0.000610     0.000610     0.004757
    0.500610     0.000610     0.004757
    0.000610     0.500610     0.004757
    0.500610     0.500610     0.004757
    0.250790     0.250800     0.107041
    0.750790     0.250800     0.107041
    0.250790     0.750800     0.107041
    0.750790     0.750800     0.107041
    0.000610     0.000610     0.209175
    0.500610     0.000610     0.209175
    0.000610     0.500610     0.209175
    0.500610     0.500610     0.209175
    0.250790     0.250800     0.311459
    0.750790     0.250800     0.311459
    0.250790     0.750800     0.311459
    0.750790     0.750800     0.311459
    0.870390     0.058720     0.444853
    0.129610     0.941280     0.444853
    0.629610     0.058720     0.444853
    0.370390     0.941280     0.444853
    0.551280     0.715180     0.499044
    0.448720     0.284820     0.499044
    0.948720     0.715180     0.499044
    0.051280     0.284820     0.499044
    0.125670     0.125670     0.055888
    0.625670     0.125670     0.055888
    0.375590     0.375590     0.055892
    0.875590     0.375590     0.055892
    0.125670     0.625670     0.055888
    0.625670     0.625670     0.055888
    0.375590     0.875590     0.055892
    0.875590     0.875590     0.055892
    0.375580     0.125690     0.158064
    0.875580     0.125690     0.158064
    0.125680     0.375590     0.158064
    0.625680     0.375590     0.158064
    0.375580     0.625690     0.158064
    0.875580     0.625690     0.158064
    0.125680     0.875590     0.158064
    0.625680     0.875590     0.158064
    0.125670     0.125670     0.260306
    0.625670     0.125670     0.260306
    0.375590     0.375590     0.260313
    0.875590     0.375590     0.260313
    0.125670     0.625670     0.260306
    0.625670     0.625670     0.260306
    0.375590     0.875590     0.260313
    0.875590     0.875590     0.260313
    0.375580     0.125690     0.362482
    0.875580     0.125690     0.362482
    0.125680     0.375590     0.362482
    0.625680     0.375590     0.362482
    0.375580     0.625690     0.362482
    0.875580     0.625690     0.362482
    0.125680     0.875590     0.362482
    0.625680     0.875590     0.362482
EA6  8.593  8.593  21.019  90.08  90.08  90.08  Sym.group:    0
1.0000
    8.593017     0.000000     0.000000
   -0.011983     8.593000     0.000000
   -0.029353    -0.029394    21.018959
   O  Cu
  18   40 
Direct
    0.768960     0.230010     0.427664
    0.231040     0.769990     0.427664
    0.000610     0.000610     0.004757
    0.500610     0.000610     0.004757
    0.000610     0.500610     0.004757
    0.500610     0.500610     0.004757
    0.250790     0.250800     0.107041
    0.750790     0.250800     0.107041
    0.250790     0.750800     0.107041
    0.750790     0.750800     0.107041
    0.000610     0.000610     0.209175
    0.500610     0.000610     0.209175
    0.000610     0.500610     0.209175
    0.500610     0.500610     0.209175
    0.250790     0.250800     0.311459
    0.750790     0.250800     0.311459
    0.250790     0.750800     0.311459
    0.750790     0.750800     0.311459
    0.603060     0.045390     0.428154
    0.396940     0.954610     0.428154
    0.099040     0.604880     0.386463
    0.900960     0.395120     0.386463
    0.000000     0.500000     0.432905
    0.170510     0.431650     0.494567
    0.829490     0.568350     0.494567
    0.500000     0.000000     0.499822
    0.125670     0.125670     0.055888
    0.625670     0.125670     0.055888
    0.375590     0.375590     0.055892
    0.875590     0.375590     0.055892
    0.125670     0.625670     0.055888
    0.625670     0.625670     0.055888
    0.375590     0.875590     0.055892
    0.875590     0.875590     0.055892
    0.375580     0.125690     0.158064
    0.875580     0.125690     0.158064
    0.125680     0.375590     0.158064
    0.625680     0.375590     0.158064
    0.375580     0.625690     0.158064
    0.875580     0.625690     0.158064
    0.125680     0.875590     0.158064
    0.625680     0.875590     0.158064
    0.125670     0.125670     0.260306
    0.625670     0.125670     0.260306
    0.375590     0.375590     0.260313
    0.875590     0.375590     0.260313
    0.125670     0.625670     0.260306
    0.625670     0.625670     0.260306
    0.375590     0.875590     0.260313
    0.875590     0.875590     0.260313
    0.375580     0.125690     0.362482
    0.875580     0.125690     0.362482
    0.125680     0.375590     0.362482
    0.625680     0.375590     0.362482
    0.375580     0.625690     0.362482
    0.875580     0.625690     0.362482
    0.125680     0.875590     0.362482
    0.625680     0.875590     0.362482
EA7  8.593  8.593  21.019  90.08  90.08  90.08  Sym.group:    0
1.0000
    8.593017     0.000000     0.000000
   -0.011983     8.593000     0.000000
   -0.029353    -0.029394    21.018959
   O  Cu
  18   40 
Direct
    0.000000     0.000000     0.429088
    0.500000     0.500000     0.453921
    0.000610     0.000610     0.004757
    0.500610     0.000610     0.004757
    0.000610     0.500610     0.004757
    0.500610     0.500610     0.004757
    0.250790     0.250800     0.107041
    0.750790     0.250800     0.107041
    0.250790     0.750800     0.107041
    0.750790     0.750800     0.107041
    0.000610     0.000610     0.209175
    0.500610     0.000610     0.209175
    0.000610     0.500610     0.209175
    0.500610     0.500610     0.209175
    0.250790     0.250800     0.311459
    0.750790     0.250800     0.311459
    0.250790     0.750800     0.311459
    0.750790     0.750800     0.311459
    0.700000     0.300000     0.543818
    0.200000     0.700000     0.593512
    0.600000     0.000000     0.538793
    0.780090     0.116080     0.448723
    0.219910     0.883920     0.448723
    0.883920     0.780090     0.448723
    0.116080     0.219910     0.448723
    0.251220     0.586390     0.478720
    0.125670     0.125670     0.055888
    0.625670     0.125670     0.055888
    0.375590     0.375590     0.055892
    0.875590     0.375590     0.055892
    0.125670     0.625670     0.055888
    0.625670     0.625670     0.055888
    0.375590     0.875590     0.055892
    0.875590     0.875590     0.055892
    0.375580     0.125690     0.158064
    0.875580     0.125690     0.158064
    0.125680     0.375590     0.158064
    0.625680     0.375590     0.158064
    0.375580     0.625690     0.158064
    0.875580     0.625690     0.158064
    0.125680     0.875590     0.158064
    0.625680     0.875590     0.158064
    0.125670     0.125670     0.260306
    0.625670     0.125670     0.260306
    0.375590     0.375590     0.260313
    0.875590     0.375590     0.260313
    0.125670     0.625670     0.260306
    0.625670     0.625670     0.260306
    0.375590     0.875590     0.260313
    0.875590     0.875590     0.260313
    0.375580     0.125690     0.362482
    0.875580     0.125690     0.362482
    0.125680     0.375590     0.362482
    0.625680     0.375590     0.362482
    0.375580     0.625690     0.362482
    0.875580     0.625690     0.362482
    0.125680     0.875590     0.362482
    0.625680     0.875590     0.362482
EA8  8.593  8.593  21.019  90.08  90.08  90.08  Sym.group:    0
1.0000
    8.593017     0.000000     0.000000
   -0.011983     8.593000     0.000000
   -0.029353    -0.029394    21.018959
   O  Cu
  18   40 
Direct
    0.780090     0.116080     0.448723
    0.500000     0.500000     0.453921
    0.000610     0.000610     0.004757
    0.500610     0.000610     0.004757
    0.000610     0.500610     0.004757
    0.500610     0.500610     0.004757
    0.250790     0.250800     0.107041
    0.750790     0.250800     0.107041
    0.250790     0.750800     0.107041
    0.750790     0.750800     0.107041
    0.000610     0.000610     0.209175
    0.500610     0.000610     0.209175
    0.000610     0.500610     0.209175
    0.500610     0.500610     0.209175
    0.250790     0.250800     0.311459
    0.750790     0.250800     0.311459
    0.250790     0.750800     0.311459
    0.750790     0.750800     0.311459
    0.700000     0.300000     0.543818
    0.200000     0.700000     0.593512
    0.600000     1.000000     0.538793
    0.000000     0.000000     0.429088
    0.219910     0.883920     0.448723
    0.883920     0.780090     0.448723
    0.116080     0.219910     0.448723
    0.251220     0.586390     0.478720
    0.125670     0.125670     0.055888
    0.625670     0.125670     0.055888
    0.375590     0.375590     0.055892
    0.875590     0.375590     0.055892
    0.125670     0.625670     0.055888
    0.625670     0.625670     0.055888
    0.375590     0.875590     0.055892
    0.875590     0.875590     0.055892
    0.375580     0.125690     0.158064
    0.875580     0.125690     0.158064
    0.125680     0.375590     0.158064
    0.625680     0.375590     0.158064
    0.375580     0.625690     0.158064
    0.875580     0.625690     0.158064
    0.125680     0.875590     0.158064
    0.625680     0.875590     0.158064
    0.125670     0.125670     0.260306
    0.625670     0.125670     0.260306
    0.375590     0.375590     0.260313
    0.875590     0.375590     0.260313
    0.125670     0.625670     0.260306
    0.625670     0.625670     0.260306
    0.375590     0.875590     0.260313
    0.875590     0.875590     0.260313
    0.375580     0.125690     0.362482
    0.875580     0.125690     0.362482
    0.125680     0.375590     0.362482
    0.625680     0.375590     0.362482
    0.375580     0.625690     0.362482
    0.875580     0.625690     0.362482
    0.125680     0.875590     0.362482
    0.625680     0.875590     0.362482
EA9  8.593  8.593  21.019  90.08  90.08  90.08  Sym.group:    0
1.0000
    8.593017     0.000000     0.000000
   -0.011983     8.593000     0.000000
   -0.029353    -0.029394    21.018959
   O  Cu
  18   40 
Direct
    0.300000     0.300000     0.429088
    0.300000     0.400000     0.476759
    0.000610     0.000610     0.004757
    0.500610     0.000610     0.004757
    0.000610     0.500610     0.004757
    0.500610     0.500610     0.004757
    0.250790     0.250800     0.107041
    0.750790     0.250800     0.107041
    0.250790     0.750800     0.107041
    0.750790     0.750800     0.107041
    0.000610     0.000610     0.209175
    0.500610     0.000610     0.209175
    0.000610     0.500610     0.209175
    0.500610     0.500610     0.209175
    0.250790     0.250800     0.311459
    0.750790     0.250800     0.311459
    0.250790     0.750800     0.311459
    0.750790     0.750800     0.311459
    0.500000     0.500000     0.429088
    0.800000     0.700000     0.429088
    0.207450     0.992200     0.500962
    0.792550     0.007800     0.500962
    0.170170     0.645310     0.476666
    0.829830     0.354690     0.476666
    0.354690     0.829830     0.476666
    0.645310     0.170170     0.476666
    0.125670     0.125670     0.055888
    0.625670     0.125670     0.055888
    0.375590     0.375590     0.055892
    0.875590     0.375590     0.055892
    0.125670     0.625670     0.055888
    0.625670     0.625670     0.055888
    0.375590     0.875590     0.055892
    0.875590     0.875590     0.055892
    0.375580     0.125690     0.158064
    0.875580     0.125690     0.158064
    0.125680     0.375590     0.158064
    0.625680     0.375590     0.158064
    0.375580     0.625690     0.158064
    0.875580     0.625690     0.158064
    0.125680     0.875590     0.158064
    0.625680     0.875590     0.158064
    0.125670     0.125670     0.260306
    0.625670     0.125670     0.260306
    0.375590     0.375590     0.260313
    0.875590     0.375590     0.260313
    0.125670     0.625670     0.260306
    0.625670     0.625670     0.260306
    0.375590     0.875590     0.260313
    0.875590     0.875590     0.260313
    0.375580     0.125690     0.362482
    0.875580     0.125690     0.362482
    0.125680     0.375590     0.362482
    0.625680     0.375590     0.362482
    0.375580     0.625690     0.362482
    0.875580     0.625690     0.362482
    0.125680     0.875590     0.362482
    0.625680     0.875590     0.362482
EA10  8.593  8.593  21.019  90.08  90.08  90.08  Sym.group:    0
1.0000
    8.593017     0.000000     0.000000
   -0.011983     8.593000     0.000000
   -0.029353    -0.029394    21.018959
   O  Cu
  18   40 
Direct
    0.000000     0.000000     0.434004
    0.500000     0.500000     0.434004
    0.000610     0.000610     0.004757
    0.500610     0.000610     0.004757
    0.000610     0.500610     0.004757
    0.500610     0.500610     0.004757
    0.250790     0.250800     0.107041
    0.750790     0.250800     0.107041
    0.250790     0.750800     0.107041
    0.750790     0.750800     0.107041
    0.000610     0.000610     0.209175
    0.500610     0.000610     0.209175
    0.000610     0.500610     0.209175
    0.500610     0.500610     0.209175
    0.250790     0.250800     0.311459
    0.750790     0.250800     0.311459
    0.250790     0.750800     0.311459
    0.750790     0.750800     0.311459
    0.236900     0.539020     0.429646
    0.763100     0.460980     0.429646
    0.263100     0.039020     0.429646
    0.736900     0.960980     0.429646
    0.407410     0.189210     0.433098
    0.592590     0.810790     0.433098
    0.092590     0.689210     0.433098
    0.907410     0.310790     0.433098
    0.125670     0.125670     0.055888
    0.625670     0.125670     0.055888
    0.375590     0.375590     0.055892
    0.875590     0.375590     0.055892
    0.125670     0.625670     0.055888
    0.625670     0.625670     0.055888
    0.375590     0.875590     0.055892
    0.875590     0.875590     0.055892
    0.375580     0.125690     0.158064
    0.875580     0.125690     0.158064
    0.125680     0.375590     0.158064
    0.625680     0.375590     0.158064
    0.375580     0.625690     0.158064
    0.875580     0.625690     0.158064
    0.125680     0.875590     0.158064
    0.625680     0.875590     0.158064
    0.125670     0.125670     0.260306
    0.625670     0.125670     0.260306
    0.375590     0.375590     0.260313
    0.875590     0.375590     0.260313
    0.125670     0.625670     0.260306
    0.625670     0.625670     0.260306
    0.375590     0.875590     0.260313
    0.875590     0.875590     0.260313
    0.375580     0.125690     0.362482
    0.875580     0.125690     0.362482
    0.125680     0.375590     0.362482
    0.625680     0.375590     0.362482
    0.375580     0.625690     0.362482
    0.875580     0.625690     0.362482
    0.125680     0.875590     0.362482
    0.625680     0.875590     0.362482
EA11  6.413  9.301  26.163  90.00  90.00  90.00  Sym.group:    0
1.0000
    6.413142     0.000000     0.000000
    0.000000     9.300850     0.000000
    0.000000     0.000000    26.163320
   O  Cu
  18   40 
Direct
    0.556190     0.676693     0.598439
    0.389375     0.501452     0.481833
    0.914782     0.116326     0.660930
    0.972364     0.738139     0.376990
    0.175688     0.325717     0.250042
    0.263301     0.115257     0.757479
    0.649633     0.801029     0.464816
    0.321903     0.268761     0.599007
    0.410504     0.575918     0.343983
    0.801470     0.925421     0.287474
    0.924881     0.450224     0.454940
    0.535228     0.726275     0.239957
    0.907438     0.329159     0.833719
    0.663624     0.080212     0.376279
    0.319083     0.175806     0.429569
    0.424657     0.921660     0.662231
    0.647452     0.152760     0.519298
    0.752540     0.483622     0.707407
    0.623035     0.112080     0.445844
    0.373273     0.095288     0.631434
    0.860089     0.738165     0.607051
    0.199170     0.347613     0.457452
    0.747276     0.608253     0.473412
    0.024435     0.258796     0.592890
    0.297016     0.773986     0.620161
    0.100622     0.929432     0.289859
    0.640873     0.526687     0.641460
    0.763946     0.152574     0.818205
    0.238701     0.717394     0.235592
    0.813838     0.915144     0.365467
    0.031666     0.966656     0.618111
    0.488086     0.916637     0.283433
    0.542563     0.088056     0.749233
    0.425717     0.548648     0.413694
    0.420967     0.602663     0.541441
    0.962345     0.087841     0.738977
    0.816483     0.302624     0.495147
    0.127615     0.234235     0.802346
    0.290417     0.431892     0.302775
    0.648802     0.599163     0.299904
    0.013949     0.494340     0.238074
    0.368384     0.064085     0.360726
    0.716277     0.937289     0.678054
    0.952663     0.828365     0.457562
    0.127157     0.826285     0.540015
    0.170150     0.038058     0.467519
    0.876341     0.023544     0.528974
    0.840409     0.535592     0.384709
    0.840578     0.739538     0.235117
    0.807269     0.298458     0.677704
    0.770284     0.885870     0.773273
    0.277306     0.153466     0.274317
    0.823851     0.411382     0.772081
    0.023938     0.649572     0.311158
    0.355334     0.807468     0.463037
    0.624885     0.275606     0.588090
    0.809595     0.692061     0.707933
    0.285225     0.793534     0.364896
EA12  8.593  8.593  21.019  90.08  90.08  90.08  Sym.group:    0
1.0000
    8.593017     0.000000     0.000000
   -0.011983     8.593000     0.000000
   -0.029353    -0.029394    21.018959
   O  Cu
  18   40 
Direct
    0.000000     0.500000     0.508670
    0.500000     1.000000     0.508670
    0.000610     0.000610     0.004757
    0.500610     0.000610     0.004757
    0.000610     0.500610     0.004757
    0.500610     0.500610     0.004757
    0.250790     0.250800     0.107041
    0.750790     0.250800     0.107041
    0.250790     0.750800     0.107041
    0.750790     0.750800     0.107041
    0.000610     0.000610     0.209175
    0.500610     0.000610     0.209175
    0.000610     0.500610     0.209175
    0.500610     0.500610     0.209175
    0.250790     0.250800     0.311459
    0.750790     0.250800     0.311459
    0.250790     0.750800     0.311459
    0.750790     0.750800     0.311459
    0.162120     0.553520     0.492352
    0.837880     0.446480     0.492352
    0.337880     0.053520     0.492352
    0.662120     0.946480     0.492352
    0.320560     0.420930     0.489093
    0.679440     0.579070     0.489093
    0.179440     0.920930     0.489093
    0.820560     0.079070     0.489093
    0.125670     0.125670     0.055888
    0.625670     0.125670     0.055888
    0.375590     0.375590     0.055892
    0.875590     0.375590     0.055892
    0.125670     0.625670     0.055888
    0.625670     0.625670     0.055888
    0.375590     0.875590     0.055892
    0.875590     0.875590     0.055892
    0.375580     0.125690     0.158064
    0.875580     0.125690     0.158064
    0.125680     0.375590     0.158064
    0.625680     0.375590     0.158064
    0.375580     0.625690     0.158064
    0.875580     0.625690     0.158064
    0.125680     0.875590     0.158064
    0.625680     0.875590     0.158064
    0.125670     0.125670     0.260306
    0.625670     0.125670     0.260306
    0.375590     0.375590     0.260313
    0.875590     0.375590     0.260313
    0.125670     0.625670     0.260306
    0.625670     0.625670     0.260306
    0.375590     0.875590     0.260313
    0.875590     0.875590     0.260313
    0.375580     0.125690     0.362482
    0.875580     0.125690     0.362482
    0.125680     0.375590     0.362482
    0.625680     0.375590     0.362482
    0.375580     0.625690     0.362482
    0.875580     0.625690     0.362482
    0.125680     0.875590     0.362482
    0.625680     0.875590     0.362482
EA13  9.498  5.926  18.701  90.00  90.00  90.00  Sym.group:    0
1.0000
    9.498188     0.000000     0.000000
    0.000000     5.925959     0.000000
    0.000000     0.000000    18.700760
   O  Cu
  18   40 
Direct
    0.399520     0.950404     0.772737
    0.323859     0.279195     0.663605
    0.686893     0.542166     0.636178
    0.347292     0.095702     0.270285
    0.700092     0.862323     0.326441
    0.404313     0.865429     0.562332
    0.427021     0.768910     0.123327
    0.574745     0.360354     0.123492
    0.102960     0.958754     0.603064
    0.586821     0.360301     0.487798
    0.176213     0.571536     0.210930
    0.828310     0.421178     0.267296
    0.572506     0.769194     0.136474
    0.429261     0.363332     0.112469
    0.771999     0.907673     0.524097
    0.241995     0.141905     0.460368
    0.474722     0.597324     0.332120
    0.773435     0.121625     0.716814
    0.984968     0.509524     0.485303
    0.001275     0.593966     0.800744
    0.500267     0.064681     0.124005
    0.472296     0.594673     0.524294
    0.034508     0.089567     0.443506
    0.078807     0.228527     0.847196
    0.014809     0.999752     0.311909
    0.508686     0.929656     0.307018
    0.368199     0.265118     0.782169
    0.007216     0.812152     0.684531
    0.003778     0.548999     0.250439
    0.315190     0.916708     0.660267
    0.598523     0.014893     0.752222
    0.326751     0.509112     0.275143
    0.651296     0.521497     0.300778
    0.689062     0.699264     0.840366
    0.974338     0.271486     0.720611
    0.507166     0.407919     0.652777
    0.111068     0.673859     0.374974
    0.253455     0.831609     0.477081
    0.206433     0.519187     0.707412
    0.760317     0.126541     0.287568
    0.225161     0.864467     0.238465
    0.876856     0.437477     0.606911
    0.124704     0.651275     0.583466
    0.520040     0.109745     0.539583
    0.557988     0.361384     0.861343
    0.888193     0.952783     0.794190
    0.178212     0.900182     0.780059
    0.764494     0.989764     0.622991
    0.111056     0.269565     0.595893
    0.731744     0.599316     0.507399
    0.791918     0.207201     0.486852
    0.413849     0.642743     0.789578
    0.822823     0.336199     0.849130
    0.846881     0.818289     0.402796
    0.272339     0.119695     0.361021
    0.781628     0.614804     0.722801
    0.902349     0.377926     0.368734
    0.242647     0.449978     0.471220
EA14  8.593  8.593  21.019  90.08  90.08  90.08  Sym.group:    0
1.0000
    8.593017     0.000000     0.000000
   -0.011983     8.593000     0.000000
   -0.029353    -0.029394    21.018959
   O  Cu
  18   40 
Direct
    0.400000     0.100000     0.429088
    0.306840     0.858618     0.450499
    0.000610     0.000610     0.004757
    0.500610     0.000610     0.004757
    0.000610     0.500610     0.004757
    0.500610     0.500610     0.004757
    0.250790     0.250800     0.107041
    0.750790     0.250800     0.107041
    0.250790     0.750800     0.107041
    0.750790     0.750800     0.107041
    0.000610     0.000610     0.209175
    0.500610     0.000610     0.209175
    0.000610     0.500610     0.209175
    0.500610     0.500610     0.209175
    0.250790     0.250800     0.311459
    0.750790     0.250800     0.311459
    0.250790     0.750800     0.311459
    0.750790     0.750800     0.311459
    0.789280     0.035258     0.464254
    0.200000     0.500000     0.429088
    0.000000     0.900000     0.429088
    0.400000     0.400000     0.540218
    0.586930     0.474698     0.445301
    0.026750     0.242538     0.445301
    0.696690     0.724468     0.463348
    0.881870     0.346048     0.463348
    0.125670     0.125670     0.055888
    0.625670     0.125670     0.055888
    0.375590     0.375590     0.055892
    0.875590     0.375590     0.055892
    0.125670     0.625670     0.055888
    0.625670     0.625670     0.055888
    0.375590     0.875590     0.055892
    0.875590     0.875590     0.055892
    0.375580     0.125690     0.158064
    0.875580     0.125690     0.158064
    0.125680     0.375590     0.158064
    0.625680     0.375590     0.158064
    0.375580     0.625690     0.158064
    0.875580     0.625690     0.158064
    0.125680     0.875590     0.158064
    0.625680     0.875590     0.158064
    0.125670     0.125670     0.260306
    0.625670     0.125670     0.260306
    0.375590     0.375590     0.260313
    0.875590     0.375590     0.260313
    0.125670     0.625670     0.260306
    0.625670     0.625670     0.260306
    0.375590     0.875590     0.260313
    0.875590     0.875590     0.260313
    0.375580     0.125690     0.362482
    0.875580     0.125690     0.362482
    0.125680     0.375590     0.362482
    0.625680     0.375590     0.362482
    0.375580     0.625690     0.362482
    0.875580     0.625690     0.362482
    0.125680     0.875590     0.362482
    0.625680     0.875590     0.362482
EA15  8.593  8.593  21.019  90.08  90.08  90.08  Sym.group:    0
1.0000
    8.593017     0.000000     0.000000
   -0.011983     8.593000     0.000000
   -0.029353    -0.029394    21.018959
   O  Cu
  18   40 
Direct
    0.658150     0.658150     0.514268
    0.341850     0.341850     0.514268
    0.000610     0.000610     0.004757
    0.500610     0.000610     0.004757
    0.000610     0.500610     0.004757
    0.500610     0.500610     0.004757
    0.250790     0.250800     0.107041
    0.750790     0.250800     0.107041
    0.250790     0.750800     0.107041
    0.750790     0.750800     0.107041
    0.000610     0.000610     0.209175
    0.500610     0.000610     0.209175
    0.000610     0.500610     0.209175
    0.500610     0.500610     0.209175
    0.250790     0.250800     0.311459
    0.750790     0.250800     0.311459
    0.250790     0.750800     0.311459
    0.750790     0.750800     0.311459
    0.207450     0.992200     0.500962
    0.792550     0.007800     0.500962
    0.007800     0.792550     0.500962
    0.992200     0.207450     0.500962
    0.170170     0.645310     0.476666
    0.829830     0.354690     0.476666
    0.354690     0.829830     0.476666
    0.645310     0.170170     0.476666
    0.125670     0.125670     0.055888
    0.625670     0.125670     0.055888
    0.375590     0.375590     0.055892
    0.875590     0.375590     0.055892
    0.125670     0.625670     0.055888
    0.625670     0.625670     0.055888
    0.375590     0.875590     0.055892
    0.875590     0.875590     0.055892
    0.375580     0.125690     0.158064
    0.875580     0.125690     0.158064
    0.125680     0.375590     0.158064
    0.625680     0.375590     0.158064
    0.375580     0.625690     0.158064
    0.875580     0.625690     0.158064
    0.125680     0.875590     0.158064
    0.625680     0.875590     0.158064
    0.125670     0.125670     0.260306
    0.625670     0.125670     0.260306
    0.375590     0.375590     0.260313
    0.875590     0.375590     0.260313
    0.125670     0.625670     0.260306
    0.625670     0.625670     0.260306
    0.375590     0.875590     0.260313
    0.875590     0.875590     0.260313
    0.375580     0.125690     0.362482
    0.875580     0.125690     0.362482
    0.125680     0.375590     0.362482
    0.625680     0.375590     0.362482
    0.375580     0.625690     0.362482
    0.875580     0.625690     0.362482
    0.125680     0.875590     0.362482
    0.625680     0.875590     0.362482
EA16  8.593  8.593  21.019  90.08  90.08  90.08  Sym.group:    0
1.0000
    8.593017     0.000000     0.000000
   -0.011983     8.593000     0.000000
   -0.029353    -0.029394    21.018959
   O  Cu
  18   40 
Direct
    0.286850     0.251230     0.517810
    0.713150     0.748770     0.517810
    0.000610     0.000610     0.004757
    0.500610     0.000610     0.004757
    0.000610     0.500610     0.004757
    0.500610     0.500610     0.004757
    0.250790     0.250800     0.107041
    0.750790     0.250800     0.107041
    0.250790     0.750800     0.107041
    0.750790     0.750800     0.107041
    0.000610     0.000610     0.209175
    0.500610     0.000610     0.209175
    0.000610     0.500610     0.209175
    0.500610     0.500610     0.209175
    0.250790     0.250800     0.311459
    0.750790     0.250800     0.311459
    0.250790     0.750800     0.311459
    0.750790     0.750800     0.311459
    0.183950     0.781600     0.429487
    0.816050     0.218400     0.429487
    0.993150     0.603290     0.475012
    0.006850     0.396710     0.475012
    0.657750     0.524020     0.508349
    0.342250     0.475980     0.508349
    0.668120     0.324390     0.452776
    0.331880     0.675610     0.452776
    0.125670     0.125670     0.055888
    0.625670     0.125670     0.055888
    0.375590     0.375590     0.055892
    0.875590     0.375590     0.055892
    0.125670     0.625670     0.055888
    0.625670     0.625670     0.055888
    0.375590     0.875590     0.055892
    0.875590     0.875590     0.055892
    0.375580     0.125690     0.158064
    0.875580     0.125690     0.158064
    0.125680     0.375590     0.158064
    0.625680     0.375590     0.158064
    0.375580     0.625690     0.158064
    0.875580     0.625690     0.158064
    0.125680     0.875590     0.158064
    0.625680     0.875590     0.158064
    0.125670     0.125670     0.260306
    0.625670     0.125670     0.260306
    0.375590     0.375590     0.260313
    0.875590     0.375590     0.260313
    0.125670     0.625670     0.260306
    0.625670     0.625670     0.260306
    0.375590     0.875590     0.260313
    0.875590     0.875590     0.260313
    0.375580     0.125690     0.362482
    0.875580     0.125690     0.362482
    0.125680     0.375590     0.362482
    0.625680     0.375590     0.362482
    0.375580     0.625690     0.362482
    0.875580     0.625690     0.362482
    0.125680     0.875590     0.362482
    0.625680     0.875590     0.362482
EA17  8.593  8.593  21.019  90.08  90.08  90.08  Sym.group:    0
1.0000
    8.593017     0.000000     0.000000
   -0.011983     8.593000     0.000000
   -0.029353    -0.029394    21.018959
   O  Cu
  18   40 
Direct
    0.000000     0.000000     0.480822
    0.000000     0.000000     0.441044
    0.000610     0.000610     0.004757
    0.500610     0.000610     0.004757
    0.000610     0.500610     0.004757
    0.500610     0.500610     0.004757
    0.250790     0.250800     0.107041
    0.750790     0.250800     0.107041
    0.250790     0.750800     0.107041
    0.750790     0.750800     0.107041
    0.000610     0.000610     0.209175
    0.500610     0.000610     0.209175
    0.000610     0.500610     0.209175
    0.500610     0.500610     0.209175
    0.250790     0.250800     0.311459
    0.750790     0.250800     0.311459
    0.250790     0.750800     0.311459
    0.750790     0.750800     0.311459
    0.208800     0.000000     0.495702
    0.208800     0.208800     0.495702
    0.000000     0.208800     0.495702
    0.791200     0.000000     0.495702
    0.791200     0.791200     0.495702
    0.000000     0.791200     0.495702
    0.333330     0.666670     0.479448
    0.666670     0.333330     0.479448
    0.125670     0.125670     0.055888
    0.625670     0.125670     0.055888
    0.375590     0.375590     0.055892
    0.875590     0.375590     0.055892
    0.125670     0.625670     0.055888
    0.625670     0.625670     0.055888
    0.375590     0.875590     0.055892
    0.875590     0.875590     0.055892
    0.375580     0.125690     0.158064
    0.875580     0.125690     0.158064
    0.125680     0.375590     0.158064
    0.625680     0.375590     0.158064
    0.375580     0.625690     0.158064
    0.875580     0.625690     0.158064
    0.125680     0.875590     0.158064
    0.625680     0.875590     0.158064
    0.125670     0.125670     0.260306
    0.625670     0.125670     0.260306
    0.375590     0.375590     0.260313
    0.875590     0.375590     0.260313
    0.125670     0.625670     0.260306
    0.625670     0.625670     0.260306
    0.375590     0.875590     0.260313
    0.875590     0.875590     0.260313
    0.375580     0.125690     0.362482
    0.875580     0.125690     0.362482
    0.125680     0.375590     0.362482
    0.625680     0.375590     0.362482
    0.375580     0.625690     0.362482
    0.875580     0.625690     0.362482
    0.125680     0.875590     0.362482
    0.625680     0.875590     0.362482
EA18  8.593  8.593  21.019  90.08  90.08  90.08  Sym.group:    0
1.0000
    8.593017     0.000000     0.000000
   -0.011983     8.593000     0.000000
   -0.029353    -0.029394    21.018959
   O  Cu
  18   40 
Direct
    0.521393     0.394254     0.453876
    0.969781     0.655656     0.511889
    0.000610     0.000610     0.004757
    0.500610     0.000610     0.004757
    0.000610     0.500610     0.004757
    0.500610     0.500610     0.004757
    0.250790     0.250800     0.107041
    0.750790     0.250800     0.107041
    0.250790     0.750800     0.107041
    0.750790     0.750800     0.107041
    0.000610     0.000610     0.209175
    0.500610     0.000610     0.209175
    0.000610     0.500610     0.209175
    0.500610     0.500610     0.209175
    0.250790     0.250800     0.311459
    0.750790     0.250800     0.311459
    0.250790     0.750800     0.311459
    0.750790     0.750800     0.311459
    0.832218     0.227466     0.430453
    0.276401     0.992685     0.466549
    0.839604     0.808717     0.494633
    0.069426     0.246574     0.404247
    0.310502     0.685201     0.484964
    0.807018     0.515574     0.472407
    0.349790     0.237170     0.477317
    0.523866     0.736704     0.480221
    0.125670     0.125670     0.055888
    0.625670     0.125670     0.055888
    0.375590     0.375590     0.055892
    0.875590     0.375590     0.055892
    0.125670     0.625670     0.055888
    0.625670     0.625670     0.055888
    0.375590     0.875590     0.055892
    0.875590     0.875590     0.055892
    0.375580     0.125690     0.158064
    0.875580     0.125690     0.158064
    0.125680     0.375590     0.158064
    0.625680     0.375590     0.158064
    0.375580     0.625690     0.158064
    0.875580     0.625690     0.158064
    0.125680     0.875590     0.158064
    0.625680     0.875590     0.158064
    0.125670     0.125670     0.260306
    0.625670     0.125670     0.260306
    0.375590     0.375590     0.260313
    0.875590     0.375590     0.260313
    0.125670     0.625670     0.260306
    0.625670     0.625670     0.260306
    0.375590     0.875590     0.260313
    0.875590     0.875590     0.260313
    0.375580     0.125690     0.362482
    0.875580     0.125690     0.362482
    0.125680     0.375590     0.362482
    0.625680     0.375590     0.362482
    0.375580     0.625690     0.362482
    0.875580     0.625690     0.362482
    0.125680     0.875590     0.362482
    0.625680     0.875590     0.362482
EA19  8.593  8.593  21.019  90.08  90.08  90.08  Sym.group:    0
1.0000
    8.593017     0.000000     0.000000
   -0.011983     8.593000     0.000000
   -0.029353    -0.029394    21.018959
   O  Cu
  18   40 
Direct
    0.687519     0.098861     0.457820
    0.049044     0.910645     0.500658
    0.000610     0.000610     0.004757
    0.500610     0.000610     0.004757
    0.000610     0.500610     0.004757
    0.500610     0.500610     0.004757
    0.250790     0.250800     0.107041
    0.750790     0.250800     0.107041
    0.250790     0.750800     0.107041
    0.750790     0.750800     0.107041
    0.000610     0.000610     0.209175
    0.500610     0.000610     0.209175
    0.000610     0.500610     0.209175
    0.500610     0.500610     0.209175
    0.250790     0.250800     0.311459
    0.750790     0.250800     0.311459
    0.250790     0.750800     0.311459
    0.750790     0.750800     0.311459
    0.424419     0.137881     0.453462
    0.950619     0.059841     0.453462
    0.780109     0.409651     0.456914
    0.280109     0.288071     0.456914
    0.306462     0.850970     0.383859
    0.342744     0.558585     0.457860
    0.842702     0.564690     0.494434
    0.599152     0.601100     0.482217
    0.125670     0.125670     0.055888
    0.625670     0.125670     0.055888
    0.375590     0.375590     0.055892
    0.875590     0.375590     0.055892
    0.125670     0.625670     0.055888
    0.625670     0.625670     0.055888
    0.375590     0.875590     0.055892
    0.875590     0.875590     0.055892
    0.375580     0.125690     0.158064
    0.875580     0.125690     0.158064
    0.125680     0.375590     0.158064
    0.625680     0.375590     0.158064
    0.375580     0.625690     0.158064
    0.875580     0.625690     0.158064
    0.125680     0.875590     0.158064
    0.625680     0.875590     0.158064
    0.125670     0.125670     0.260306
    0.625670     0.125670     0.260306
    0.375590     0.375590     0.260313
    0.875590     0.375590     0.260313
    0.125670     0.625670     0.260306
    0.625670     0.625670     0.260306
    0.375590     0.875590     0.260313
    0.875590     0.875590     0.260313
    0.375580     0.125690     0.362482
    0.875580     0.125690     0.362482
    0.125680     0.375590     0.362482
    0.625680     0.375590     0.362482
    0.375580     0.625690     0.362482
    0.875580     0.625690     0.362482
    0.125680     0.875590     0.362482
    0.625680     0.875590     0.362482
EA20  8.593  8.593  21.019  90.08  90.08  90.08  Sym.group:    0
1.0000
    8.593017     0.000000     0.000000
   -0.011983     8.593000     0.000000
   -0.029353    -0.029394    21.018959
   O  Cu
  18   40 
Direct
    0.218445     0.263293     0.511160
    0.930055     0.195127     0.516880
    0.000610     0.000610     0.004757
    0.500610     0.000610     0.004757
    0.000610     0.500610     0.004757
    0.500610     0.500610     0.004757
    0.250790     0.250800     0.107041
    0.750790     0.250800     0.107041
    0.250790     0.750800     0.107041
    0.750790     0.750800     0.107041
    0.000610     0.000610     0.209175
    0.500610     0.000610     0.209175
    0.000610     0.500610     0.209175
    0.500610     0.500610     0.209175
    0.250790     0.250800     0.311459
    0.750790     0.250800     0.311459
    0.250790     0.750800     0.311459
    0.750790     0.750800     0.311459
    0.466535     0.928733     0.507106
    0.470355     0.428733     0.507106
    0.433905     0.367723     0.418557
    0.002985     0.158863     0.418557
    0.502985     0.867723     0.418557
    0.764155     0.010507     0.517370
    0.990585     0.533467     0.441055
    0.661095     0.965117     0.446310
    0.125670     0.125670     0.055888
    0.625670     0.125670     0.055888
    0.375590     0.375590     0.055892
    0.875590     0.375590     0.055892
    0.125670     0.625670     0.055888
    0.625670     0.625670     0.055888
    0.375590     0.875590     0.055892
    0.875590     0.875590     0.055892
    0.375580     0.125690     0.158064
    0.875580     0.125690     0.158064
    0.125680     0.375590     0.158064
    0.625680     0.375590     0.158064
    0.375580     0.625690     0.158064
    0.875580     0.625690     0.158064
    0.125680     0.875590     0.158064
    0.625680     0.875590     0.158064
    0.125670     0.125670     0.260306
    0.625670     0.125670     0.260306
    0.375590     0.375590     0.260313
    0.875590     0.375590     0.260313
    0.125670     0.625670     0.260306
    0.625670     0.625670     0.260306
    0.375590     0.875590     0.260313
    0.875590     0.875590     0.260313
    0.375580     0.125690     0.362482
    0.875580     0.125690     0.362482
    0.125680     0.375590     0.362482
    0.625680     0.375590     0.362482
    0.375580     0.625690     0.362482
    0.875580     0.625690     0.362482
    0.125680     0.875590     0.362482
    0.625680     0.875590     0.362482
Generation:2
Generation:3
