EA0    20.254 20.005 19.658 90.00 90.00 90.00 Sym.group:    0
1.0000
   20.254366     0.000000     0.000000
    0.000000    20.005390     0.000000
    0.000000     0.000000    19.657674
  24   24 
Direct
    0.329860     0.591219     0.468564
    0.495796     0.676435     0.399846
    0.459026     0.368124     0.362241
    0.314160     0.533219     0.454802
    0.427049     0.415097     0.338389
    0.543038     0.687965     0.437166
    0.579373     0.366036     0.384999
    0.482416     0.580797     0.316742
    0.376405     0.633997     0.578640
    0.351650     0.389013     0.552018
    0.468300     0.529466     0.304797
    0.324657     0.431914     0.530238
    0.410102     0.436248     0.638573
    0.688359     0.468410     0.537449
    0.389208     0.563824     0.620716
    0.667707     0.600363     0.524900
    0.547527     0.377654     0.606761
    0.611160     0.375954     0.446493
    0.503594     0.654111     0.581051
    0.633454     0.463440     0.598859
    0.612020     0.597569     0.586362
    0.509782     0.598708     0.610595
    0.623136     0.433666     0.432926
    0.535456     0.435727     0.626455
    0.370543     0.556177     0.542462
    0.523147     0.427377     0.369971
    0.358281     0.511105     0.531788
    0.569992     0.606801     0.411380
    0.498376     0.463813     0.351758
    0.413220     0.502616     0.362735
    0.356133     0.451731     0.454459
    0.439825     0.605011     0.387468
    0.510966     0.357791     0.435443
    0.404938     0.634832     0.496130
    0.412834     0.370127     0.494831
    0.543034     0.319656     0.513526
    0.452791     0.601182     0.625891
    0.637432     0.613533     0.456504
    0.481247     0.419670     0.643820
    0.666107     0.435586     0.473508
    0.659389     0.422870     0.551431
    0.425080     0.390207     0.601418
    0.625578     0.636401     0.530938
    0.689010     0.531402     0.477842
    0.441866     0.508677     0.661798
    0.427473     0.373079     0.556987
    0.623532     0.406742     0.575650
    0.585969     0.644657     0.552680
