===== USPEX WARNING @ 20:4:28 28-Feb-2025 ===== 
The structure after relaxation cannot satisfy distance constraint
1.00
18.3134            0            0
0      18.3134            0
0            0      34.7898
 O  Cu 
24  24
Direct
0.5       0.493     0.51552
0.5     0.47052     0.49631
0.5       0.507     0.48448
0.5     0.52948     0.50369
0.10474     0.46533     0.53532
0.89526     0.46533     0.53532
0.10474     0.53466     0.46468
0.89526      0.4329     0.48175
0.10474      0.4329     0.48175
0.10474      0.5671     0.51825
0.89526     0.53466     0.46468
0.89526      0.5671     0.51825
0.043993     0.44165     0.50469
0.95601     0.44165     0.50469
0.043993     0.55835     0.49531
0.95601     0.49108     0.46928
0.043993     0.49108     0.46928
0.043993     0.50892     0.53072
0.95601     0.55835     0.49531
0.95601     0.50892     0.53072
0.5     0.45666      0.5718
0.5      0.3636     0.47719
0.5     0.54334      0.4282
0.5      0.6364     0.52281
0.9649     0.43139     0.50036
0.035097     0.43139     0.50036
0.9649     0.56861     0.49964
0.035097     0.49931     0.46388
0.9649     0.49931     0.46388
0.9649     0.50069     0.53612
0.035097     0.56861     0.49964
0.035097     0.50069     0.53612
0.77403     0.37683     0.52397
0.22597     0.37683     0.52397
0.77403     0.62317     0.47603
0.22597     0.45447     0.43516
0.77403     0.45447     0.43516
0.77403     0.54553     0.56484
0.22597     0.62317     0.47603
0.22597     0.54553     0.56484
0.83738         0.5         0.5
0.16262         0.5         0.5
0.5     0.33837     0.50699
0.5     0.48673     0.41492
0.5     0.66163     0.49301
0.5     0.51327     0.58508
0.91272         0.5         0.5
0.087282         0.5         0.5


Struture before relaxation, for checking
1.00
18.3134            0            0
0      18.3134            0
0            0      34.7898
 O  Cu 
24  24
Direct
0.5       0.493     0.51552
0.5     0.47052     0.49631
0.5       0.507     0.48448
0.5     0.52948     0.50369
1.1047     0.46533     0.53532
-0.10474     0.46533     0.53532
1.1047     0.53467     0.46468
-0.10474      0.4329     0.48175
1.1047      0.4329     0.48175
1.1047      0.5671     0.51825
-0.10474     0.53467     0.46468
-0.10474      0.5671     0.51825
1.044     0.44165     0.50469
-0.043993     0.44165     0.50469
1.044     0.55835     0.49531
-0.043993     0.49108     0.46928
1.044     0.49108     0.46928
1.044     0.50892     0.53072
-0.043993     0.55835     0.49531
-0.043993     0.50892     0.53072
0.5     0.45666      0.5718
0.5      0.3636     0.47719
0.5     0.54334      0.4282
0.5      0.6364     0.52281
0.9649     0.43139     0.50036
0.035097     0.43139     0.50036
0.9649     0.56861     0.49964
0.035097     0.49931     0.46388
0.9649     0.49931     0.46388
0.9649     0.50069     0.53612
0.035097     0.56861     0.49964
0.035097     0.50069     0.53612
0.77403     0.37683     0.52397
0.22597     0.37683     0.52397
0.77403     0.62317     0.47603
0.22597     0.45447     0.43516
0.77403     0.45447     0.43516
0.77403     0.54553     0.56484
0.22597     0.62317     0.47603
0.22597     0.54553     0.56484
0.83738         0.5         0.5
0.16262         0.5         0.5
0.5     0.33837     0.50699
0.5     0.48673     0.41492
0.5     0.66163     0.49301
0.5     0.51327     0.58508
0.91272         0.5         0.5
0.087282         0.5         0.5


