EA0    20.035 20.318 17.912 90.00 90.00 90.00 Sym.group:    0
1.0000
   20.034644     0.000000     0.000000
    0.000000    20.318286     0.000000
    0.000000     0.000000    17.911842
   4   24 
Direct
    0.511503     0.475199     0.356264
    0.642944     0.524908     0.617584
    0.658381     0.566055     0.406865
    0.566392     0.603241     0.575570
    0.385604     0.410738     0.616517
    0.252112     0.495366     0.508046
    0.403304     0.601240     0.543492
    0.369682     0.564287     0.404871
    0.356809     0.403192     0.434984
    0.486145     0.318812     0.555071
    0.416906     0.340548     0.512091
    0.341870     0.473810     0.400327
    0.423060     0.618001     0.425887
    0.326136     0.572547     0.517360
    0.271644     0.425699     0.542851
    0.479679     0.463254     0.650470
    0.508016     0.469226     0.421320
    0.629786     0.540721     0.562871
    0.644820     0.534590     0.461892
    0.684533     0.416932     0.401806
    0.514364     0.667058     0.453108
    0.682492     0.402339     0.561693
    0.548769     0.637296     0.602677
    0.504190     0.605278     0.548901
    0.631873     0.395847     0.455445
    0.550543     0.614547     0.486702
    0.684504     0.383614     0.475196
    0.523939     0.475656     0.500138
