EA44    8.269  8.269 20.236 90.00 90.00 90.00 Sym.group:    0
1.0000
    8.268542     0.000000     0.000000
    0.000000     8.268542     0.000000
    0.000000     0.000000    20.236213
   O  Cu
  17   40 
Direct
    0.800615     0.032478     0.241168
    0.597334     0.813830     0.783805
    0.237954     0.012881     0.710314
    0.190095     0.837984     0.284099
    0.805000     0.441496     0.311452
    0.724857     0.340733     0.644493
    0.324618     0.246880     0.325377
    0.710955     0.767782     0.367629
    0.388219     0.411639     0.768865
    0.341918     0.193564     0.555454
    0.036878     0.796191     0.494473
    0.997661     0.218516     0.452338
    0.580165     0.038991     0.467439
    0.969411     0.481595     0.538028
    0.508873     0.564039     0.222128
    0.986325     0.612216     0.744596
    0.857648     0.917859     0.619878
    0.874511     0.708838     0.569062
    0.803553     0.230021     0.282065
    0.628080     0.542471     0.595767
    0.384359     0.684939     0.643480
    0.353831     0.451261     0.400248
    0.570030     0.644601     0.426887
    0.144310     0.306205     0.531672
    0.225154     0.810131     0.552240
    0.562248     0.372870     0.707245
    0.195607     0.530613     0.732411
    0.873641     0.478952     0.687524
    0.596572     0.941621     0.258019
    0.299988     0.031394     0.302409
    0.000212     0.509505     0.352748
    0.426231     0.905349     0.737281
    0.488089     0.618210     0.773162
    0.371489     0.731257     0.247238
    0.775608     0.149751     0.455197
    0.793522     0.723777     0.757811
    0.357033     0.374290     0.617530
    0.542158     0.948826     0.378668
    0.991948     0.940125     0.266205
    0.056311     0.945357     0.662507
    0.889482     0.752996     0.422549
    0.140795     0.243064     0.380476
    0.781966     0.126636     0.631274
    0.377271     0.015393     0.618143
    0.394606     0.568169     0.519094
    0.503302     0.281128     0.487848
    0.533443     0.856009     0.527862
    0.122110     0.562921     0.462030
    0.766593     0.466157     0.487854
    0.644443     0.641822     0.291751
    0.642632     0.832134     0.644797
    0.222588     0.709134     0.365680
    0.652359     0.374756     0.381233
    0.040702     0.008892     0.472856
    0.125257     0.554454     0.608700
    0.304130     0.219901     0.732541
    0.415299     0.407384     0.274223
EA79    8.593  8.593 21.019 90.08 90.08 90.08 Sym.group:    0
1.0000
    8.593017     0.000000     0.000000
   -0.011983     8.593000     0.000000
   -0.029353    -0.029394    21.018959
   O  Cu
  17   40 
Direct
    0.000000     0.000000     0.405997
    0.000610     0.000610     0.004757
    0.500610     0.000610     0.004757
    0.000610     0.500610     0.004757
    0.500610     0.500610     0.004757
    0.250790     0.250800     0.107041
    0.750790     0.250800     0.107041
    0.250790     0.750800     0.107041
    0.750790     0.750800     0.107041
    0.000610     0.000610     0.209175
    0.500610     0.000610     0.209175
    0.000610     0.500610     0.209175
    0.500610     0.500610     0.209175
    0.250790     0.250800     0.311459
    0.750790     0.250800     0.311459
    0.250790     0.750800     0.311459
    0.750790     0.750800     0.311459
    0.136503     0.656226     0.386219
    0.863515     0.343769     0.386213
    0.343769     0.863514     0.386214
    0.656226     0.136504     0.386219
    0.425505     0.574958     0.455314
    0.574948     0.425495     0.455314
    0.457686     0.457683     0.473427
    0.541848     0.541851     0.473467
    0.125670     0.125670     0.055888
    0.625670     0.125670     0.055888
    0.375590     0.375590     0.055892
    0.875590     0.375590     0.055892
    0.125670     0.625670     0.055888
    0.625670     0.625670     0.055888
    0.375590     0.875590     0.055892
    0.875590     0.875590     0.055892
    0.375580     0.125690     0.158064
    0.875580     0.125690     0.158064
    0.125680     0.375590     0.158064
    0.625680     0.375590     0.158064
    0.375580     0.625690     0.158064
    0.875580     0.625690     0.158064
    0.125680     0.875590     0.158064
    0.625680     0.875590     0.158064
    0.125670     0.125670     0.260306
    0.625670     0.125670     0.260306
    0.375590     0.375590     0.260313
    0.875590     0.375590     0.260313
    0.125670     0.625670     0.260306
    0.625670     0.625670     0.260306
    0.375590     0.875590     0.260313
    0.875590     0.875590     0.260313
    0.375580     0.125690     0.362482
    0.875580     0.125690     0.362482
    0.125680     0.375590     0.362482
    0.625680     0.375590     0.362482
    0.375580     0.625690     0.362482
    0.875580     0.625690     0.362482
    0.125680     0.875590     0.362482
    0.625680     0.875590     0.362482
EA137   8.593  8.593 21.019 90.08 90.08 90.08 Sym.group:    0
1.0000
    8.593017     0.000000     0.000000
   -0.011983     8.593000     0.000000
   -0.029353    -0.029394    21.018959
   O  Cu
  17   40 
Direct
    0.000000     0.000000     0.405997
    0.000610     0.000610     0.004757
    0.500610     0.000610     0.004757
    0.000610     0.500610     0.004757
    0.500610     0.500610     0.004757
    0.250790     0.250800     0.107041
    0.750790     0.250800     0.107041
    0.250790     0.750800     0.107041
    0.750790     0.750800     0.107041
    0.000610     0.000610     0.209175
    0.500610     0.000610     0.209175
    0.000610     0.500610     0.209175
    0.500610     0.500610     0.209175
    0.250790     0.250800     0.311459
    0.750790     0.250800     0.311459
    0.250790     0.750800     0.311459
    0.750790     0.750800     0.311459
    0.136503     0.656226     0.386219
    0.863515     0.343769     0.386213
    0.343769     0.863514     0.386214
    0.656226     0.136504     0.386219
    0.425505     0.574958     0.455314
    0.574948     0.425495     0.455314
    0.457686     0.457683     0.473427
    0.541848     0.541851     0.473467
    0.125670     0.125670     0.055888
    0.625670     0.125670     0.055888
    0.375590     0.375590     0.055892
    0.875590     0.375590     0.055892
    0.125670     0.625670     0.055888
    0.625670     0.625670     0.055888
    0.375590     0.875590     0.055892
    0.875590     0.875590     0.055892
    0.375580     0.125690     0.158064
    0.875580     0.125690     0.158064
    0.125680     0.375590     0.158064
    0.625680     0.375590     0.158064
    0.375580     0.625690     0.158064
    0.875580     0.625690     0.158064
    0.125680     0.875590     0.158064
    0.625680     0.875590     0.158064
    0.125670     0.125670     0.260306
    0.625670     0.125670     0.260306
    0.375590     0.375590     0.260313
    0.875590     0.375590     0.260313
    0.125670     0.625670     0.260306
    0.625670     0.625670     0.260306
    0.375590     0.875590     0.260313
    0.875590     0.875590     0.260313
    0.375580     0.125690     0.362482
    0.875580     0.125690     0.362482
    0.125680     0.375590     0.362482
    0.625680     0.375590     0.362482
    0.375580     0.625690     0.362482
    0.875580     0.625690     0.362482
    0.125680     0.875590     0.362482
    0.625680     0.875590     0.362482
