EA1     8.593  8.593 21.019 90.08 90.08 90.08 Sym.group:    0
1.0000
    8.593017     0.000000     0.000000
   -0.011983     8.593000     0.000000
   -0.029353    -0.029394    21.018959
   O  Cu
  17   40 
Direct
    0.299490     0.447580     0.381512     1.032072
    0.000610     0.000610     0.004757     0.000000
    0.500610     0.000610     0.004757     0.000000
    0.000610     0.500610     0.004757     0.000000
    0.500610     0.500610     0.004757     0.000000
    0.250790     0.250800     0.107041     0.000000
    0.750790     0.250800     0.107041     0.000000
    0.250790     0.750800     0.107041     0.000000
    0.750790     0.750800     0.107041     0.000000
    0.000610     0.000610     0.209175     0.000000
    0.500610     0.000610     0.209175     0.000000
    0.000610     0.500610     0.209175     0.000000
    0.500610     0.500610     0.209175     0.000000
    0.250790     0.250800     0.311459     0.000000
    0.750790     0.250800     0.311459     0.000000
    0.250790     0.750800     0.311459     0.000000
    0.750790     0.750800     0.311459     0.000000
    0.532610     0.943180     0.452876     1.026970
    0.642400     0.948660     0.452876     1.031084
    0.985090     0.952630     0.452876     1.025652
    0.436720     0.762540     0.452876     1.030779
    0.913920     0.603400     0.452876     1.029917
    0.325410     0.349770     0.452876     1.033027
    0.801060     0.489360     0.452876     1.032081
    0.458250     0.772260     0.381512     1.033011
    0.125670     0.125670     0.055888     0.000000
    0.625670     0.125670     0.055888     0.000000
    0.375590     0.375590     0.055892     0.000000
    0.875590     0.375590     0.055892     0.000000
    0.125670     0.625670     0.055888     0.000000
    0.625670     0.625670     0.055888     0.000000
    0.375590     0.875590     0.055892     0.000000
    0.875590     0.875590     0.055892     0.000000
    0.375580     0.125690     0.158064     0.000000
    0.875580     0.125690     0.158064     0.000000
    0.125680     0.375590     0.158064     0.000000
    0.625680     0.375590     0.158064     0.000000
    0.375580     0.625690     0.158064     0.000000
    0.875580     0.625690     0.158064     0.000000
    0.125680     0.875590     0.158064     0.000000
    0.625680     0.875590     0.158064     0.000000
    0.125670     0.125670     0.260306     0.000000
    0.625670     0.125670     0.260306     0.000000
    0.375590     0.375590     0.260313     0.000000
    0.875590     0.375590     0.260313     0.000000
    0.125670     0.625670     0.260306     0.000000
    0.625670     0.625670     0.260306     0.000000
    0.375590     0.875590     0.260313     0.000000
    0.875590     0.875590     0.260313     0.000000
    0.375580     0.125690     0.362482     0.000000
    0.875580     0.125690     0.362482     0.000000
    0.125680     0.375590     0.362482     0.000000
    0.625680     0.375590     0.362482     0.000000
    0.375580     0.625690     0.362482     0.000000
    0.875580     0.625690     0.362482     0.000000
    0.125680     0.875590     0.362482     0.000000
    0.625680     0.875590     0.362482     0.000000
EA2     8.593  8.593 21.019 90.08 90.08 90.08 Sym.group:    0
1.0000
    8.593017     0.000000     0.000000
   -0.011983     8.593000     0.000000
   -0.029353    -0.029394    21.018959
   O  Cu
  17   40 
Direct
    0.000000     0.000000     0.428763     1.021299
    0.000610     0.000610     0.004757     0.000000
    0.500610     0.000610     0.004757     0.000000
    0.000610     0.500610     0.004757     0.000000
    0.500610     0.500610     0.004757     0.000000
    0.250790     0.250800     0.107041     0.000000
    0.750790     0.250800     0.107041     0.000000
    0.250790     0.750800     0.107041     0.000000
    0.750790     0.750800     0.107041     0.000000
    0.000610     0.000610     0.209175     0.000000
    0.500610     0.000610     0.209175     0.000000
    0.000610     0.500610     0.209175     0.000000
    0.500610     0.500610     0.209175     0.000000
    0.250790     0.250800     0.311459     0.000000
    0.750790     0.250800     0.311459     0.000000
    0.250790     0.750800     0.311459     0.000000
    0.750790     0.750800     0.311459     0.000000
    0.648350     0.887040     0.512125     1.022828
    0.351650     0.112960     0.512125     1.023089
    0.875620     0.012880     0.470706     1.025303
    0.124380     0.987120     0.470706     1.025404
    0.468130     0.954900     0.475507     1.023054
    0.531870     0.045100     0.475507     1.023101
    0.669040     0.769960     0.383610     1.024492
    0.330960     0.230040     0.383610     1.024761
    0.125670     0.125670     0.055888     0.000000
    0.625670     0.125670     0.055888     0.000000
    0.375590     0.375590     0.055892     0.000000
    0.875590     0.375590     0.055892     0.000000
    0.125670     0.625670     0.055888     0.000000
    0.625670     0.625670     0.055888     0.000000
    0.375590     0.875590     0.055892     0.000000
    0.875590     0.875590     0.055892     0.000000
    0.375580     0.125690     0.158064     0.000000
    0.875580     0.125690     0.158064     0.000000
    0.125680     0.375590     0.158064     0.000000
    0.625680     0.375590     0.158064     0.000000
    0.375580     0.625690     0.158064     0.000000
    0.875580     0.625690     0.158064     0.000000
    0.125680     0.875590     0.158064     0.000000
    0.625680     0.875590     0.158064     0.000000
    0.125670     0.125670     0.260306     0.000000
    0.625670     0.125670     0.260306     0.000000
    0.375590     0.375590     0.260313     0.000000
    0.875590     0.375590     0.260313     0.000000
    0.125670     0.625670     0.260306     0.000000
    0.625670     0.625670     0.260306     0.000000
    0.375590     0.875590     0.260313     0.000000
    0.875590     0.875590     0.260313     0.000000
    0.375580     0.125690     0.362482     0.000000
    0.875580     0.125690     0.362482     0.000000
    0.125680     0.375590     0.362482     0.000000
    0.625680     0.375590     0.362482     0.000000
    0.375580     0.625690     0.362482     0.000000
    0.875580     0.625690     0.362482     0.000000
    0.125680     0.875590     0.362482     0.000000
    0.625680     0.875590     0.362482     0.000000
EA3     8.593  8.593 21.019 90.08 90.08 90.08 Sym.group:    0
1.0000
    8.593017     0.000000     0.000000
   -0.011983     8.593000     0.000000
   -0.029353    -0.029394    21.018959
   O  Cu
  17   40 
Direct
    0.000000     0.000000     0.505874     1.032998
    0.000610     0.000610     0.004757     0.000000
    0.500610     0.000610     0.004757     0.000000
    0.000610     0.500610     0.004757     0.000000
    0.500610     0.500610     0.004757     0.000000
    0.250790     0.250800     0.107041     0.000000
    0.750790     0.250800     0.107041     0.000000
    0.250790     0.750800     0.107041     0.000000
    0.750790     0.750800     0.107041     0.000000
    0.000610     0.000610     0.209175     0.000000
    0.500610     0.000610     0.209175     0.000000
    0.000610     0.500610     0.209175     0.000000
    0.500610     0.500610     0.209175     0.000000
    0.250790     0.250800     0.311459     0.000000
    0.750790     0.250800     0.311459     0.000000
    0.250790     0.750800     0.311459     0.000000
    0.750790     0.750800     0.311459     0.000000
    0.491730     0.563960     0.454977     1.026418
    0.436040     0.927780     0.454977     1.025283
    0.072220     0.508270     0.454977     1.030041
    0.164660     0.699460     0.514816     1.023405
    0.300540     0.465200     0.514816     1.023220
    0.534800     0.835340     0.514816     1.032469
    0.666670     0.333330     0.417368     1.031614
    0.333330     0.666670     0.427233     1.027343
    0.125670     0.125670     0.055888     0.000000
    0.625670     0.125670     0.055888     0.000000
    0.375590     0.375590     0.055892     0.000000
    0.875590     0.375590     0.055892     0.000000
    0.125670     0.625670     0.055888     0.000000
    0.625670     0.625670     0.055888     0.000000
    0.375590     0.875590     0.055892     0.000000
    0.875590     0.875590     0.055892     0.000000
    0.375580     0.125690     0.158064     0.000000
    0.875580     0.125690     0.158064     0.000000
    0.125680     0.375590     0.158064     0.000000
    0.625680     0.375590     0.158064     0.000000
    0.375580     0.625690     0.158064     0.000000
    0.875580     0.625690     0.158064     0.000000
    0.125680     0.875590     0.158064     0.000000
    0.625680     0.875590     0.158064     0.000000
    0.125670     0.125670     0.260306     0.000000
    0.625670     0.125670     0.260306     0.000000
    0.375590     0.375590     0.260313     0.000000
    0.875590     0.375590     0.260313     0.000000
    0.125670     0.625670     0.260306     0.000000
    0.625670     0.625670     0.260306     0.000000
    0.375590     0.875590     0.260313     0.000000
    0.875590     0.875590     0.260313     0.000000
    0.375580     0.125690     0.362482     0.000000
    0.875580     0.125690     0.362482     0.000000
    0.125680     0.375590     0.362482     0.000000
    0.625680     0.375590     0.362482     0.000000
    0.375580     0.625690     0.362482     0.000000
    0.875580     0.625690     0.362482     0.000000
    0.125680     0.875590     0.362482     0.000000
    0.625680     0.875590     0.362482     0.000000
EA4     8.593  8.593 21.019 90.08 90.08 90.08 Sym.group:    0
1.0000
    8.593017     0.000000     0.000000
   -0.011983     8.593000     0.000000
   -0.029353    -0.029394    21.018959
   O  Cu
  17   40 
Direct
    0.573670     0.668950     0.381512     1.025429
    0.000610     0.000610     0.004757     0.000000
    0.500610     0.000610     0.004757     0.000000
    0.000610     0.500610     0.004757     0.000000
    0.500610     0.500610     0.004757     0.000000
    0.250790     0.250800     0.107041     0.000000
    0.750790     0.250800     0.107041     0.000000
    0.250790     0.750800     0.107041     0.000000
    0.750790     0.750800     0.107041     0.000000
    0.000610     0.000610     0.209175     0.000000
    0.500610     0.000610     0.209175     0.000000
    0.000610     0.500610     0.209175     0.000000
    0.500610     0.500610     0.209175     0.000000
    0.250790     0.250800     0.311459     0.000000
    0.750790     0.250800     0.311459     0.000000
    0.250790     0.750800     0.311459     0.000000
    0.750790     0.750800     0.311459     0.000000
    0.753600     0.450200     0.452876     1.031486
    0.173630     0.784940     0.381512     1.017708
    0.771960     0.744090     0.418162     1.030976
    0.771960     0.744090     0.487590     1.024679
    0.974100     0.021430     0.452876     1.023165
    0.094910     0.175210     0.418848     1.023902
    0.094910     0.175210     0.486904     1.026792
    0.428970     0.760920     0.381512     1.030653
    0.125670     0.125670     0.055888     0.000000
    0.625670     0.125670     0.055888     0.000000
    0.375590     0.375590     0.055892     0.000000
    0.875590     0.375590     0.055892     0.000000
    0.125670     0.625670     0.055888     0.000000
    0.625670     0.625670     0.055888     0.000000
    0.375590     0.875590     0.055892     0.000000
    0.875590     0.875590     0.055892     0.000000
    0.375580     0.125690     0.158064     0.000000
    0.875580     0.125690     0.158064     0.000000
    0.125680     0.375590     0.158064     0.000000
    0.625680     0.375590     0.158064     0.000000
    0.375580     0.625690     0.158064     0.000000
    0.875580     0.625690     0.158064     0.000000
    0.125680     0.875590     0.158064     0.000000
    0.625680     0.875590     0.158064     0.000000
    0.125670     0.125670     0.260306     0.000000
    0.625670     0.125670     0.260306     0.000000
    0.375590     0.375590     0.260313     0.000000
    0.875590     0.375590     0.260313     0.000000
    0.125670     0.625670     0.260306     0.000000
    0.625670     0.625670     0.260306     0.000000
    0.375590     0.875590     0.260313     0.000000
    0.875590     0.875590     0.260313     0.000000
    0.375580     0.125690     0.362482     0.000000
    0.875580     0.125690     0.362482     0.000000
    0.125680     0.375590     0.362482     0.000000
    0.625680     0.375590     0.362482     0.000000
    0.375580     0.625690     0.362482     0.000000
    0.875580     0.625690     0.362482     0.000000
    0.125680     0.875590     0.362482     0.000000
    0.625680     0.875590     0.362482     0.000000
EA5     8.593  8.593 21.019 90.08 90.08 90.08 Sym.group:    0
1.0000
    8.593017     0.000000     0.000000
   -0.011983     8.593000     0.000000
   -0.029353    -0.029394    21.018959
   O  Cu
  17   40 
Direct
    0.000000     0.000000     0.401333     1.033037
    0.000610     0.000610     0.004757     0.000000
    0.500610     0.000610     0.004757     0.000000
    0.000610     0.500610     0.004757     0.000000
    0.500610     0.500610     0.004757     0.000000
    0.250790     0.250800     0.107041     0.000000
    0.750790     0.250800     0.107041     0.000000
    0.250790     0.750800     0.107041     0.000000
    0.750790     0.750800     0.107041     0.000000
    0.000610     0.000610     0.209175     0.000000
    0.500610     0.000610     0.209175     0.000000
    0.000610     0.500610     0.209175     0.000000
    0.500610     0.500610     0.209175     0.000000
    0.250790     0.250800     0.311459     0.000000
    0.750790     0.250800     0.311459     0.000000
    0.250790     0.750800     0.311459     0.000000
    0.750790     0.750800     0.311459     0.000000
    0.478600     0.368260     0.400555     1.019367
    0.631740     0.110330     0.400555     1.020357
    0.889670     0.521400     0.400555     1.027262
    0.889670     0.368260     0.400555     1.020356
    0.631740     0.521400     0.400555     1.019366
    0.478600     0.110330     0.400555     1.027230
    0.666670     0.333330     0.449867     1.030941
    0.333330     0.666670     0.465864     1.032138
    0.125670     0.125670     0.055888     0.000000
    0.625670     0.125670     0.055888     0.000000
    0.375590     0.375590     0.055892     0.000000
    0.875590     0.375590     0.055892     0.000000
    0.125670     0.625670     0.055888     0.000000
    0.625670     0.625670     0.055888     0.000000
    0.375590     0.875590     0.055892     0.000000
    0.875590     0.875590     0.055892     0.000000
    0.375580     0.125690     0.158064     0.000000
    0.875580     0.125690     0.158064     0.000000
    0.125680     0.375590     0.158064     0.000000
    0.625680     0.375590     0.158064     0.000000
    0.375580     0.625690     0.158064     0.000000
    0.875580     0.625690     0.158064     0.000000
    0.125680     0.875590     0.158064     0.000000
    0.625680     0.875590     0.158064     0.000000
    0.125670     0.125670     0.260306     0.000000
    0.625670     0.125670     0.260306     0.000000
    0.375590     0.375590     0.260313     0.000000
    0.875590     0.375590     0.260313     0.000000
    0.125670     0.625670     0.260306     0.000000
    0.625670     0.625670     0.260306     0.000000
    0.375590     0.875590     0.260313     0.000000
    0.875590     0.875590     0.260313     0.000000
    0.375580     0.125690     0.362482     0.000000
    0.875580     0.125690     0.362482     0.000000
    0.125680     0.375590     0.362482     0.000000
    0.625680     0.375590     0.362482     0.000000
    0.375580     0.625690     0.362482     0.000000
    0.875580     0.625690     0.362482     0.000000
    0.125680     0.875590     0.362482     0.000000
    0.625680     0.875590     0.362482     0.000000
EA6     8.593  8.593 21.019 90.08 90.08 90.08 Sym.group:    0
1.0000
    8.593017     0.000000     0.000000
   -0.011983     8.593000     0.000000
   -0.029353    -0.029394    21.018959
   O  Cu
  17   40 
Direct
    0.135250     0.583970     0.381512     1.027748
    0.000610     0.000610     0.004757     0.000000
    0.500610     0.000610     0.004757     0.000000
    0.000610     0.500610     0.004757     0.000000
    0.500610     0.500610     0.004757     0.000000
    0.250790     0.250800     0.107041     0.000000
    0.750790     0.250800     0.107041     0.000000
    0.250790     0.750800     0.107041     0.000000
    0.750790     0.750800     0.107041     0.000000
    0.000610     0.000610     0.209175     0.000000
    0.500610     0.000610     0.209175     0.000000
    0.000610     0.500610     0.209175     0.000000
    0.500610     0.500610     0.209175     0.000000
    0.250790     0.250800     0.311459     0.000000
    0.750790     0.250800     0.311459     0.000000
    0.250790     0.750800     0.311459     0.000000
    0.750790     0.750800     0.311459     0.000000
    0.260080     0.792020     0.452876     1.027721
    0.750830     0.423010     0.490269     1.030635
    0.750830     0.423010     0.415483     1.026281
    0.899630     0.506280     0.381512     1.023229
    0.863470     0.359890     0.414466     1.025504
    0.863470     0.359890     0.491286     1.029342
    0.744150     0.168950     0.452876     1.029073
    0.383650     0.024440     0.452876     1.029840
    0.125670     0.125670     0.055888     0.000000
    0.625670     0.125670     0.055888     0.000000
    0.375590     0.375590     0.055892     0.000000
    0.875590     0.375590     0.055892     0.000000
    0.125670     0.625670     0.055888     0.000000
    0.625670     0.625670     0.055888     0.000000
    0.375590     0.875590     0.055892     0.000000
    0.875590     0.875590     0.055892     0.000000
    0.375580     0.125690     0.158064     0.000000
    0.875580     0.125690     0.158064     0.000000
    0.125680     0.375590     0.158064     0.000000
    0.625680     0.375590     0.158064     0.000000
    0.375580     0.625690     0.158064     0.000000
    0.875580     0.625690     0.158064     0.000000
    0.125680     0.875590     0.158064     0.000000
    0.625680     0.875590     0.158064     0.000000
    0.125670     0.125670     0.260306     0.000000
    0.625670     0.125670     0.260306     0.000000
    0.375590     0.375590     0.260313     0.000000
    0.875590     0.375590     0.260313     0.000000
    0.125670     0.625670     0.260306     0.000000
    0.625670     0.625670     0.260306     0.000000
    0.375590     0.875590     0.260313     0.000000
    0.875590     0.875590     0.260313     0.000000
    0.375580     0.125690     0.362482     0.000000
    0.875580     0.125690     0.362482     0.000000
    0.125680     0.375590     0.362482     0.000000
    0.625680     0.375590     0.362482     0.000000
    0.375580     0.625690     0.362482     0.000000
    0.875580     0.625690     0.362482     0.000000
    0.125680     0.875590     0.362482     0.000000
    0.625680     0.875590     0.362482     0.000000
EA7     8.593  8.593 21.019 90.08 90.08 90.08 Sym.group:    0
1.0000
    8.593017     0.000000     0.000000
   -0.011983     8.593000     0.000000
   -0.029353    -0.029394    21.018959
   O  Cu
  17   40 
Direct
    0.500000     0.500000     0.519691     1.033272
    0.000610     0.000610     0.004757     0.000000
    0.500610     0.000610     0.004757     0.000000
    0.000610     0.500610     0.004757     0.000000
    0.500610     0.500610     0.004757     0.000000
    0.250790     0.250800     0.107041     0.000000
    0.750790     0.250800     0.107041     0.000000
    0.250790     0.750800     0.107041     0.000000
    0.750790     0.750800     0.107041     0.000000
    0.000610     0.000610     0.209175     0.000000
    0.500610     0.000610     0.209175     0.000000
    0.000610     0.500610     0.209175     0.000000
    0.500610     0.500610     0.209175     0.000000
    0.250790     0.250800     0.311459     0.000000
    0.750790     0.250800     0.311459     0.000000
    0.250790     0.750800     0.311459     0.000000
    0.750790     0.750800     0.311459     0.000000
    0.267230     0.134350     0.465710     1.026042
    0.732770     0.865650     0.465710     1.026042
    0.865650     0.267230     0.465710     1.026159
    0.134350     0.732770     0.465710     1.026159
    0.732770     0.134350     0.465710     1.026159
    0.267230     0.865650     0.465710     1.026159
    0.134350     0.267230     0.465710     1.026042
    0.865650     0.732770     0.465710     1.026042
    0.125670     0.125670     0.055888     0.000000
    0.625670     0.125670     0.055888     0.000000
    0.375590     0.375590     0.055892     0.000000
    0.875590     0.375590     0.055892     0.000000
    0.125670     0.625670     0.055888     0.000000
    0.625670     0.625670     0.055888     0.000000
    0.375590     0.875590     0.055892     0.000000
    0.875590     0.875590     0.055892     0.000000
    0.375580     0.125690     0.158064     0.000000
    0.875580     0.125690     0.158064     0.000000
    0.125680     0.375590     0.158064     0.000000
    0.625680     0.375590     0.158064     0.000000
    0.375580     0.625690     0.158064     0.000000
    0.875580     0.625690     0.158064     0.000000
    0.125680     0.875590     0.158064     0.000000
    0.625680     0.875590     0.158064     0.000000
    0.125670     0.125670     0.260306     0.000000
    0.625670     0.125670     0.260306     0.000000
    0.375590     0.375590     0.260313     0.000000
    0.875590     0.375590     0.260313     0.000000
    0.125670     0.625670     0.260306     0.000000
    0.625670     0.625670     0.260306     0.000000
    0.375590     0.875590     0.260313     0.000000
    0.875590     0.875590     0.260313     0.000000
    0.375580     0.125690     0.362482     0.000000
    0.875580     0.125690     0.362482     0.000000
    0.125680     0.375590     0.362482     0.000000
    0.625680     0.375590     0.362482     0.000000
    0.375580     0.625690     0.362482     0.000000
    0.875580     0.625690     0.362482     0.000000
    0.125680     0.875590     0.362482     0.000000
    0.625680     0.875590     0.362482     0.000000
EA8     8.593  8.593 21.019 90.08 90.08 90.08 Sym.group:    0
1.0000
    8.593017     0.000000     0.000000
   -0.011983     8.593000     0.000000
   -0.029353    -0.029394    21.018959
   O  Cu
  17   40 
Direct
    1.000000     1.000000     0.513002     1.032646
    0.000610     0.000610     0.004757     0.000000
    0.500610     0.000610     0.004757     0.000000
    0.000610     0.500610     0.004757     0.000000
    0.500610     0.500610     0.004757     0.000000
    0.250790     0.250800     0.107041     0.000000
    0.750790     0.250800     0.107041     0.000000
    0.250790     0.750800     0.107041     0.000000
    0.750790     0.750800     0.107041     0.000000
    0.000610     0.000610     0.209175     0.000000
    0.500610     0.000610     0.209175     0.000000
    0.000610     0.500610     0.209175     0.000000
    0.500610     0.500610     0.209175     0.000000
    0.250790     0.250800     0.311459     0.000000
    0.750790     0.250800     0.311459     0.000000
    0.250790     0.750800     0.311459     0.000000
    0.750790     0.750800     0.311459     0.000000
    0.186250     0.919690     0.502602     1.016690
    0.813750     0.080310     0.502602     1.016690
    0.080310     0.186250     0.502602     1.016678
    0.919690     0.813750     0.502602     1.016678
    0.813750     0.919690     0.502602     1.016678
    0.186250     0.080310     0.502602     1.016678
    0.919690     0.186250     0.502602     1.016690
    0.080310     0.813750     0.502602     1.016690
    0.125670     0.125670     0.055888     0.000000
    0.625670     0.125670     0.055888     0.000000
    0.375590     0.375590     0.055892     0.000000
    0.875590     0.375590     0.055892     0.000000
    0.125670     0.625670     0.055888     0.000000
    0.625670     0.625670     0.055888     0.000000
    0.375590     0.875590     0.055892     0.000000
    0.875590     0.875590     0.055892     0.000000
    0.375580     0.125690     0.158064     0.000000
    0.875580     0.125690     0.158064     0.000000
    0.125680     0.375590     0.158064     0.000000
    0.625680     0.375590     0.158064     0.000000
    0.375580     0.625690     0.158064     0.000000
    0.875580     0.625690     0.158064     0.000000
    0.125680     0.875590     0.158064     0.000000
    0.625680     0.875590     0.158064     0.000000
    0.125670     0.125670     0.260306     0.000000
    0.625670     0.125670     0.260306     0.000000
    0.375590     0.375590     0.260313     0.000000
    0.875590     0.375590     0.260313     0.000000
    0.125670     0.625670     0.260306     0.000000
    0.625670     0.625670     0.260306     0.000000
    0.375590     0.875590     0.260313     0.000000
    0.875590     0.875590     0.260313     0.000000
    0.375580     0.125690     0.362482     0.000000
    0.875580     0.125690     0.362482     0.000000
    0.125680     0.375590     0.362482     0.000000
    0.625680     0.375590     0.362482     0.000000
    0.375580     0.625690     0.362482     0.000000
    0.875580     0.625690     0.362482     0.000000
    0.125680     0.875590     0.362482     0.000000
    0.625680     0.875590     0.362482     0.000000
EA9     8.593  8.593 21.019 90.08 90.08 90.08 Sym.group:    0
1.0000
    8.593017     0.000000     0.000000
   -0.011983     8.593000     0.000000
   -0.029353    -0.029394    21.018959
   O  Cu
  17   40 
Direct
    0.500000     0.500000     0.497057     1.015034
    0.000610     0.000610     0.004757     0.000000
    0.500610     0.000610     0.004757     0.000000
    0.000610     0.500610     0.004757     0.000000
    0.500610     0.500610     0.004757     0.000000
    0.250790     0.250800     0.107041     0.000000
    0.750790     0.250800     0.107041     0.000000
    0.250790     0.750800     0.107041     0.000000
    0.750790     0.750800     0.107041     0.000000
    0.000610     0.000610     0.209175     0.000000
    0.500610     0.000610     0.209175     0.000000
    0.000610     0.500610     0.209175     0.000000
    0.500610     0.500610     0.209175     0.000000
    0.250790     0.250800     0.311459     0.000000
    0.750790     0.250800     0.311459     0.000000
    0.250790     0.750800     0.311459     0.000000
    0.750790     0.750800     0.311459     0.000000
    0.886660     0.587350     0.458748     1.029140
    0.113340     0.412650     0.458748     1.029078
    0.412650     0.113340     0.458748     1.029078
    0.587350     0.886660     0.458748     1.029140
    0.093660     0.518390     0.403017     1.032233
    0.906340     0.481610     0.403017     1.032243
    0.481610     0.906340     0.403017     1.032243
    0.518390     0.093660     0.403017     1.032233
    0.125670     0.125670     0.055888     0.000000
    0.625670     0.125670     0.055888     0.000000
    0.375590     0.375590     0.055892     0.000000
    0.875590     0.375590     0.055892     0.000000
    0.125670     0.625670     0.055888     0.000000
    0.625670     0.625670     0.055888     0.000000
    0.375590     0.875590     0.055892     0.000000
    0.875590     0.875590     0.055892     0.000000
    0.375580     0.125690     0.158064     0.000000
    0.875580     0.125690     0.158064     0.000000
    0.125680     0.375590     0.158064     0.000000
    0.625680     0.375590     0.158064     0.000000
    0.375580     0.625690     0.158064     0.000000
    0.875580     0.625690     0.158064     0.000000
    0.125680     0.875590     0.158064     0.000000
    0.625680     0.875590     0.158064     0.000000
    0.125670     0.125670     0.260306     0.000000
    0.625670     0.125670     0.260306     0.000000
    0.375590     0.375590     0.260313     0.000000
    0.875590     0.375590     0.260313     0.000000
    0.125670     0.625670     0.260306     0.000000
    0.625670     0.625670     0.260306     0.000000
    0.375590     0.875590     0.260313     0.000000
    0.875590     0.875590     0.260313     0.000000
    0.375580     0.125690     0.362482     0.000000
    0.875580     0.125690     0.362482     0.000000
    0.125680     0.375590     0.362482     0.000000
    0.625680     0.375590     0.362482     0.000000
    0.375580     0.625690     0.362482     0.000000
    0.875580     0.625690     0.362482     0.000000
    0.125680     0.875590     0.362482     0.000000
    0.625680     0.875590     0.362482     0.000000
EA10    8.593  8.593 21.019 90.08 90.08 90.08 Sym.group:    0
1.0000
    8.593017     0.000000     0.000000
   -0.011983     8.593000     0.000000
   -0.029353    -0.029394    21.018959
   O  Cu
  17   40 
Direct
    0.000000     0.000000     0.395282     1.033273
    0.000610     0.000610     0.004757     0.000000
    0.500610     0.000610     0.004757     0.000000
    0.000610     0.500610     0.004757     0.000000
    0.500610     0.500610     0.004757     0.000000
    0.250790     0.250800     0.107041     0.000000
    0.750790     0.250800     0.107041     0.000000
    0.250790     0.750800     0.107041     0.000000
    0.750790     0.750800     0.107041     0.000000
    0.000610     0.000610     0.209175     0.000000
    0.500610     0.000610     0.209175     0.000000
    0.000610     0.500610     0.209175     0.000000
    0.500610     0.500610     0.209175     0.000000
    0.250790     0.250800     0.311459     0.000000
    0.750790     0.250800     0.311459     0.000000
    0.250790     0.750800     0.311459     0.000000
    0.750790     0.750800     0.311459     0.000000
    0.739550     0.133430     0.522761     1.028213
    0.260450     0.866570     0.522761     1.028213
    0.866570     0.739550     0.522761     1.028145
    0.133430     0.260450     0.522761     1.028145
    0.260450     0.133430     0.522761     1.028145
    0.739550     0.866570     0.522761     1.028145
    0.133430     0.739550     0.522761     1.028212
    0.866570     0.260450     0.522761     1.028212
    0.125670     0.125670     0.055888     0.000000
    0.625670     0.125670     0.055888     0.000000
    0.375590     0.375590     0.055892     0.000000
    0.875590     0.375590     0.055892     0.000000
    0.125670     0.625670     0.055888     0.000000
    0.625670     0.625670     0.055888     0.000000
    0.375590     0.875590     0.055892     0.000000
    0.875590     0.875590     0.055892     0.000000
    0.375580     0.125690     0.158064     0.000000
    0.875580     0.125690     0.158064     0.000000
    0.125680     0.375590     0.158064     0.000000
    0.625680     0.375590     0.158064     0.000000
    0.375580     0.625690     0.158064     0.000000
    0.875580     0.625690     0.158064     0.000000
    0.125680     0.875590     0.158064     0.000000
    0.625680     0.875590     0.158064     0.000000
    0.125670     0.125670     0.260306     0.000000
    0.625670     0.125670     0.260306     0.000000
    0.375590     0.375590     0.260313     0.000000
    0.875590     0.375590     0.260313     0.000000
    0.125670     0.625670     0.260306     0.000000
    0.625670     0.625670     0.260306     0.000000
    0.375590     0.875590     0.260313     0.000000
    0.875590     0.875590     0.260313     0.000000
    0.375580     0.125690     0.362482     0.000000
    0.875580     0.125690     0.362482     0.000000
    0.125680     0.375590     0.362482     0.000000
    0.625680     0.375590     0.362482     0.000000
    0.375580     0.625690     0.362482     0.000000
    0.875580     0.625690     0.362482     0.000000
    0.125680     0.875590     0.362482     0.000000
    0.625680     0.875590     0.362482     0.000000
EA11    8.593  8.593 21.019 90.08 90.08 90.08 Sym.group:    0
1.0000
    8.593017     0.000000     0.000000
   -0.011983     8.593000     0.000000
   -0.029353    -0.029394    21.018959
   O  Cu
  17   40 
Direct
    0.000000     0.000000     0.403112     1.017387
    0.000610     0.000610     0.004757     0.000000
    0.500610     0.000610     0.004757     0.000000
    0.000610     0.500610     0.004757     0.000000
    0.500610     0.500610     0.004757     0.000000
    0.250790     0.250800     0.107041     0.000000
    0.750790     0.250800     0.107041     0.000000
    0.250790     0.750800     0.107041     0.000000
    0.750790     0.750800     0.107041     0.000000
    0.000610     0.000610     0.209175     0.000000
    0.500610     0.000610     0.209175     0.000000
    0.000610     0.500610     0.209175     0.000000
    0.500610     0.500610     0.209175     0.000000
    0.250790     0.250800     0.311459     0.000000
    0.750790     0.250800     0.311459     0.000000
    0.250790     0.750800     0.311459     0.000000
    0.750790     0.750800     0.311459     0.000000
    0.223940     0.147100     0.399994     1.027053
    0.776060     0.852900     0.399994     1.027067
    0.852900     0.776060     0.399994     1.027067
    0.147100     0.223940     0.399994     1.027053
    0.141090     0.640350     0.492296     1.029613
    0.858910     0.359650     0.492296     1.029602
    0.359650     0.858910     0.492296     1.029602
    0.640350     0.141090     0.492296     1.029613
    0.125670     0.125670     0.055888     0.000000
    0.625670     0.125670     0.055888     0.000000
    0.375590     0.375590     0.055892     0.000000
    0.875590     0.375590     0.055892     0.000000
    0.125670     0.625670     0.055888     0.000000
    0.625670     0.625670     0.055888     0.000000
    0.375590     0.875590     0.055892     0.000000
    0.875590     0.875590     0.055892     0.000000
    0.375580     0.125690     0.158064     0.000000
    0.875580     0.125690     0.158064     0.000000
    0.125680     0.375590     0.158064     0.000000
    0.625680     0.375590     0.158064     0.000000
    0.375580     0.625690     0.158064     0.000000
    0.875580     0.625690     0.158064     0.000000
    0.125680     0.875590     0.158064     0.000000
    0.625680     0.875590     0.158064     0.000000
    0.125670     0.125670     0.260306     0.000000
    0.625670     0.125670     0.260306     0.000000
    0.375590     0.375590     0.260313     0.000000
    0.875590     0.375590     0.260313     0.000000
    0.125670     0.625670     0.260306     0.000000
    0.625670     0.625670     0.260306     0.000000
    0.375590     0.875590     0.260313     0.000000
    0.875590     0.875590     0.260313     0.000000
    0.375580     0.125690     0.362482     0.000000
    0.875580     0.125690     0.362482     0.000000
    0.125680     0.375590     0.362482     0.000000
    0.625680     0.375590     0.362482     0.000000
    0.375580     0.625690     0.362482     0.000000
    0.875580     0.625690     0.362482     0.000000
    0.125680     0.875590     0.362482     0.000000
    0.625680     0.875590     0.362482     0.000000
EA12    8.593  8.593 21.019 90.08 90.08 90.08 Sym.group:    0
1.0000
    8.593017     0.000000     0.000000
   -0.011983     8.593000     0.000000
   -0.029353    -0.029394    21.018959
   O  Cu
  17   40 
Direct
    0.962490     0.667540     0.428963     1.024551
    0.000610     0.000610     0.004757     0.000000
    0.500610     0.000610     0.004757     0.000000
    0.000610     0.500610     0.004757     0.000000
    0.500610     0.500610     0.004757     0.000000
    0.250790     0.250800     0.107041     0.000000
    0.750790     0.250800     0.107041     0.000000
    0.250790     0.750800     0.107041     0.000000
    0.750790     0.750800     0.107041     0.000000
    0.000610     0.000610     0.209175     0.000000
    0.500610     0.000610     0.209175     0.000000
    0.000610     0.500610     0.209175     0.000000
    0.500610     0.500610     0.209175     0.000000
    0.250790     0.250800     0.311459     0.000000
    0.750790     0.250800     0.311459     0.000000
    0.250790     0.750800     0.311459     0.000000
    0.750790     0.750800     0.311459     0.000000
    0.000140     0.567700     0.410233     1.033013
    0.000140     0.798770     0.443213     1.030420
    0.002500     0.295420     0.438980     1.019189
    0.002500     0.597360     0.482075     1.033154
    0.414350     0.709010     0.482789     1.030444
    0.414350     0.290420     0.423044     1.023129
    0.706000     0.579510     0.468328     1.032040
    0.706000     0.391740     0.441528     1.024472
    0.125670     0.125670     0.055888     0.000000
    0.625670     0.125670     0.055888     0.000000
    0.375590     0.375590     0.055892     0.000000
    0.875590     0.375590     0.055892     0.000000
    0.125670     0.625670     0.055888     0.000000
    0.625670     0.625670     0.055888     0.000000
    0.375590     0.875590     0.055892     0.000000
    0.875590     0.875590     0.055892     0.000000
    0.375580     0.125690     0.158064     0.000000
    0.875580     0.125690     0.158064     0.000000
    0.125680     0.375590     0.158064     0.000000
    0.625680     0.375590     0.158064     0.000000
    0.375580     0.625690     0.158064     0.000000
    0.875580     0.625690     0.158064     0.000000
    0.125680     0.875590     0.158064     0.000000
    0.625680     0.875590     0.158064     0.000000
    0.125670     0.125670     0.260306     0.000000
    0.625670     0.125670     0.260306     0.000000
    0.375590     0.375590     0.260313     0.000000
    0.875590     0.375590     0.260313     0.000000
    0.125670     0.625670     0.260306     0.000000
    0.625670     0.625670     0.260306     0.000000
    0.375590     0.875590     0.260313     0.000000
    0.875590     0.875590     0.260313     0.000000
    0.375580     0.125690     0.362482     0.000000
    0.875580     0.125690     0.362482     0.000000
    0.125680     0.375590     0.362482     0.000000
    0.625680     0.375590     0.362482     0.000000
    0.375580     0.625690     0.362482     0.000000
    0.875580     0.625690     0.362482     0.000000
    0.125680     0.875590     0.362482     0.000000
    0.625680     0.875590     0.362482     0.000000
EA13    8.593  8.593 21.019 90.08 90.08 90.08 Sym.group:    0
1.0000
    8.593017     0.000000     0.000000
   -0.011983     8.593000     0.000000
   -0.029353    -0.029394    21.018959
   O  Cu
  17   40 
Direct
    0.000000     0.000000     0.414068     1.028115
    0.000610     0.000610     0.004757     0.000000
    0.500610     0.000610     0.004757     0.000000
    0.000610     0.500610     0.004757     0.000000
    0.500610     0.500610     0.004757     0.000000
    0.250790     0.250800     0.107041     0.000000
    0.750790     0.250800     0.107041     0.000000
    0.250790     0.750800     0.107041     0.000000
    0.750790     0.750800     0.107041     0.000000
    0.000610     0.000610     0.209175     0.000000
    0.500610     0.000610     0.209175     0.000000
    0.000610     0.500610     0.209175     0.000000
    0.500610     0.500610     0.209175     0.000000
    0.250790     0.250800     0.311459     0.000000
    0.750790     0.250800     0.311459     0.000000
    0.250790     0.750800     0.311459     0.000000
    0.750790     0.750800     0.311459     0.000000
    0.374010     0.959940     0.400913     1.031107
    0.040060     0.414070     0.400913     1.029834
    0.585930     0.625990     0.400913     1.027714
    0.828500     0.832560     0.501956     1.032369
    0.167440     0.995940     0.501956     1.033065
    0.004060     0.171500     0.501956     1.033035
    0.666670     0.333330     0.417547     1.025264
    0.333330     0.666670     0.437745     1.033092
    0.125670     0.125670     0.055888     0.000000
    0.625670     0.125670     0.055888     0.000000
    0.375590     0.375590     0.055892     0.000000
    0.875590     0.375590     0.055892     0.000000
    0.125670     0.625670     0.055888     0.000000
    0.625670     0.625670     0.055888     0.000000
    0.375590     0.875590     0.055892     0.000000
    0.875590     0.875590     0.055892     0.000000
    0.375580     0.125690     0.158064     0.000000
    0.875580     0.125690     0.158064     0.000000
    0.125680     0.375590     0.158064     0.000000
    0.625680     0.375590     0.158064     0.000000
    0.375580     0.625690     0.158064     0.000000
    0.875580     0.625690     0.158064     0.000000
    0.125680     0.875590     0.158064     0.000000
    0.625680     0.875590     0.158064     0.000000
    0.125670     0.125670     0.260306     0.000000
    0.625670     0.125670     0.260306     0.000000
    0.375590     0.375590     0.260313     0.000000
    0.875590     0.375590     0.260313     0.000000
    0.125670     0.625670     0.260306     0.000000
    0.625670     0.625670     0.260306     0.000000
    0.375590     0.875590     0.260313     0.000000
    0.875590     0.875590     0.260313     0.000000
    0.375580     0.125690     0.362482     0.000000
    0.875580     0.125690     0.362482     0.000000
    0.125680     0.375590     0.362482     0.000000
    0.625680     0.375590     0.362482     0.000000
    0.375580     0.625690     0.362482     0.000000
    0.875580     0.625690     0.362482     0.000000
    0.125680     0.875590     0.362482     0.000000
    0.625680     0.875590     0.362482     0.000000
EA14    8.593  8.593 21.019 90.08 90.08 90.08 Sym.group:    0
1.0000
    8.593017     0.000000     0.000000
   -0.011983     8.593000     0.000000
   -0.029353    -0.029394    21.018959
   O  Cu
  17   40 
Direct
    0.000000     0.000000     0.518103     1.033204
    0.000610     0.000610     0.004757     0.000000
    0.500610     0.000610     0.004757     0.000000
    0.000610     0.500610     0.004757     0.000000
    0.500610     0.500610     0.004757     0.000000
    0.250790     0.250800     0.107041     0.000000
    0.750790     0.250800     0.107041     0.000000
    0.250790     0.750800     0.107041     0.000000
    0.750790     0.750800     0.107041     0.000000
    0.000610     0.000610     0.209175     0.000000
    0.500610     0.000610     0.209175     0.000000
    0.000610     0.500610     0.209175     0.000000
    0.500610     0.500610     0.209175     0.000000
    0.250790     0.250800     0.311459     0.000000
    0.750790     0.250800     0.311459     0.000000
    0.250790     0.750800     0.311459     0.000000
    0.750790     0.750800     0.311459     0.000000
    0.501180     0.678490     0.475867     1.028303
    0.822690     0.501180     0.475867     1.033094
    0.321510     0.822690     0.475867     1.024079
    0.498820     0.321510     0.475867     1.028303
    0.177310     0.498820     0.475867     1.033094
    0.678490     0.177310     0.475867     1.024062
    0.333330     0.666670     0.499295     1.028233
    0.666670     0.333330     0.499295     1.028216
    0.125670     0.125670     0.055888     0.000000
    0.625670     0.125670     0.055888     0.000000
    0.375590     0.375590     0.055892     0.000000
    0.875590     0.375590     0.055892     0.000000
    0.125670     0.625670     0.055888     0.000000
    0.625670     0.625670     0.055888     0.000000
    0.375590     0.875590     0.055892     0.000000
    0.875590     0.875590     0.055892     0.000000
    0.375580     0.125690     0.158064     0.000000
    0.875580     0.125690     0.158064     0.000000
    0.125680     0.375590     0.158064     0.000000
    0.625680     0.375590     0.158064     0.000000
    0.375580     0.625690     0.158064     0.000000
    0.875580     0.625690     0.158064     0.000000
    0.125680     0.875590     0.158064     0.000000
    0.625680     0.875590     0.158064     0.000000
    0.125670     0.125670     0.260306     0.000000
    0.625670     0.125670     0.260306     0.000000
    0.375590     0.375590     0.260313     0.000000
    0.875590     0.375590     0.260313     0.000000
    0.125670     0.625670     0.260306     0.000000
    0.625670     0.625670     0.260306     0.000000
    0.375590     0.875590     0.260313     0.000000
    0.875590     0.875590     0.260313     0.000000
    0.375580     0.125690     0.362482     0.000000
    0.875580     0.125690     0.362482     0.000000
    0.125680     0.375590     0.362482     0.000000
    0.625680     0.375590     0.362482     0.000000
    0.375580     0.625690     0.362482     0.000000
    0.875580     0.625690     0.362482     0.000000
    0.125680     0.875590     0.362482     0.000000
    0.625680     0.875590     0.362482     0.000000
EA15    8.593  8.593 21.019 90.08 90.08 90.08 Sym.group:    0
1.0000
    8.593017     0.000000     0.000000
   -0.011983     8.593000     0.000000
   -0.029353    -0.029394    21.018959
   O  Cu
  17   40 
Direct
    0.000000     0.000000     0.408699     1.032785
    0.000610     0.000610     0.004757     0.000000
    0.500610     0.000610     0.004757     0.000000
    0.000610     0.500610     0.004757     0.000000
    0.500610     0.500610     0.004757     0.000000
    0.250790     0.250800     0.107041     0.000000
    0.750790     0.250800     0.107041     0.000000
    0.250790     0.750800     0.107041     0.000000
    0.750790     0.750800     0.107041     0.000000
    0.000610     0.000610     0.209175     0.000000
    0.500610     0.000610     0.209175     0.000000
    0.000610     0.500610     0.209175     0.000000
    0.500610     0.500610     0.209175     0.000000
    0.250790     0.250800     0.311459     0.000000
    0.750790     0.250800     0.311459     0.000000
    0.250790     0.750800     0.311459     0.000000
    0.750790     0.750800     0.311459     0.000000
    0.421630     0.578370     0.500553     1.032711
    0.421630     0.843260     0.500553     1.025641
    0.156740     0.578370     0.500553     1.025488
    0.915540     0.084460     0.423083     1.032976
    0.915540     0.831070     0.423083     1.025688
    0.168930     0.084460     0.423083     1.025541
    0.333330     0.666670     0.428581     1.031815
    0.000000     0.000000     0.482576     1.032450
    0.125670     0.125670     0.055888     0.000000
    0.625670     0.125670     0.055888     0.000000
    0.375590     0.375590     0.055892     0.000000
    0.875590     0.375590     0.055892     0.000000
    0.125670     0.625670     0.055888     0.000000
    0.625670     0.625670     0.055888     0.000000
    0.375590     0.875590     0.055892     0.000000
    0.875590     0.875590     0.055892     0.000000
    0.375580     0.125690     0.158064     0.000000
    0.875580     0.125690     0.158064     0.000000
    0.125680     0.375590     0.158064     0.000000
    0.625680     0.375590     0.158064     0.000000
    0.375580     0.625690     0.158064     0.000000
    0.875580     0.625690     0.158064     0.000000
    0.125680     0.875590     0.158064     0.000000
    0.625680     0.875590     0.158064     0.000000
    0.125670     0.125670     0.260306     0.000000
    0.625670     0.125670     0.260306     0.000000
    0.375590     0.375590     0.260313     0.000000
    0.875590     0.375590     0.260313     0.000000
    0.125670     0.625670     0.260306     0.000000
    0.625670     0.625670     0.260306     0.000000
    0.375590     0.875590     0.260313     0.000000
    0.875590     0.875590     0.260313     0.000000
    0.375580     0.125690     0.362482     0.000000
    0.875580     0.125690     0.362482     0.000000
    0.125680     0.375590     0.362482     0.000000
    0.625680     0.375590     0.362482     0.000000
    0.375580     0.625690     0.362482     0.000000
    0.875580     0.625690     0.362482     0.000000
    0.125680     0.875590     0.362482     0.000000
    0.625680     0.875590     0.362482     0.000000
EA16    8.593  8.593 21.019 90.08 90.08 90.08 Sym.group:    0
1.0000
    8.593017     0.000000     0.000000
   -0.011983     8.593000     0.000000
   -0.029353    -0.029394    21.018959
   O  Cu
  17   40 
Direct
    0.500000     0.500000     0.409918     1.033273
    0.000610     0.000610     0.004757     0.000000
    0.500610     0.000610     0.004757     0.000000
    0.000610     0.500610     0.004757     0.000000
    0.500610     0.500610     0.004757     0.000000
    0.250790     0.250800     0.107041     0.000000
    0.750790     0.250800     0.107041     0.000000
    0.250790     0.750800     0.107041     0.000000
    0.750790     0.750800     0.107041     0.000000
    0.000610     0.000610     0.209175     0.000000
    0.500610     0.000610     0.209175     0.000000
    0.000610     0.500610     0.209175     0.000000
    0.500610     0.500610     0.209175     0.000000
    0.250790     0.250800     0.311459     0.000000
    0.750790     0.250800     0.311459     0.000000
    0.250790     0.750800     0.311459     0.000000
    0.750790     0.750800     0.311459     0.000000
    0.281870     0.000000     0.459150     1.022037
    0.718130     0.000000     0.459150     1.022037
    0.000000     0.281870     0.459150     1.022037
    0.000000     0.718130     0.459150     1.022037
    0.169150     0.000000     0.454720     1.027776
    0.830850     0.000000     0.454720     1.027771
    0.000000     0.169150     0.454720     1.027776
    0.000000     0.830850     0.454720     1.027771
    0.125670     0.125670     0.055888     0.000000
    0.625670     0.125670     0.055888     0.000000
    0.375590     0.375590     0.055892     0.000000
    0.875590     0.375590     0.055892     0.000000
    0.125670     0.625670     0.055888     0.000000
    0.625670     0.625670     0.055888     0.000000
    0.375590     0.875590     0.055892     0.000000
    0.875590     0.875590     0.055892     0.000000
    0.375580     0.125690     0.158064     0.000000
    0.875580     0.125690     0.158064     0.000000
    0.125680     0.375590     0.158064     0.000000
    0.625680     0.375590     0.158064     0.000000
    0.375580     0.625690     0.158064     0.000000
    0.875580     0.625690     0.158064     0.000000
    0.125680     0.875590     0.158064     0.000000
    0.625680     0.875590     0.158064     0.000000
    0.125670     0.125670     0.260306     0.000000
    0.625670     0.125670     0.260306     0.000000
    0.375590     0.375590     0.260313     0.000000
    0.875590     0.375590     0.260313     0.000000
    0.125670     0.625670     0.260306     0.000000
    0.625670     0.625670     0.260306     0.000000
    0.375590     0.875590     0.260313     0.000000
    0.875590     0.875590     0.260313     0.000000
    0.375580     0.125690     0.362482     0.000000
    0.875580     0.125690     0.362482     0.000000
    0.125680     0.375590     0.362482     0.000000
    0.625680     0.375590     0.362482     0.000000
    0.375580     0.625690     0.362482     0.000000
    0.875580     0.625690     0.362482     0.000000
    0.125680     0.875590     0.362482     0.000000
    0.625680     0.875590     0.362482     0.000000
EA17    8.593  8.593 21.019 90.08 90.08 90.08 Sym.group:    0
1.0000
    8.593017     0.000000     0.000000
   -0.011983     8.593000     0.000000
   -0.029353    -0.029394    21.018959
   O  Cu
  17   40 
Direct
    0.500000     0.500000     0.480921     1.032875
    0.000610     0.000610     0.004757     0.000000
    0.500610     0.000610     0.004757     0.000000
    0.000610     0.500610     0.004757     0.000000
    0.500610     0.500610     0.004757     0.000000
    0.250790     0.250800     0.107041     0.000000
    0.750790     0.250800     0.107041     0.000000
    0.250790     0.750800     0.107041     0.000000
    0.750790     0.750800     0.107041     0.000000
    0.000610     0.000610     0.209175     0.000000
    0.500610     0.000610     0.209175     0.000000
    0.000610     0.500610     0.209175     0.000000
    0.500610     0.500610     0.209175     0.000000
    0.250790     0.250800     0.311459     0.000000
    0.750790     0.250800     0.311459     0.000000
    0.250790     0.750800     0.311459     0.000000
    0.750790     0.750800     0.311459     0.000000
    0.143410     0.623900     0.442661     1.027808
    0.856590     0.376100     0.442661     1.027823
    0.376100     0.856590     0.442661     1.027823
    0.623900     0.143410     0.442661     1.027808
    0.664010     0.954870     0.434167     1.025270
    0.335990     0.045130     0.434167     1.025253
    0.045130     0.335990     0.434167     1.025253
    0.954870     0.664010     0.434167     1.025270
    0.125670     0.125670     0.055888     0.000000
    0.625670     0.125670     0.055888     0.000000
    0.375590     0.375590     0.055892     0.000000
    0.875590     0.375590     0.055892     0.000000
    0.125670     0.625670     0.055888     0.000000
    0.625670     0.625670     0.055888     0.000000
    0.375590     0.875590     0.055892     0.000000
    0.875590     0.875590     0.055892     0.000000
    0.375580     0.125690     0.158064     0.000000
    0.875580     0.125690     0.158064     0.000000
    0.125680     0.375590     0.158064     0.000000
    0.625680     0.375590     0.158064     0.000000
    0.375580     0.625690     0.158064     0.000000
    0.875580     0.625690     0.158064     0.000000
    0.125680     0.875590     0.158064     0.000000
    0.625680     0.875590     0.158064     0.000000
    0.125670     0.125670     0.260306     0.000000
    0.625670     0.125670     0.260306     0.000000
    0.375590     0.375590     0.260313     0.000000
    0.875590     0.375590     0.260313     0.000000
    0.125670     0.625670     0.260306     0.000000
    0.625670     0.625670     0.260306     0.000000
    0.375590     0.875590     0.260313     0.000000
    0.875590     0.875590     0.260313     0.000000
    0.375580     0.125690     0.362482     0.000000
    0.875580     0.125690     0.362482     0.000000
    0.125680     0.375590     0.362482     0.000000
    0.625680     0.375590     0.362482     0.000000
    0.375580     0.625690     0.362482     0.000000
    0.875580     0.625690     0.362482     0.000000
    0.125680     0.875590     0.362482     0.000000
    0.625680     0.875590     0.362482     0.000000
EA18    8.593  8.593 21.019 90.08 90.08 90.08 Sym.group:    0
1.0000
    8.593017     0.000000     0.000000
   -0.011983     8.593000     0.000000
   -0.029353    -0.029394    21.018959
   O  Cu
  17   40 
Direct
    1.000000     0.500000     0.447616     1.023059
    0.000610     0.000610     0.004757     0.000000
    0.500610     0.000610     0.004757     0.000000
    0.000610     0.500610     0.004757     0.000000
    0.500610     0.500610     0.004757     0.000000
    0.250790     0.250800     0.107041     0.000000
    0.750790     0.250800     0.107041     0.000000
    0.250790     0.750800     0.107041     0.000000
    0.750790     0.750800     0.107041     0.000000
    0.000610     0.000610     0.209175     0.000000
    0.500610     0.000610     0.209175     0.000000
    0.000610     0.500610     0.209175     0.000000
    0.500610     0.500610     0.209175     0.000000
    0.250790     0.250800     0.311459     0.000000
    0.750790     0.250800     0.311459     0.000000
    0.250790     0.750800     0.311459     0.000000
    0.750790     0.750800     0.311459     0.000000
    0.751700     0.017890     0.440533     1.020362
    0.248300     0.982110     0.440533     1.020197
    0.650350     0.411550     0.489884     1.030801
    0.349650     0.588450     0.489884     1.030870
    0.150730     0.750510     0.444926     1.031805
    0.849270     0.249490     0.444926     1.031805
    0.821230     0.977460     0.509633     1.024173
    0.178770     0.022540     0.509633     1.024355
    0.125670     0.125670     0.055888     0.000000
    0.625670     0.125670     0.055888     0.000000
    0.375590     0.375590     0.055892     0.000000
    0.875590     0.375590     0.055892     0.000000
    0.125670     0.625670     0.055888     0.000000
    0.625670     0.625670     0.055888     0.000000
    0.375590     0.875590     0.055892     0.000000
    0.875590     0.875590     0.055892     0.000000
    0.375580     0.125690     0.158064     0.000000
    0.875580     0.125690     0.158064     0.000000
    0.125680     0.375590     0.158064     0.000000
    0.625680     0.375590     0.158064     0.000000
    0.375580     0.625690     0.158064     0.000000
    0.875580     0.625690     0.158064     0.000000
    0.125680     0.875590     0.158064     0.000000
    0.625680     0.875590     0.158064     0.000000
    0.125670     0.125670     0.260306     0.000000
    0.625670     0.125670     0.260306     0.000000
    0.375590     0.375590     0.260313     0.000000
    0.875590     0.375590     0.260313     0.000000
    0.125670     0.625670     0.260306     0.000000
    0.625670     0.625670     0.260306     0.000000
    0.375590     0.875590     0.260313     0.000000
    0.875590     0.875590     0.260313     0.000000
    0.375580     0.125690     0.362482     0.000000
    0.875580     0.125690     0.362482     0.000000
    0.125680     0.375590     0.362482     0.000000
    0.625680     0.375590     0.362482     0.000000
    0.375580     0.625690     0.362482     0.000000
    0.875580     0.625690     0.362482     0.000000
    0.125680     0.875590     0.362482     0.000000
    0.625680     0.875590     0.362482     0.000000
EA19    8.593  8.593 21.019 90.08 90.08 90.08 Sym.group:    0
1.0000
    8.593017     0.000000     0.000000
   -0.011983     8.593000     0.000000
   -0.029353    -0.029394    21.018959
   O  Cu
  17   40 
Direct
    0.000000     1.000000     0.459501     1.033090
    0.000610     0.000610     0.004757     0.000000
    0.500610     0.000610     0.004757     0.000000
    0.000610     0.500610     0.004757     0.000000
    0.500610     0.500610     0.004757     0.000000
    0.250790     0.250800     0.107041     0.000000
    0.750790     0.250800     0.107041     0.000000
    0.250790     0.750800     0.107041     0.000000
    0.750790     0.750800     0.107041     0.000000
    0.000610     0.000610     0.209175     0.000000
    0.500610     0.000610     0.209175     0.000000
    0.000610     0.500610     0.209175     0.000000
    0.500610     0.500610     0.209175     0.000000
    0.250790     0.250800     0.311459     0.000000
    0.750790     0.250800     0.311459     0.000000
    0.250790     0.750800     0.311459     0.000000
    0.750790     0.750800     0.311459     0.000000
    0.245770     0.957430     0.462659     1.028222
    0.288340     0.245770     0.462659     1.025622
    0.042570     0.288340     0.462659     1.028937
    0.754230     0.042570     0.462659     1.028178
    0.711660     0.754230     0.462659     1.025644
    0.957430     0.711660     0.462659     1.028952
    0.333330     0.666670     0.511750     1.018177
    0.666670     0.333330     0.511750     1.018083
    0.125670     0.125670     0.055888     0.000000
    0.625670     0.125670     0.055888     0.000000
    0.375590     0.375590     0.055892     0.000000
    0.875590     0.375590     0.055892     0.000000
    0.125670     0.625670     0.055888     0.000000
    0.625670     0.625670     0.055888     0.000000
    0.375590     0.875590     0.055892     0.000000
    0.875590     0.875590     0.055892     0.000000
    0.375580     0.125690     0.158064     0.000000
    0.875580     0.125690     0.158064     0.000000
    0.125680     0.375590     0.158064     0.000000
    0.625680     0.375590     0.158064     0.000000
    0.375580     0.625690     0.158064     0.000000
    0.875580     0.625690     0.158064     0.000000
    0.125680     0.875590     0.158064     0.000000
    0.625680     0.875590     0.158064     0.000000
    0.125670     0.125670     0.260306     0.000000
    0.625670     0.125670     0.260306     0.000000
    0.375590     0.375590     0.260313     0.000000
    0.875590     0.375590     0.260313     0.000000
    0.125670     0.625670     0.260306     0.000000
    0.625670     0.625670     0.260306     0.000000
    0.375590     0.875590     0.260313     0.000000
    0.875590     0.875590     0.260313     0.000000
    0.375580     0.125690     0.362482     0.000000
    0.875580     0.125690     0.362482     0.000000
    0.125680     0.375590     0.362482     0.000000
    0.625680     0.375590     0.362482     0.000000
    0.375580     0.625690     0.362482     0.000000
    0.875580     0.625690     0.362482     0.000000
    0.125680     0.875590     0.362482     0.000000
    0.625680     0.875590     0.362482     0.000000
EA20    8.593  8.593 21.019 90.08 90.08 90.08 Sym.group:    0
1.0000
    8.593017     0.000000     0.000000
   -0.011983     8.593000     0.000000
   -0.029353    -0.029394    21.018959
   O  Cu
  17   40 
Direct
    0.000000     0.000000     0.434066     1.033260
    0.000610     0.000610     0.004757     0.000000
    0.500610     0.000610     0.004757     0.000000
    0.000610     0.500610     0.004757     0.000000
    0.500610     0.500610     0.004757     0.000000
    0.250790     0.250800     0.107041     0.000000
    0.750790     0.250800     0.107041     0.000000
    0.250790     0.750800     0.107041     0.000000
    0.750790     0.750800     0.107041     0.000000
    0.000610     0.000610     0.209175     0.000000
    0.500610     0.000610     0.209175     0.000000
    0.000610     0.500610     0.209175     0.000000
    0.500610     0.500610     0.209175     0.000000
    0.250790     0.250800     0.311459     0.000000
    0.750790     0.250800     0.311459     0.000000
    0.250790     0.750800     0.311459     0.000000
    0.750790     0.750800     0.311459     0.000000
    0.468190     0.666110     0.455121     1.022210
    0.333890     0.802070     0.455121     1.021747
    0.197930     0.531810     0.455121     1.024340
    0.197930     0.666110     0.455121     1.021747
    0.333890     0.531810     0.455121     1.022210
    0.468190     0.802070     0.455121     1.024328
    0.666670     0.333330     0.505169     1.033251
    0.333330     0.666670     0.459727     1.021757
    0.125670     0.125670     0.055888     0.000000
    0.625670     0.125670     0.055888     0.000000
    0.375590     0.375590     0.055892     0.000000
    0.875590     0.375590     0.055892     0.000000
    0.125670     0.625670     0.055888     0.000000
    0.625670     0.625670     0.055888     0.000000
    0.375590     0.875590     0.055892     0.000000
    0.875590     0.875590     0.055892     0.000000
    0.375580     0.125690     0.158064     0.000000
    0.875580     0.125690     0.158064     0.000000
    0.125680     0.375590     0.158064     0.000000
    0.625680     0.375590     0.158064     0.000000
    0.375580     0.625690     0.158064     0.000000
    0.875580     0.625690     0.158064     0.000000
    0.125680     0.875590     0.158064     0.000000
    0.625680     0.875590     0.158064     0.000000
    0.125670     0.125670     0.260306     0.000000
    0.625670     0.125670     0.260306     0.000000
    0.375590     0.375590     0.260313     0.000000
    0.875590     0.375590     0.260313     0.000000
    0.125670     0.625670     0.260306     0.000000
    0.625670     0.625670     0.260306     0.000000
    0.375590     0.875590     0.260313     0.000000
    0.875590     0.875590     0.260313     0.000000
    0.375580     0.125690     0.362482     0.000000
    0.875580     0.125690     0.362482     0.000000
    0.125680     0.375590     0.362482     0.000000
    0.625680     0.375590     0.362482     0.000000
    0.375580     0.625690     0.362482     0.000000
    0.875580     0.625690     0.362482     0.000000
    0.125680     0.875590     0.362482     0.000000
    0.625680     0.875590     0.362482     0.000000
EA21    8.593  8.593 21.019 90.08 90.08 90.08 Sym.group:    0
1.0000
    8.593017     0.000000     0.000000
   -0.011983     8.593000     0.000000
   -0.029353    -0.029394    21.018959
   O  Cu
  17   40 
Direct
    0.000000     0.000000     0.508013     1.032965
    0.000610     0.000610     0.004757     0.000000
    0.500610     0.000610     0.004757     0.000000
    0.000610     0.500610     0.004757     0.000000
    0.500610     0.500610     0.004757     0.000000
    0.250790     0.250800     0.107041     0.000000
    0.750790     0.250800     0.107041     0.000000
    0.250790     0.750800     0.107041     0.000000
    0.750790     0.750800     0.107041     0.000000
    0.000610     0.000610     0.209175     0.000000
    0.500610     0.000610     0.209175     0.000000
    0.000610     0.500610     0.209175     0.000000
    0.500610     0.500610     0.209175     0.000000
    0.250790     0.250800     0.311459     0.000000
    0.750790     0.250800     0.311459     0.000000
    0.250790     0.750800     0.311459     0.000000
    0.750790     0.750800     0.311459     0.000000
    0.309170     0.164690     0.505306     1.023959
    0.690830     0.835310     0.505306     1.023959
    0.835310     0.309170     0.505306     1.024054
    0.164690     0.690830     0.505306     1.024054
    0.690830     0.164690     0.505306     1.024054
    0.309170     0.835310     0.505306     1.024054
    0.164690     0.309170     0.505306     1.023959
    0.835310     0.690830     0.505306     1.023959
    0.125670     0.125670     0.055888     0.000000
    0.625670     0.125670     0.055888     0.000000
    0.375590     0.375590     0.055892     0.000000
    0.875590     0.375590     0.055892     0.000000
    0.125670     0.625670     0.055888     0.000000
    0.625670     0.625670     0.055888     0.000000
    0.375590     0.875590     0.055892     0.000000
    0.875590     0.875590     0.055892     0.000000
    0.375580     0.125690     0.158064     0.000000
    0.875580     0.125690     0.158064     0.000000
    0.125680     0.375590     0.158064     0.000000
    0.625680     0.375590     0.158064     0.000000
    0.375580     0.625690     0.158064     0.000000
    0.875580     0.625690     0.158064     0.000000
    0.125680     0.875590     0.158064     0.000000
    0.625680     0.875590     0.158064     0.000000
    0.125670     0.125670     0.260306     0.000000
    0.625670     0.125670     0.260306     0.000000
    0.375590     0.375590     0.260313     0.000000
    0.875590     0.375590     0.260313     0.000000
    0.125670     0.625670     0.260306     0.000000
    0.625670     0.625670     0.260306     0.000000
    0.375590     0.875590     0.260313     0.000000
    0.875590     0.875590     0.260313     0.000000
    0.375580     0.125690     0.362482     0.000000
    0.875580     0.125690     0.362482     0.000000
    0.125680     0.375590     0.362482     0.000000
    0.625680     0.375590     0.362482     0.000000
    0.375580     0.625690     0.362482     0.000000
    0.875580     0.625690     0.362482     0.000000
    0.125680     0.875590     0.362482     0.000000
    0.625680     0.875590     0.362482     0.000000
EA22    8.593  8.593 21.019 90.08 90.08 90.08 Sym.group:    0
1.0000
    8.593017     0.000000     0.000000
   -0.011983     8.593000     0.000000
   -0.029353    -0.029394    21.018959
   O  Cu
  17   40 
Direct
    0.462280     0.592730     0.439641     1.027452
    0.000610     0.000610     0.004757     0.000000
    0.500610     0.000610     0.004757     0.000000
    0.000610     0.500610     0.004757     0.000000
    0.500610     0.500610     0.004757     0.000000
    0.250790     0.250800     0.107041     0.000000
    0.750790     0.250800     0.107041     0.000000
    0.250790     0.750800     0.107041     0.000000
    0.750790     0.750800     0.107041     0.000000
    0.000610     0.000610     0.209175     0.000000
    0.500610     0.000610     0.209175     0.000000
    0.000610     0.500610     0.209175     0.000000
    0.500610     0.500610     0.209175     0.000000
    0.250790     0.250800     0.311459     0.000000
    0.750790     0.250800     0.311459     0.000000
    0.250790     0.750800     0.311459     0.000000
    0.750790     0.750800     0.311459     0.000000
    0.265280     0.558960     0.383650     1.024961
    0.265280     0.985020     0.444461     1.022086
    0.651380     0.057770     0.402901     1.029467
    0.651380     0.850140     0.515995     1.032588
    0.440010     0.091790     0.476967     1.031882
    0.440010     0.331210     0.511139     1.031429
    0.412850     0.782800     0.481604     1.026908
    0.412850     0.298720     0.412512     1.026926
    0.125670     0.125670     0.055888     0.000000
    0.625670     0.125670     0.055888     0.000000
    0.375590     0.375590     0.055892     0.000000
    0.875590     0.375590     0.055892     0.000000
    0.125670     0.625670     0.055888     0.000000
    0.625670     0.625670     0.055888     0.000000
    0.375590     0.875590     0.055892     0.000000
    0.875590     0.875590     0.055892     0.000000
    0.375580     0.125690     0.158064     0.000000
    0.875580     0.125690     0.158064     0.000000
    0.125680     0.375590     0.158064     0.000000
    0.625680     0.375590     0.158064     0.000000
    0.375580     0.625690     0.158064     0.000000
    0.875580     0.625690     0.158064     0.000000
    0.125680     0.875590     0.158064     0.000000
    0.625680     0.875590     0.158064     0.000000
    0.125670     0.125670     0.260306     0.000000
    0.625670     0.125670     0.260306     0.000000
    0.375590     0.375590     0.260313     0.000000
    0.875590     0.375590     0.260313     0.000000
    0.125670     0.625670     0.260306     0.000000
    0.625670     0.625670     0.260306     0.000000
    0.375590     0.875590     0.260313     0.000000
    0.875590     0.875590     0.260313     0.000000
    0.375580     0.125690     0.362482     0.000000
    0.875580     0.125690     0.362482     0.000000
    0.125680     0.375590     0.362482     0.000000
    0.625680     0.375590     0.362482     0.000000
    0.375580     0.625690     0.362482     0.000000
    0.875580     0.625690     0.362482     0.000000
    0.125680     0.875590     0.362482     0.000000
    0.625680     0.875590     0.362482     0.000000
EA23    8.593  8.593 21.019 90.08 90.08 90.08 Sym.group:    0
1.0000
    8.593017     0.000000     0.000000
   -0.011983     8.593000     0.000000
   -0.029353    -0.029394    21.018959
   O  Cu
  17   40 
Direct
    0.000000     0.000000     0.405997     1.032808
    0.000610     0.000610     0.004757     0.000000
    0.500610     0.000610     0.004757     0.000000
    0.000610     0.500610     0.004757     0.000000
    0.500610     0.500610     0.004757     0.000000
    0.250790     0.250800     0.107041     0.000000
    0.750790     0.250800     0.107041     0.000000
    0.250790     0.750800     0.107041     0.000000
    0.750790     0.750800     0.107041     0.000000
    0.000610     0.000610     0.209175     0.000000
    0.500610     0.000610     0.209175     0.000000
    0.000610     0.500610     0.209175     0.000000
    0.500610     0.500610     0.209175     0.000000
    0.250790     0.250800     0.311459     0.000000
    0.750790     0.250800     0.311459     0.000000
    0.250790     0.750800     0.311459     0.000000
    0.750790     0.750800     0.311459     0.000000
    0.132470     0.660660     0.384175     1.027508
    0.867530     0.339340     0.384175     1.027614
    0.339340     0.867530     0.384175     1.027614
    0.660660     0.132470     0.384175     1.027508
    0.428230     0.571770     0.477030     1.017970
    0.571770     0.428230     0.477030     1.017970
    0.250820     0.250820     0.455813     1.032194
    0.749180     0.749180     0.455813     1.032187
    0.125670     0.125670     0.055888     0.000000
    0.625670     0.125670     0.055888     0.000000
    0.375590     0.375590     0.055892     0.000000
    0.875590     0.375590     0.055892     0.000000
    0.125670     0.625670     0.055888     0.000000
    0.625670     0.625670     0.055888     0.000000
    0.375590     0.875590     0.055892     0.000000
    0.875590     0.875590     0.055892     0.000000
    0.375580     0.125690     0.158064     0.000000
    0.875580     0.125690     0.158064     0.000000
    0.125680     0.375590     0.158064     0.000000
    0.625680     0.375590     0.158064     0.000000
    0.375580     0.625690     0.158064     0.000000
    0.875580     0.625690     0.158064     0.000000
    0.125680     0.875590     0.158064     0.000000
    0.625680     0.875590     0.158064     0.000000
    0.125670     0.125670     0.260306     0.000000
    0.625670     0.125670     0.260306     0.000000
    0.375590     0.375590     0.260313     0.000000
    0.875590     0.375590     0.260313     0.000000
    0.125670     0.625670     0.260306     0.000000
    0.625670     0.625670     0.260306     0.000000
    0.375590     0.875590     0.260313     0.000000
    0.875590     0.875590     0.260313     0.000000
    0.375580     0.125690     0.362482     0.000000
    0.875580     0.125690     0.362482     0.000000
    0.125680     0.375590     0.362482     0.000000
    0.625680     0.375590     0.362482     0.000000
    0.375580     0.625690     0.362482     0.000000
    0.875580     0.625690     0.362482     0.000000
    0.125680     0.875590     0.362482     0.000000
    0.625680     0.875590     0.362482     0.000000
EA24    8.593  8.593 21.019 90.08 90.08 90.08 Sym.group:    0
1.0000
    8.593017     0.000000     0.000000
   -0.011983     8.593000     0.000000
   -0.029353    -0.029394    21.018959
   O  Cu
  17   40 
Direct
    0.500000     0.500000     0.401371     1.032140
    0.000610     0.000610     0.004757     0.000000
    0.500610     0.000610     0.004757     0.000000
    0.000610     0.500610     0.004757     0.000000
    0.500610     0.500610     0.004757     0.000000
    0.250790     0.250800     0.107041     0.000000
    0.750790     0.250800     0.107041     0.000000
    0.250790     0.750800     0.107041     0.000000
    0.750790     0.750800     0.107041     0.000000
    0.000610     0.000610     0.209175     0.000000
    0.500610     0.000610     0.209175     0.000000
    0.000610     0.500610     0.209175     0.000000
    0.500610     0.500610     0.209175     0.000000
    0.250790     0.250800     0.311459     0.000000
    0.750790     0.250800     0.311459     0.000000
    0.250790     0.750800     0.311459     0.000000
    0.750790     0.750800     0.311459     0.000000
    0.427300     0.940660     0.499923     1.022227
    0.572700     0.059340     0.499923     1.022221
    0.059340     0.427300     0.499923     1.022286
    0.940660     0.572700     0.499923     1.022302
    0.213090     0.183180     0.407417     1.022256
    0.786910     0.816820     0.407417     1.022259
    0.816820     0.213090     0.407417     1.022311
    0.183180     0.786910     0.407417     1.022320
    0.125670     0.125670     0.055888     0.000000
    0.625670     0.125670     0.055888     0.000000
    0.375590     0.375590     0.055892     0.000000
    0.875590     0.375590     0.055892     0.000000
    0.125670     0.625670     0.055888     0.000000
    0.625670     0.625670     0.055888     0.000000
    0.375590     0.875590     0.055892     0.000000
    0.875590     0.875590     0.055892     0.000000
    0.375580     0.125690     0.158064     0.000000
    0.875580     0.125690     0.158064     0.000000
    0.125680     0.375590     0.158064     0.000000
    0.625680     0.375590     0.158064     0.000000
    0.375580     0.625690     0.158064     0.000000
    0.875580     0.625690     0.158064     0.000000
    0.125680     0.875590     0.158064     0.000000
    0.625680     0.875590     0.158064     0.000000
    0.125670     0.125670     0.260306     0.000000
    0.625670     0.125670     0.260306     0.000000
    0.375590     0.375590     0.260313     0.000000
    0.875590     0.375590     0.260313     0.000000
    0.125670     0.625670     0.260306     0.000000
    0.625670     0.625670     0.260306     0.000000
    0.375590     0.875590     0.260313     0.000000
    0.875590     0.875590     0.260313     0.000000
    0.375580     0.125690     0.362482     0.000000
    0.875580     0.125690     0.362482     0.000000
    0.125680     0.375590     0.362482     0.000000
    0.625680     0.375590     0.362482     0.000000
    0.375580     0.625690     0.362482     0.000000
    0.875580     0.625690     0.362482     0.000000
    0.125680     0.875590     0.362482     0.000000
    0.625680     0.875590     0.362482     0.000000
EA25    8.593  8.593 21.019 90.08 90.08 90.08 Sym.group:    0
1.0000
    8.593017     0.000000     0.000000
   -0.011983     8.593000     0.000000
   -0.029353    -0.029394    21.018959
   O  Cu
  17   40 
Direct
    0.000000     0.000000     0.384755     1.033125
    0.000610     0.000610     0.004757     0.000000
    0.500610     0.000610     0.004757     0.000000
    0.000610     0.500610     0.004757     0.000000
    0.500610     0.500610     0.004757     0.000000
    0.250790     0.250800     0.107041     0.000000
    0.750790     0.250800     0.107041     0.000000
    0.250790     0.750800     0.107041     0.000000
    0.750790     0.750800     0.107041     0.000000
    0.000610     0.000610     0.209175     0.000000
    0.500610     0.000610     0.209175     0.000000
    0.000610     0.500610     0.209175     0.000000
    0.500610     0.500610     0.209175     0.000000
    0.250790     0.250800     0.311459     0.000000
    0.750790     0.250800     0.311459     0.000000
    0.250790     0.750800     0.311459     0.000000
    0.750790     0.750800     0.311459     0.000000
    0.392850     0.000000     0.398237     1.027956
    0.392850     0.392850     0.398237     1.032489
    1.000000     0.392850     0.398237     1.027956
    0.607150     0.000000     0.398237     1.027925
    0.607150     0.607150     0.398237     1.032490
    0.000000     0.607150     0.398237     1.027925
    0.333330     0.666670     0.421758     1.023111
    0.666670     0.333330     0.421758     1.023111
    0.125670     0.125670     0.055888     0.000000
    0.625670     0.125670     0.055888     0.000000
    0.375590     0.375590     0.055892     0.000000
    0.875590     0.375590     0.055892     0.000000
    0.125670     0.625670     0.055888     0.000000
    0.625670     0.625670     0.055888     0.000000
    0.375590     0.875590     0.055892     0.000000
    0.875590     0.875590     0.055892     0.000000
    0.375580     0.125690     0.158064     0.000000
    0.875580     0.125690     0.158064     0.000000
    0.125680     0.375590     0.158064     0.000000
    0.625680     0.375590     0.158064     0.000000
    0.375580     0.625690     0.158064     0.000000
    0.875580     0.625690     0.158064     0.000000
    0.125680     0.875590     0.158064     0.000000
    0.625680     0.875590     0.158064     0.000000
    0.125670     0.125670     0.260306     0.000000
    0.625670     0.125670     0.260306     0.000000
    0.375590     0.375590     0.260313     0.000000
    0.875590     0.375590     0.260313     0.000000
    0.125670     0.625670     0.260306     0.000000
    0.625670     0.625670     0.260306     0.000000
    0.375590     0.875590     0.260313     0.000000
    0.875590     0.875590     0.260313     0.000000
    0.375580     0.125690     0.362482     0.000000
    0.875580     0.125690     0.362482     0.000000
    0.125680     0.375590     0.362482     0.000000
    0.625680     0.375590     0.362482     0.000000
    0.375580     0.625690     0.362482     0.000000
    0.875580     0.625690     0.362482     0.000000
    0.125680     0.875590     0.362482     0.000000
    0.625680     0.875590     0.362482     0.000000
EA26    8.593  8.593 21.019 90.08 90.08 90.08 Sym.group:    0
1.0000
    8.593017     0.000000     0.000000
   -0.011983     8.593000     0.000000
   -0.029353    -0.029394    21.018959
   O  Cu
  17   40 
Direct
    0.500000     0.500000     0.414862     1.033226
    0.000610     0.000610     0.004757     0.000000
    0.500610     0.000610     0.004757     0.000000
    0.000610     0.500610     0.004757     0.000000
    0.500610     0.500610     0.004757     0.000000
    0.250790     0.250800     0.107041     0.000000
    0.750790     0.250800     0.107041     0.000000
    0.250790     0.750800     0.107041     0.000000
    0.750790     0.750800     0.107041     0.000000
    0.000610     0.000610     0.209175     0.000000
    0.500610     0.000610     0.209175     0.000000
    0.000610     0.500610     0.209175     0.000000
    0.500610     0.500610     0.209175     0.000000
    0.250790     0.250800     0.311459     0.000000
    0.750790     0.250800     0.311459     0.000000
    0.250790     0.750800     0.311459     0.000000
    0.750790     0.750800     0.311459     0.000000
    0.333470     0.136490     0.460830     1.031441
    0.666530     0.863510     0.460830     1.031440
    0.863510     0.333470     0.460830     1.031609
    0.136490     0.666530     0.460830     1.031609
    0.666530     0.136490     0.460830     1.031609
    0.333470     0.863510     0.460830     1.031609
    0.136490     0.333470     0.460830     1.031441
    0.863510     0.666530     0.460830     1.031440
    0.125670     0.125670     0.055888     0.000000
    0.625670     0.125670     0.055888     0.000000
    0.375590     0.375590     0.055892     0.000000
    0.875590     0.375590     0.055892     0.000000
    0.125670     0.625670     0.055888     0.000000
    0.625670     0.625670     0.055888     0.000000
    0.375590     0.875590     0.055892     0.000000
    0.875590     0.875590     0.055892     0.000000
    0.375580     0.125690     0.158064     0.000000
    0.875580     0.125690     0.158064     0.000000
    0.125680     0.375590     0.158064     0.000000
    0.625680     0.375590     0.158064     0.000000
    0.375580     0.625690     0.158064     0.000000
    0.875580     0.625690     0.158064     0.000000
    0.125680     0.875590     0.158064     0.000000
    0.625680     0.875590     0.158064     0.000000
    0.125670     0.125670     0.260306     0.000000
    0.625670     0.125670     0.260306     0.000000
    0.375590     0.375590     0.260313     0.000000
    0.875590     0.375590     0.260313     0.000000
    0.125670     0.625670     0.260306     0.000000
    0.625670     0.625670     0.260306     0.000000
    0.375590     0.875590     0.260313     0.000000
    0.875590     0.875590     0.260313     0.000000
    0.375580     0.125690     0.362482     0.000000
    0.875580     0.125690     0.362482     0.000000
    0.125680     0.375590     0.362482     0.000000
    0.625680     0.375590     0.362482     0.000000
    0.375580     0.625690     0.362482     0.000000
    0.875580     0.625690     0.362482     0.000000
    0.125680     0.875590     0.362482     0.000000
    0.625680     0.875590     0.362482     0.000000
EA27    8.593  8.593 21.019 90.08 90.08 90.08 Sym.group:    0
1.0000
    8.593017     0.000000     0.000000
   -0.011983     8.593000     0.000000
   -0.029353    -0.029394    21.018959
   O  Cu
  17   40 
Direct
    0.000000     0.500000     0.423393     1.030071
    0.000610     0.000610     0.004757     0.000000
    0.500610     0.000610     0.004757     0.000000
    0.000610     0.500610     0.004757     0.000000
    0.500610     0.500610     0.004757     0.000000
    0.250790     0.250800     0.107041     0.000000
    0.750790     0.250800     0.107041     0.000000
    0.250790     0.750800     0.107041     0.000000
    0.750790     0.750800     0.107041     0.000000
    0.000610     0.000610     0.209175     0.000000
    0.500610     0.000610     0.209175     0.000000
    0.000610     0.500610     0.209175     0.000000
    0.500610     0.500610     0.209175     0.000000
    0.250790     0.250800     0.311459     0.000000
    0.750790     0.250800     0.311459     0.000000
    0.250790     0.750800     0.311459     0.000000
    0.750790     0.750800     0.311459     0.000000
    0.782930     0.607010     0.452953     1.031608
    0.217070     0.392990     0.452953     1.031608
    0.042720     0.314880     0.454343     1.029090
    0.957280     0.685120     0.454343     1.029090
    0.606140     0.109050     0.461757     1.032926
    0.393860     0.890950     0.461757     1.032926
    0.993970     0.390690     0.388543     1.031985
    0.006030     0.609310     0.388543     1.031983
    0.125670     0.125670     0.055888     0.000000
    0.625670     0.125670     0.055888     0.000000
    0.375590     0.375590     0.055892     0.000000
    0.875590     0.375590     0.055892     0.000000
    0.125670     0.625670     0.055888     0.000000
    0.625670     0.625670     0.055888     0.000000
    0.375590     0.875590     0.055892     0.000000
    0.875590     0.875590     0.055892     0.000000
    0.375580     0.125690     0.158064     0.000000
    0.875580     0.125690     0.158064     0.000000
    0.125680     0.375590     0.158064     0.000000
    0.625680     0.375590     0.158064     0.000000
    0.375580     0.625690     0.158064     0.000000
    0.875580     0.625690     0.158064     0.000000
    0.125680     0.875590     0.158064     0.000000
    0.625680     0.875590     0.158064     0.000000
    0.125670     0.125670     0.260306     0.000000
    0.625670     0.125670     0.260306     0.000000
    0.375590     0.375590     0.260313     0.000000
    0.875590     0.375590     0.260313     0.000000
    0.125670     0.625670     0.260306     0.000000
    0.625670     0.625670     0.260306     0.000000
    0.375590     0.875590     0.260313     0.000000
    0.875590     0.875590     0.260313     0.000000
    0.375580     0.125690     0.362482     0.000000
    0.875580     0.125690     0.362482     0.000000
    0.125680     0.375590     0.362482     0.000000
    0.625680     0.375590     0.362482     0.000000
    0.375580     0.625690     0.362482     0.000000
    0.875580     0.625690     0.362482     0.000000
    0.125680     0.875590     0.362482     0.000000
    0.625680     0.875590     0.362482     0.000000
EA28    8.593  8.593 21.019 90.08 90.08 90.08 Sym.group:    0
1.0000
    8.593017     0.000000     0.000000
   -0.011983     8.593000     0.000000
   -0.029353    -0.029394    21.018959
   O  Cu
  17   40 
Direct
    0.000000     1.000000     0.399346     1.020882
    0.000610     0.000610     0.004757     0.000000
    0.500610     0.000610     0.004757     0.000000
    0.000610     0.500610     0.004757     0.000000
    0.500610     0.500610     0.004757     0.000000
    0.250790     0.250800     0.107041     0.000000
    0.750790     0.250800     0.107041     0.000000
    0.250790     0.750800     0.107041     0.000000
    0.750790     0.750800     0.107041     0.000000
    0.000610     0.000610     0.209175     0.000000
    0.500610     0.000610     0.209175     0.000000
    0.000610     0.500610     0.209175     0.000000
    0.500610     0.500610     0.209175     0.000000
    0.250790     0.250800     0.311459     0.000000
    0.750790     0.250800     0.311459     0.000000
    0.250790     0.750800     0.311459     0.000000
    0.750790     0.750800     0.311459     0.000000
    0.096920     0.177500     0.411737     1.023993
    0.903080     0.822500     0.411737     1.023900
    0.822500     0.096920     0.411737     1.024046
    0.177500     0.903080     0.411737     1.023828
    0.500000     0.500000     0.505119     1.030546
    0.000000     0.500000     0.490326     1.023721
    0.500000     0.000000     0.490326     1.023718
    0.000000     0.000000     0.469347     1.031400
    0.125670     0.125670     0.055888     0.000000
    0.625670     0.125670     0.055888     0.000000
    0.375590     0.375590     0.055892     0.000000
    0.875590     0.375590     0.055892     0.000000
    0.125670     0.625670     0.055888     0.000000
    0.625670     0.625670     0.055888     0.000000
    0.375590     0.875590     0.055892     0.000000
    0.875590     0.875590     0.055892     0.000000
    0.375580     0.125690     0.158064     0.000000
    0.875580     0.125690     0.158064     0.000000
    0.125680     0.375590     0.158064     0.000000
    0.625680     0.375590     0.158064     0.000000
    0.375580     0.625690     0.158064     0.000000
    0.875580     0.625690     0.158064     0.000000
    0.125680     0.875590     0.158064     0.000000
    0.625680     0.875590     0.158064     0.000000
    0.125670     0.125670     0.260306     0.000000
    0.625670     0.125670     0.260306     0.000000
    0.375590     0.375590     0.260313     0.000000
    0.875590     0.375590     0.260313     0.000000
    0.125670     0.625670     0.260306     0.000000
    0.625670     0.625670     0.260306     0.000000
    0.375590     0.875590     0.260313     0.000000
    0.875590     0.875590     0.260313     0.000000
    0.375580     0.125690     0.362482     0.000000
    0.875580     0.125690     0.362482     0.000000
    0.125680     0.375590     0.362482     0.000000
    0.625680     0.375590     0.362482     0.000000
    0.375580     0.625690     0.362482     0.000000
    0.875580     0.625690     0.362482     0.000000
    0.125680     0.875590     0.362482     0.000000
    0.625680     0.875590     0.362482     0.000000
EA29    8.593  8.593 21.019 90.08 90.08 90.08 Sym.group:    0
1.0000
    8.593017     0.000000     0.000000
   -0.011983     8.593000     0.000000
   -0.029353    -0.029394    21.018959
   O  Cu
  17   40 
Direct
    0.666670     0.333330     0.460628     1.025358
    0.000610     0.000610     0.004757     0.000000
    0.500610     0.000610     0.004757     0.000000
    0.000610     0.500610     0.004757     0.000000
    0.500610     0.500610     0.004757     0.000000
    0.250790     0.250800     0.107041     0.000000
    0.750790     0.250800     0.107041     0.000000
    0.250790     0.750800     0.107041     0.000000
    0.750790     0.750800     0.107041     0.000000
    0.000610     0.000610     0.209175     0.000000
    0.500610     0.000610     0.209175     0.000000
    0.000610     0.500610     0.209175     0.000000
    0.500610     0.500610     0.209175     0.000000
    0.250790     0.250800     0.311459     0.000000
    0.750790     0.250800     0.311459     0.000000
    0.250790     0.750800     0.311459     0.000000
    0.750790     0.750800     0.311459     0.000000
    0.587880     0.674680     0.478199     1.032238
    0.325320     0.913200     0.478199     1.025417
    0.086800     0.412120     0.478199     1.022646
    0.953760     0.142730     0.488675     1.024731
    0.857270     0.811030     0.488675     1.023998
    0.188970     0.046240     0.488675     1.023452
    0.000000     1.000000     0.457659     1.019728
    0.333330     0.666670     0.482305     1.033226
    0.125670     0.125670     0.055888     0.000000
    0.625670     0.125670     0.055888     0.000000
    0.375590     0.375590     0.055892     0.000000
    0.875590     0.375590     0.055892     0.000000
    0.125670     0.625670     0.055888     0.000000
    0.625670     0.625670     0.055888     0.000000
    0.375590     0.875590     0.055892     0.000000
    0.875590     0.875590     0.055892     0.000000
    0.375580     0.125690     0.158064     0.000000
    0.875580     0.125690     0.158064     0.000000
    0.125680     0.375590     0.158064     0.000000
    0.625680     0.375590     0.158064     0.000000
    0.375580     0.625690     0.158064     0.000000
    0.875580     0.625690     0.158064     0.000000
    0.125680     0.875590     0.158064     0.000000
    0.625680     0.875590     0.158064     0.000000
    0.125670     0.125670     0.260306     0.000000
    0.625670     0.125670     0.260306     0.000000
    0.375590     0.375590     0.260313     0.000000
    0.875590     0.375590     0.260313     0.000000
    0.125670     0.625670     0.260306     0.000000
    0.625670     0.625670     0.260306     0.000000
    0.375590     0.875590     0.260313     0.000000
    0.875590     0.875590     0.260313     0.000000
    0.375580     0.125690     0.362482     0.000000
    0.875580     0.125690     0.362482     0.000000
    0.125680     0.375590     0.362482     0.000000
    0.625680     0.375590     0.362482     0.000000
    0.375580     0.625690     0.362482     0.000000
    0.875580     0.625690     0.362482     0.000000
    0.125680     0.875590     0.362482     0.000000
    0.625680     0.875590     0.362482     0.000000
EA30    8.593  8.593 21.019 90.08 90.08 90.08 Sym.group:    0
1.0000
    8.593017     0.000000     0.000000
   -0.011983     8.593000     0.000000
   -0.029353    -0.029394    21.018959
   O  Cu
  17   40 
Direct
    0.000000     0.000000     0.503420     1.024337
    0.000610     0.000610     0.004757     0.000000
    0.500610     0.000610     0.004757     0.000000
    0.000610     0.500610     0.004757     0.000000
    0.500610     0.500610     0.004757     0.000000
    0.250790     0.250800     0.107041     0.000000
    0.750790     0.250800     0.107041     0.000000
    0.250790     0.750800     0.107041     0.000000
    0.750790     0.750800     0.107041     0.000000
    0.000610     0.000610     0.209175     0.000000
    0.500610     0.000610     0.209175     0.000000
    0.000610     0.500610     0.209175     0.000000
    0.500610     0.500610     0.209175     0.000000
    0.250790     0.250800     0.311459     0.000000
    0.750790     0.250800     0.311459     0.000000
    0.250790     0.750800     0.311459     0.000000
    0.750790     0.750800     0.311459     0.000000
    0.551030     1.000000     0.500446     1.032600
    0.000000     0.551030     0.500446     1.032600
    0.448970     0.448970     0.500446     1.029487
    0.723040     0.000000     0.393284     1.028867
    0.000000     0.723040     0.393284     1.028867
    0.276960     0.276960     0.393284     1.033186
    0.333330     0.666670     0.520278     1.026650
    0.666670     0.333330     0.520278     1.026650
    0.125670     0.125670     0.055888     0.000000
    0.625670     0.125670     0.055888     0.000000
    0.375590     0.375590     0.055892     0.000000
    0.875590     0.375590     0.055892     0.000000
    0.125670     0.625670     0.055888     0.000000
    0.625670     0.625670     0.055888     0.000000
    0.375590     0.875590     0.055892     0.000000
    0.875590     0.875590     0.055892     0.000000
    0.375580     0.125690     0.158064     0.000000
    0.875580     0.125690     0.158064     0.000000
    0.125680     0.375590     0.158064     0.000000
    0.625680     0.375590     0.158064     0.000000
    0.375580     0.625690     0.158064     0.000000
    0.875580     0.625690     0.158064     0.000000
    0.125680     0.875590     0.158064     0.000000
    0.625680     0.875590     0.158064     0.000000
    0.125670     0.125670     0.260306     0.000000
    0.625670     0.125670     0.260306     0.000000
    0.375590     0.375590     0.260313     0.000000
    0.875590     0.375590     0.260313     0.000000
    0.125670     0.625670     0.260306     0.000000
    0.625670     0.625670     0.260306     0.000000
    0.375590     0.875590     0.260313     0.000000
    0.875590     0.875590     0.260313     0.000000
    0.375580     0.125690     0.362482     0.000000
    0.875580     0.125690     0.362482     0.000000
    0.125680     0.375590     0.362482     0.000000
    0.625680     0.375590     0.362482     0.000000
    0.375580     0.625690     0.362482     0.000000
    0.875580     0.625690     0.362482     0.000000
    0.125680     0.875590     0.362482     0.000000
    0.625680     0.875590     0.362482     0.000000
EA31    8.593  8.593 21.019 90.08 90.08 90.08 Sym.group:    0
1.0000
    8.593017     0.000000     0.000000
   -0.011983     8.593000     0.000000
   -0.029353    -0.029394    21.018959
   O  Cu
  17   40 
Direct
    0.000000     1.000000     0.427499     1.033151
    0.000610     0.000610     0.004757     0.000000
    0.500610     0.000610     0.004757     0.000000
    0.000610     0.500610     0.004757     0.000000
    0.500610     0.500610     0.004757     0.000000
    0.250790     0.250800     0.107041     0.000000
    0.750790     0.250800     0.107041     0.000000
    0.250790     0.750800     0.107041     0.000000
    0.750790     0.750800     0.107041     0.000000
    0.000610     0.000610     0.209175     0.000000
    0.500610     0.000610     0.209175     0.000000
    0.000610     0.500610     0.209175     0.000000
    0.500610     0.500610     0.209175     0.000000
    0.250790     0.250800     0.311459     0.000000
    0.750790     0.250800     0.311459     0.000000
    0.250790     0.750800     0.311459     0.000000
    0.750790     0.750800     0.311459     0.000000
    0.696180     0.792210     0.496242     1.023692
    0.303820     0.207790     0.496242     1.023691
    0.207790     0.696180     0.496242     1.023696
    0.792210     0.303820     0.496242     1.023696
    0.303820     0.792210     0.496242     1.023696
    0.696180     0.207790     0.496242     1.023696
    0.792210     0.696180     0.496242     1.023692
    0.207790     0.303820     0.496242     1.023691
    0.125670     0.125670     0.055888     0.000000
    0.625670     0.125670     0.055888     0.000000
    0.375590     0.375590     0.055892     0.000000
    0.875590     0.375590     0.055892     0.000000
    0.125670     0.625670     0.055888     0.000000
    0.625670     0.625670     0.055888     0.000000
    0.375590     0.875590     0.055892     0.000000
    0.875590     0.875590     0.055892     0.000000
    0.375580     0.125690     0.158064     0.000000
    0.875580     0.125690     0.158064     0.000000
    0.125680     0.375590     0.158064     0.000000
    0.625680     0.375590     0.158064     0.000000
    0.375580     0.625690     0.158064     0.000000
    0.875580     0.625690     0.158064     0.000000
    0.125680     0.875590     0.158064     0.000000
    0.625680     0.875590     0.158064     0.000000
    0.125670     0.125670     0.260306     0.000000
    0.625670     0.125670     0.260306     0.000000
    0.375590     0.375590     0.260313     0.000000
    0.875590     0.375590     0.260313     0.000000
    0.125670     0.625670     0.260306     0.000000
    0.625670     0.625670     0.260306     0.000000
    0.375590     0.875590     0.260313     0.000000
    0.875590     0.875590     0.260313     0.000000
    0.375580     0.125690     0.362482     0.000000
    0.875580     0.125690     0.362482     0.000000
    0.125680     0.375590     0.362482     0.000000
    0.625680     0.375590     0.362482     0.000000
    0.375580     0.625690     0.362482     0.000000
    0.875580     0.625690     0.362482     0.000000
    0.125680     0.875590     0.362482     0.000000
    0.625680     0.875590     0.362482     0.000000
EA32    8.593  8.593 21.019 90.08 90.08 90.08 Sym.group:    0
1.0000
    8.593017     0.000000     0.000000
   -0.011983     8.593000     0.000000
   -0.029353    -0.029394    21.018959
   O  Cu
  17   40 
Direct
    0.000000     0.000000     0.500790     1.029630
    0.000610     0.000610     0.004757     0.000000
    0.500610     0.000610     0.004757     0.000000
    0.000610     0.500610     0.004757     0.000000
    0.500610     0.500610     0.004757     0.000000
    0.250790     0.250800     0.107041     0.000000
    0.750790     0.250800     0.107041     0.000000
    0.250790     0.750800     0.107041     0.000000
    0.750790     0.750800     0.107041     0.000000
    0.000610     0.000610     0.209175     0.000000
    0.500610     0.000610     0.209175     0.000000
    0.000610     0.500610     0.209175     0.000000
    0.500610     0.500610     0.209175     0.000000
    0.250790     0.250800     0.311459     0.000000
    0.750790     0.250800     0.311459     0.000000
    0.250790     0.750800     0.311459     0.000000
    0.750790     0.750800     0.311459     0.000000
    0.592670     0.780750     0.438079     1.018362
    0.219250     0.811920     0.438079     1.019882
    0.188080     0.407330     0.438079     1.029678
    0.407330     0.188080     0.438079     1.029678
    0.811920     0.219250     0.438079     1.019882
    0.780750     0.592670     0.438079     1.018362
    0.333330     0.666670     0.410296     1.019175
    0.666670     0.333330     0.410296     1.019174
    0.125670     0.125670     0.055888     0.000000
    0.625670     0.125670     0.055888     0.000000
    0.375590     0.375590     0.055892     0.000000
    0.875590     0.375590     0.055892     0.000000
    0.125670     0.625670     0.055888     0.000000
    0.625670     0.625670     0.055888     0.000000
    0.375590     0.875590     0.055892     0.000000
    0.875590     0.875590     0.055892     0.000000
    0.375580     0.125690     0.158064     0.000000
    0.875580     0.125690     0.158064     0.000000
    0.125680     0.375590     0.158064     0.000000
    0.625680     0.375590     0.158064     0.000000
    0.375580     0.625690     0.158064     0.000000
    0.875580     0.625690     0.158064     0.000000
    0.125680     0.875590     0.158064     0.000000
    0.625680     0.875590     0.158064     0.000000
    0.125670     0.125670     0.260306     0.000000
    0.625670     0.125670     0.260306     0.000000
    0.375590     0.375590     0.260313     0.000000
    0.875590     0.375590     0.260313     0.000000
    0.125670     0.625670     0.260306     0.000000
    0.625670     0.625670     0.260306     0.000000
    0.375590     0.875590     0.260313     0.000000
    0.875590     0.875590     0.260313     0.000000
    0.375580     0.125690     0.362482     0.000000
    0.875580     0.125690     0.362482     0.000000
    0.125680     0.375590     0.362482     0.000000
    0.625680     0.375590     0.362482     0.000000
    0.375580     0.625690     0.362482     0.000000
    0.875580     0.625690     0.362482     0.000000
    0.125680     0.875590     0.362482     0.000000
    0.625680     0.875590     0.362482     0.000000
EA33    8.593  8.593 21.019 90.08 90.08 90.08 Sym.group:    0
1.0000
    8.593017     0.000000     0.000000
   -0.011983     8.593000     0.000000
   -0.029353    -0.029394    21.018959
   O  Cu
  17   40 
Direct
    0.763210     0.613190     0.436721     1.026901
    0.000610     0.000610     0.004757     0.000000
    0.500610     0.000610     0.004757     0.000000
    0.000610     0.500610     0.004757     0.000000
    0.500610     0.500610     0.004757     0.000000
    0.250790     0.250800     0.107041     0.000000
    0.750790     0.250800     0.107041     0.000000
    0.250790     0.750800     0.107041     0.000000
    0.750790     0.750800     0.107041     0.000000
    0.000610     0.000610     0.209175     0.000000
    0.500610     0.000610     0.209175     0.000000
    0.000610     0.500610     0.209175     0.000000
    0.500610     0.500610     0.209175     0.000000
    0.250790     0.250800     0.311459     0.000000
    0.750790     0.250800     0.311459     0.000000
    0.250790     0.750800     0.311459     0.000000
    0.750790     0.750800     0.311459     0.000000
    0.951860     0.110360     0.404250     1.027437
    0.951860     0.840690     0.508489     1.027613
    0.425200     0.036260     0.502757     1.030249
    0.425200     0.150520     0.519065     1.028356
    0.364340     0.691050     0.409608     1.027363
    0.364340     0.803150     0.425608     1.023063
    0.731920     0.947620     0.388988     1.025843
    0.529630     0.046660     0.517580     1.023110
    0.125670     0.125670     0.055888     0.000000
    0.625670     0.125670     0.055888     0.000000
    0.375590     0.375590     0.055892     0.000000
    0.875590     0.375590     0.055892     0.000000
    0.125670     0.625670     0.055888     0.000000
    0.625670     0.625670     0.055888     0.000000
    0.375590     0.875590     0.055892     0.000000
    0.875590     0.875590     0.055892     0.000000
    0.375580     0.125690     0.158064     0.000000
    0.875580     0.125690     0.158064     0.000000
    0.125680     0.375590     0.158064     0.000000
    0.625680     0.375590     0.158064     0.000000
    0.375580     0.625690     0.158064     0.000000
    0.875580     0.625690     0.158064     0.000000
    0.125680     0.875590     0.158064     0.000000
    0.625680     0.875590     0.158064     0.000000
    0.125670     0.125670     0.260306     0.000000
    0.625670     0.125670     0.260306     0.000000
    0.375590     0.375590     0.260313     0.000000
    0.875590     0.375590     0.260313     0.000000
    0.125670     0.625670     0.260306     0.000000
    0.625670     0.625670     0.260306     0.000000
    0.375590     0.875590     0.260313     0.000000
    0.875590     0.875590     0.260313     0.000000
    0.375580     0.125690     0.362482     0.000000
    0.875580     0.125690     0.362482     0.000000
    0.125680     0.375590     0.362482     0.000000
    0.625680     0.375590     0.362482     0.000000
    0.375580     0.625690     0.362482     0.000000
    0.875580     0.625690     0.362482     0.000000
    0.125680     0.875590     0.362482     0.000000
    0.625680     0.875590     0.362482     0.000000
EA34    8.593  8.593 21.019 90.08 90.08 90.08 Sym.group:    0
1.0000
    8.593017     0.000000     0.000000
   -0.011983     8.593000     0.000000
   -0.029353    -0.029394    21.018959
   O  Cu
  17   40 
Direct
    0.000000     1.000000     0.426189     1.028175
    0.000610     0.000610     0.004757     0.000000
    0.500610     0.000610     0.004757     0.000000
    0.000610     0.500610     0.004757     0.000000
    0.500610     0.500610     0.004757     0.000000
    0.250790     0.250800     0.107041     0.000000
    0.750790     0.250800     0.107041     0.000000
    0.250790     0.750800     0.107041     0.000000
    0.750790     0.750800     0.107041     0.000000
    0.000610     0.000610     0.209175     0.000000
    0.500610     0.000610     0.209175     0.000000
    0.000610     0.500610     0.209175     0.000000
    0.500610     0.500610     0.209175     0.000000
    0.250790     0.250800     0.311459     0.000000
    0.750790     0.250800     0.311459     0.000000
    0.250790     0.750800     0.311459     0.000000
    0.750790     0.750800     0.311459     0.000000
    0.793400     0.335290     0.449735     1.022021
    0.664710     0.458110     0.449735     1.022230
    0.541890     0.206600     0.449735     1.015321
    0.221250     0.143350     0.500046     1.027231
    0.856650     0.077900     0.500046     1.028330
    0.922100     0.778750     0.500046     1.032590
    0.333330     0.666670     0.436454     1.033205
    0.333330     0.666670     0.516150     1.033226
    0.125670     0.125670     0.055888     0.000000
    0.625670     0.125670     0.055888     0.000000
    0.375590     0.375590     0.055892     0.000000
    0.875590     0.375590     0.055892     0.000000
    0.125670     0.625670     0.055888     0.000000
    0.625670     0.625670     0.055888     0.000000
    0.375590     0.875590     0.055892     0.000000
    0.875590     0.875590     0.055892     0.000000
    0.375580     0.125690     0.158064     0.000000
    0.875580     0.125690     0.158064     0.000000
    0.125680     0.375590     0.158064     0.000000
    0.625680     0.375590     0.158064     0.000000
    0.375580     0.625690     0.158064     0.000000
    0.875580     0.625690     0.158064     0.000000
    0.125680     0.875590     0.158064     0.000000
    0.625680     0.875590     0.158064     0.000000
    0.125670     0.125670     0.260306     0.000000
    0.625670     0.125670     0.260306     0.000000
    0.375590     0.375590     0.260313     0.000000
    0.875590     0.375590     0.260313     0.000000
    0.125670     0.625670     0.260306     0.000000
    0.625670     0.625670     0.260306     0.000000
    0.375590     0.875590     0.260313     0.000000
    0.875590     0.875590     0.260313     0.000000
    0.375580     0.125690     0.362482     0.000000
    0.875580     0.125690     0.362482     0.000000
    0.125680     0.375590     0.362482     0.000000
    0.625680     0.375590     0.362482     0.000000
    0.375580     0.625690     0.362482     0.000000
    0.875580     0.625690     0.362482     0.000000
    0.125680     0.875590     0.362482     0.000000
    0.625680     0.875590     0.362482     0.000000
EA35    8.593  8.593 21.019 90.08 90.08 90.08 Sym.group:    0
1.0000
    8.593017     0.000000     0.000000
   -0.011983     8.593000     0.000000
   -0.029353    -0.029394    21.018959
   O  Cu
  17   40 
Direct
    0.000000     0.000000     0.506228     1.031096
    0.000610     0.000610     0.004757     0.000000
    0.500610     0.000610     0.004757     0.000000
    0.000610     0.500610     0.004757     0.000000
    0.500610     0.500610     0.004757     0.000000
    0.250790     0.250800     0.107041     0.000000
    0.750790     0.250800     0.107041     0.000000
    0.250790     0.750800     0.107041     0.000000
    0.750790     0.750800     0.107041     0.000000
    0.000610     0.000610     0.209175     0.000000
    0.500610     0.000610     0.209175     0.000000
    0.000610     0.500610     0.209175     0.000000
    0.500610     0.500610     0.209175     0.000000
    0.250790     0.250800     0.311459     0.000000
    0.750790     0.250800     0.311459     0.000000
    0.250790     0.750800     0.311459     0.000000
    0.750790     0.750800     0.311459     0.000000
    0.116600     0.538050     0.468510     1.027104
    0.883400     0.461950     0.468510     1.027084
    0.852570     0.696740     0.427680     1.032089
    0.147430     0.303260     0.427680     1.032097
    0.817370     0.892540     0.505159     1.027777
    0.182630     0.107460     0.505159     1.027797
    0.658700     0.699250     0.476316     1.033167
    0.341300     0.300750     0.476316     1.033167
    0.125670     0.125670     0.055888     0.000000
    0.625670     0.125670     0.055888     0.000000
    0.375590     0.375590     0.055892     0.000000
    0.875590     0.375590     0.055892     0.000000
    0.125670     0.625670     0.055888     0.000000
    0.625670     0.625670     0.055888     0.000000
    0.375590     0.875590     0.055892     0.000000
    0.875590     0.875590     0.055892     0.000000
    0.375580     0.125690     0.158064     0.000000
    0.875580     0.125690     0.158064     0.000000
    0.125680     0.375590     0.158064     0.000000
    0.625680     0.375590     0.158064     0.000000
    0.375580     0.625690     0.158064     0.000000
    0.875580     0.625690     0.158064     0.000000
    0.125680     0.875590     0.158064     0.000000
    0.625680     0.875590     0.158064     0.000000
    0.125670     0.125670     0.260306     0.000000
    0.625670     0.125670     0.260306     0.000000
    0.375590     0.375590     0.260313     0.000000
    0.875590     0.375590     0.260313     0.000000
    0.125670     0.625670     0.260306     0.000000
    0.625670     0.625670     0.260306     0.000000
    0.375590     0.875590     0.260313     0.000000
    0.875590     0.875590     0.260313     0.000000
    0.375580     0.125690     0.362482     0.000000
    0.875580     0.125690     0.362482     0.000000
    0.125680     0.375590     0.362482     0.000000
    0.625680     0.375590     0.362482     0.000000
    0.375580     0.625690     0.362482     0.000000
    0.875580     0.625690     0.362482     0.000000
    0.125680     0.875590     0.362482     0.000000
    0.625680     0.875590     0.362482     0.000000
EA36    8.593  8.593 21.019 90.08 90.08 90.08 Sym.group:    0
1.0000
    8.593017     0.000000     0.000000
   -0.011983     8.593000     0.000000
   -0.029353    -0.029394    21.018959
   O  Cu
  17   40 
Direct
    0.666670     0.333330     0.416071     1.025023
    0.000610     0.000610     0.004757     0.000000
    0.500610     0.000610     0.004757     0.000000
    0.000610     0.500610     0.004757     0.000000
    0.500610     0.500610     0.004757     0.000000
    0.250790     0.250800     0.107041     0.000000
    0.750790     0.250800     0.107041     0.000000
    0.250790     0.750800     0.107041     0.000000
    0.750790     0.750800     0.107041     0.000000
    0.000610     0.000610     0.209175     0.000000
    0.500610     0.000610     0.209175     0.000000
    0.000610     0.500610     0.209175     0.000000
    0.500610     0.500610     0.209175     0.000000
    0.250790     0.250800     0.311459     0.000000
    0.750790     0.250800     0.311459     0.000000
    0.250790     0.750800     0.311459     0.000000
    0.750790     0.750800     0.311459     0.000000
    0.521960     0.386930     0.381987     1.022704
    0.613070     0.135030     0.381987     1.031184
    0.864970     0.478040     0.381987     1.023046
    0.802760     0.067450     0.514455     1.024332
    0.932550     0.735310     0.514455     1.026281
    0.264690     0.197240     0.514455     1.029381
    1.000000     1.000000     0.398908     1.030133
    0.333330     0.666670     0.523896     1.028337
    0.125670     0.125670     0.055888     0.000000
    0.625670     0.125670     0.055888     0.000000
    0.375590     0.375590     0.055892     0.000000
    0.875590     0.375590     0.055892     0.000000
    0.125670     0.625670     0.055888     0.000000
    0.625670     0.625670     0.055888     0.000000
    0.375590     0.875590     0.055892     0.000000
    0.875590     0.875590     0.055892     0.000000
    0.375580     0.125690     0.158064     0.000000
    0.875580     0.125690     0.158064     0.000000
    0.125680     0.375590     0.158064     0.000000
    0.625680     0.375590     0.158064     0.000000
    0.375580     0.625690     0.158064     0.000000
    0.875580     0.625690     0.158064     0.000000
    0.125680     0.875590     0.158064     0.000000
    0.625680     0.875590     0.158064     0.000000
    0.125670     0.125670     0.260306     0.000000
    0.625670     0.125670     0.260306     0.000000
    0.375590     0.375590     0.260313     0.000000
    0.875590     0.375590     0.260313     0.000000
    0.125670     0.625670     0.260306     0.000000
    0.625670     0.625670     0.260306     0.000000
    0.375590     0.875590     0.260313     0.000000
    0.875590     0.875590     0.260313     0.000000
    0.375580     0.125690     0.362482     0.000000
    0.875580     0.125690     0.362482     0.000000
    0.125680     0.375590     0.362482     0.000000
    0.625680     0.375590     0.362482     0.000000
    0.375580     0.625690     0.362482     0.000000
    0.875580     0.625690     0.362482     0.000000
    0.125680     0.875590     0.362482     0.000000
    0.625680     0.875590     0.362482     0.000000
EA37    8.593  8.593 21.019 90.08 90.08 90.08 Sym.group:    0
1.0000
    8.593017     0.000000     0.000000
   -0.011983     8.593000     0.000000
   -0.029353    -0.029394    21.018959
   O  Cu
  17   40 
Direct
    0.500000     0.500000     0.476560     1.033198
    0.000610     0.000610     0.004757     0.000000
    0.500610     0.000610     0.004757     0.000000
    0.000610     0.500610     0.004757     0.000000
    0.500610     0.500610     0.004757     0.000000
    0.250790     0.250800     0.107041     0.000000
    0.750790     0.250800     0.107041     0.000000
    0.250790     0.750800     0.107041     0.000000
    0.750790     0.750800     0.107041     0.000000
    0.000610     0.000610     0.209175     0.000000
    0.500610     0.000610     0.209175     0.000000
    0.000610     0.500610     0.209175     0.000000
    0.500610     0.500610     0.209175     0.000000
    0.250790     0.250800     0.311459     0.000000
    0.750790     0.250800     0.311459     0.000000
    0.250790     0.750800     0.311459     0.000000
    0.750790     0.750800     0.311459     0.000000
    0.783130     1.000000     0.395973     1.019803
    0.216870     1.000000     0.395973     1.019622
    1.000000     0.783130     0.395973     1.019803
    0.000000     0.216870     0.395973     1.019622
    0.141890     0.500000     0.503248     1.025956
    0.858110     0.500000     0.503248     1.026195
    0.500000     0.141890     0.503248     1.025956
    0.500000     0.858110     0.503248     1.026195
    0.125670     0.125670     0.055888     0.000000
    0.625670     0.125670     0.055888     0.000000
    0.375590     0.375590     0.055892     0.000000
    0.875590     0.375590     0.055892     0.000000
    0.125670     0.625670     0.055888     0.000000
    0.625670     0.625670     0.055888     0.000000
    0.375590     0.875590     0.055892     0.000000
    0.875590     0.875590     0.055892     0.000000
    0.375580     0.125690     0.158064     0.000000
    0.875580     0.125690     0.158064     0.000000
    0.125680     0.375590     0.158064     0.000000
    0.625680     0.375590     0.158064     0.000000
    0.375580     0.625690     0.158064     0.000000
    0.875580     0.625690     0.158064     0.000000
    0.125680     0.875590     0.158064     0.000000
    0.625680     0.875590     0.158064     0.000000
    0.125670     0.125670     0.260306     0.000000
    0.625670     0.125670     0.260306     0.000000
    0.375590     0.375590     0.260313     0.000000
    0.875590     0.375590     0.260313     0.000000
    0.125670     0.625670     0.260306     0.000000
    0.625670     0.625670     0.260306     0.000000
    0.375590     0.875590     0.260313     0.000000
    0.875590     0.875590     0.260313     0.000000
    0.375580     0.125690     0.362482     0.000000
    0.875580     0.125690     0.362482     0.000000
    0.125680     0.375590     0.362482     0.000000
    0.625680     0.375590     0.362482     0.000000
    0.375580     0.625690     0.362482     0.000000
    0.875580     0.625690     0.362482     0.000000
    0.125680     0.875590     0.362482     0.000000
    0.625680     0.875590     0.362482     0.000000
EA38    8.593  8.593 21.019 90.08 90.08 90.08 Sym.group:    0
1.0000
    8.593017     0.000000     0.000000
   -0.011983     8.593000     0.000000
   -0.029353    -0.029394    21.018959
   O  Cu
  17   40 
Direct
    0.000000     0.000000     0.458978     1.026696
    0.000610     0.000610     0.004757     0.000000
    0.500610     0.000610     0.004757     0.000000
    0.000610     0.500610     0.004757     0.000000
    0.500610     0.500610     0.004757     0.000000
    0.250790     0.250800     0.107041     0.000000
    0.750790     0.250800     0.107041     0.000000
    0.250790     0.750800     0.107041     0.000000
    0.750790     0.750800     0.107041     0.000000
    0.000610     0.000610     0.209175     0.000000
    0.500610     0.000610     0.209175     0.000000
    0.000610     0.500610     0.209175     0.000000
    0.500610     0.500610     0.209175     0.000000
    0.250790     0.250800     0.311459     0.000000
    0.750790     0.250800     0.311459     0.000000
    0.250790     0.750800     0.311459     0.000000
    0.750790     0.750800     0.311459     0.000000
    0.576620     0.424760     0.458053     1.026169
    0.423380     0.575240     0.458053     1.026169
    0.249910     0.254270     0.437012     1.028535
    0.750090     0.745730     0.437012     1.028632
    0.790980     0.862040     0.408500     1.029602
    0.209020     0.137960     0.408500     1.029636
    0.900710     0.977440     0.393503     1.028041
    0.099290     0.022560     0.393503     1.027756
    0.125670     0.125670     0.055888     0.000000
    0.625670     0.125670     0.055888     0.000000
    0.375590     0.375590     0.055892     0.000000
    0.875590     0.375590     0.055892     0.000000
    0.125670     0.625670     0.055888     0.000000
    0.625670     0.625670     0.055888     0.000000
    0.375590     0.875590     0.055892     0.000000
    0.875590     0.875590     0.055892     0.000000
    0.375580     0.125690     0.158064     0.000000
    0.875580     0.125690     0.158064     0.000000
    0.125680     0.375590     0.158064     0.000000
    0.625680     0.375590     0.158064     0.000000
    0.375580     0.625690     0.158064     0.000000
    0.875580     0.625690     0.158064     0.000000
    0.125680     0.875590     0.158064     0.000000
    0.625680     0.875590     0.158064     0.000000
    0.125670     0.125670     0.260306     0.000000
    0.625670     0.125670     0.260306     0.000000
    0.375590     0.375590     0.260313     0.000000
    0.875590     0.375590     0.260313     0.000000
    0.125670     0.625670     0.260306     0.000000
    0.625670     0.625670     0.260306     0.000000
    0.375590     0.875590     0.260313     0.000000
    0.875590     0.875590     0.260313     0.000000
    0.375580     0.125690     0.362482     0.000000
    0.875580     0.125690     0.362482     0.000000
    0.125680     0.375590     0.362482     0.000000
    0.625680     0.375590     0.362482     0.000000
    0.375580     0.625690     0.362482     0.000000
    0.875580     0.625690     0.362482     0.000000
    0.125680     0.875590     0.362482     0.000000
    0.625680     0.875590     0.362482     0.000000
EA39    8.593  8.593 21.019 90.08 90.08 90.08 Sym.group:    0
1.0000
    8.593017     0.000000     0.000000
   -0.011983     8.593000     0.000000
   -0.029353    -0.029394    21.018959
   O  Cu
  17   40 
Direct
    0.666670     0.333330     0.512189     1.030530
    0.000610     0.000610     0.004757     0.000000
    0.500610     0.000610     0.004757     0.000000
    0.000610     0.500610     0.004757     0.000000
    0.500610     0.500610     0.004757     0.000000
    0.250790     0.250800     0.107041     0.000000
    0.750790     0.250800     0.107041     0.000000
    0.250790     0.750800     0.107041     0.000000
    0.750790     0.750800     0.107041     0.000000
    0.000610     0.000610     0.209175     0.000000
    0.500610     0.000610     0.209175     0.000000
    0.000610     0.500610     0.209175     0.000000
    0.500610     0.500610     0.209175     0.000000
    0.250790     0.250800     0.311459     0.000000
    0.750790     0.250800     0.311459     0.000000
    0.250790     0.750800     0.311459     0.000000
    0.750790     0.750800     0.311459     0.000000
    0.534060     0.625470     0.442911     1.026426
    0.374530     0.908590     0.442911     1.018662
    0.091410     0.465940     0.442911     1.028372
    0.091410     0.625470     0.442911     1.018663
    0.374530     0.465940     0.442911     1.026428
    0.534060     0.908590     0.442911     1.028370
    0.333330     0.666670     0.432489     1.032793
    0.000000     0.000000     0.440327     1.023461
    0.125670     0.125670     0.055888     0.000000
    0.625670     0.125670     0.055888     0.000000
    0.375590     0.375590     0.055892     0.000000
    0.875590     0.375590     0.055892     0.000000
    0.125670     0.625670     0.055888     0.000000
    0.625670     0.625670     0.055888     0.000000
    0.375590     0.875590     0.055892     0.000000
    0.875590     0.875590     0.055892     0.000000
    0.375580     0.125690     0.158064     0.000000
    0.875580     0.125690     0.158064     0.000000
    0.125680     0.375590     0.158064     0.000000
    0.625680     0.375590     0.158064     0.000000
    0.375580     0.625690     0.158064     0.000000
    0.875580     0.625690     0.158064     0.000000
    0.125680     0.875590     0.158064     0.000000
    0.625680     0.875590     0.158064     0.000000
    0.125670     0.125670     0.260306     0.000000
    0.625670     0.125670     0.260306     0.000000
    0.375590     0.375590     0.260313     0.000000
    0.875590     0.375590     0.260313     0.000000
    0.125670     0.625670     0.260306     0.000000
    0.625670     0.625670     0.260306     0.000000
    0.375590     0.875590     0.260313     0.000000
    0.875590     0.875590     0.260313     0.000000
    0.375580     0.125690     0.362482     0.000000
    0.875580     0.125690     0.362482     0.000000
    0.125680     0.375590     0.362482     0.000000
    0.625680     0.375590     0.362482     0.000000
    0.375580     0.625690     0.362482     0.000000
    0.875580     0.625690     0.362482     0.000000
    0.125680     0.875590     0.362482     0.000000
    0.625680     0.875590     0.362482     0.000000
EA40    8.593  8.593 21.019 90.08 90.08 90.08 Sym.group:    0
1.0000
    8.593017     0.000000     0.000000
   -0.011983     8.593000     0.000000
   -0.029353    -0.029394    21.018959
   O  Cu
  17   40 
Direct
    0.500000     0.500000     0.416988     1.031690
    0.000610     0.000610     0.004757     0.000000
    0.500610     0.000610     0.004757     0.000000
    0.000610     0.500610     0.004757     0.000000
    0.500610     0.500610     0.004757     0.000000
    0.250790     0.250800     0.107041     0.000000
    0.750790     0.250800     0.107041     0.000000
    0.250790     0.750800     0.107041     0.000000
    0.750790     0.750800     0.107041     0.000000
    0.000610     0.000610     0.209175     0.000000
    0.500610     0.000610     0.209175     0.000000
    0.000610     0.500610     0.209175     0.000000
    0.500610     0.500610     0.209175     0.000000
    0.250790     0.250800     0.311459     0.000000
    0.750790     0.250800     0.311459     0.000000
    0.250790     0.750800     0.311459     0.000000
    0.750790     0.750800     0.311459     0.000000
    0.064060     0.909770     0.431505     1.017111
    0.935940     0.090230     0.431505     1.017103
    0.090230     0.064060     0.431505     1.017282
    0.909770     0.935940     0.431505     1.017271
    0.539110     0.853950     0.495576     1.023697
    0.460890     0.146050     0.495576     1.023692
    0.146050     0.539110     0.495576     1.023007
    0.853950     0.460890     0.495576     1.022996
    0.125670     0.125670     0.055888     0.000000
    0.625670     0.125670     0.055888     0.000000
    0.375590     0.375590     0.055892     0.000000
    0.875590     0.375590     0.055892     0.000000
    0.125670     0.625670     0.055888     0.000000
    0.625670     0.625670     0.055888     0.000000
    0.375590     0.875590     0.055892     0.000000
    0.875590     0.875590     0.055892     0.000000
    0.375580     0.125690     0.158064     0.000000
    0.875580     0.125690     0.158064     0.000000
    0.125680     0.375590     0.158064     0.000000
    0.625680     0.375590     0.158064     0.000000
    0.375580     0.625690     0.158064     0.000000
    0.875580     0.625690     0.158064     0.000000
    0.125680     0.875590     0.158064     0.000000
    0.625680     0.875590     0.158064     0.000000
    0.125670     0.125670     0.260306     0.000000
    0.625670     0.125670     0.260306     0.000000
    0.375590     0.375590     0.260313     0.000000
    0.875590     0.375590     0.260313     0.000000
    0.125670     0.625670     0.260306     0.000000
    0.625670     0.625670     0.260306     0.000000
    0.375590     0.875590     0.260313     0.000000
    0.875590     0.875590     0.260313     0.000000
    0.375580     0.125690     0.362482     0.000000
    0.875580     0.125690     0.362482     0.000000
    0.125680     0.375590     0.362482     0.000000
    0.625680     0.375590     0.362482     0.000000
    0.375580     0.625690     0.362482     0.000000
    0.875580     0.625690     0.362482     0.000000
    0.125680     0.875590     0.362482     0.000000
    0.625680     0.875590     0.362482     0.000000
EA41    6.779 10.267 21.067 90.00 90.00 90.00 Sym.group:    0
1.0000
    6.778783     0.000000     0.000000
    0.000000    10.267378     0.000000
    0.000000     0.000000    21.067248
   O  Cu
  17   40 
Direct
    0.378079     0.969439     0.618490     1.023225
    0.929439     0.536088     0.543780     0.000000
    0.695088     0.184768     0.245972     0.000000
    0.107315     0.194370     0.572878     0.000000
    0.795558     0.380555     0.732561     0.000000
    0.431984     0.247217     0.431008     0.000000
    0.828398     0.382501     0.378253     0.000000
    0.049027     0.053231     0.425553     0.000000
    0.940739     0.043440     0.677285     0.000000
    0.887518     0.678312     0.233481     0.000000
    0.164722     0.343494     0.279646     0.000000
    0.530304     0.609467     0.449859     0.000000
    0.003046     0.615597     0.398875     0.000000
    0.524614     0.919131     0.356094     0.000000
    0.477393     0.615272     0.633567     0.000000
    0.978915     0.730005     0.699069     0.000000
    0.073148     0.017280     0.252168     0.000000
    0.524819     0.030232     0.543905     1.026754
    0.158042     0.895610     0.671120     1.027140
    0.316172     0.462817     0.615982     1.029525
    0.479878     0.798953     0.627656     1.032874
    0.018727     0.771582     0.351225     1.029041
    0.260821     0.618294     0.427998     1.026316
    0.565335     0.786363     0.418512     1.026974
    0.995403     0.643552     0.616016     1.030434
    0.584635     0.287734     0.597591     0.000000
    0.471391     0.063646     0.411777     0.000000
    0.848209     0.469552     0.459218     0.000000
    0.475348     0.445085     0.501643     0.000000
    0.944343     0.220999     0.404362     0.000000
    0.683145     0.234759     0.491277     0.000000
    0.803881     0.014408     0.467503     0.000000
    0.998319     0.361733     0.563271     0.000000
    0.547777     0.562237     0.354444     0.000000
    0.680511     0.541268     0.586869     0.000000
    0.169516     0.651400     0.241703     0.000000
    0.860613     0.209992     0.704896     0.000000
    0.146347     0.394040     0.722409     0.000000
    0.306375     0.296761     0.354605     0.000000
    0.057448     0.013878     0.339833     0.000000
    0.062605     0.486540     0.333696     0.000000
    0.260392     0.232661     0.648681     0.000000
    0.776957     0.896557     0.699651     0.000000
    0.875460     0.556273     0.720495     0.000000
    0.672948     0.307244     0.311449     0.000000
    0.625622     0.046470     0.298001     0.000000
    0.981065     0.199613     0.256304     0.000000
    0.512957     0.357535     0.714879     0.000000
    0.551542     0.082225     0.670385     0.000000
    0.845149     0.110118     0.584868     0.000000
    0.611757     0.650893     0.243844     0.000000
    0.955124     0.855838     0.243927     0.000000
    0.386052     0.463701     0.262661     0.000000
    0.472561     0.820122     0.747179     0.000000
    0.257817     0.641253     0.703197     0.000000
    0.378360     0.776098     0.312022     0.000000
    0.282624     0.227745     0.506363     0.000000
EA42    8.536  8.536 18.316 90.00 90.00 90.00 Sym.group:    0
1.0000
    8.535832     0.000000     0.000000
    0.000000     8.535832     0.000000
    0.000000     0.000000    18.316116
   O  Cu
  17   40 
Direct
    0.489611     0.229730     0.734288     1.022172
    0.487052     0.490329     0.270316     0.000000
    0.834626     0.554094     0.403614     0.000000
    0.251541     0.398463     0.428189     0.000000
    0.565279     0.209018     0.398972     0.000000
    0.323545     0.970592     0.257365     0.000000
    0.667244     0.115972     0.236287     0.000000
    0.931047     0.691740     0.245435     0.000000
    0.414261     0.802416     0.399940     0.000000
    0.322661     0.142356     0.263891     0.000000
    0.646664     0.942111     0.237466     0.000000
    0.095178     0.692769     0.272373     0.000000
    0.917860     0.378730     0.259251     0.000000
    0.094126     0.352146     0.701987     0.000000
    0.830202     0.691580     0.701522     0.000000
    0.276221     0.859299     0.736262     0.000000
    0.074600     0.396168     0.297286     0.000000
    0.685682     0.143852     0.730333     1.031585
    0.597394     0.090242     0.576389     1.026324
    0.349942     0.748347     0.654091     1.025153
    0.945080     0.750123     0.606434     1.014869
    0.117711     0.239919     0.611246     1.032560
    0.861715     0.079228     0.625197     1.022167
    0.118698     0.948855     0.672903     1.019838
    0.968902     0.182930     0.736683     1.015931
    0.954581     0.016363     0.402934     0.000000
    0.526154     0.269900     0.278229     0.000000
    0.507346     0.871359     0.312157     0.000000
    0.719360     0.499042     0.280192     0.000000
    0.266317     0.527659     0.263721     0.000000
    0.967108     0.730268     0.460034     0.000000
    0.165672     0.210596     0.475178     0.000000
    0.232777     0.918917     0.436993     0.000000
    0.765920     0.898129     0.520378     0.000000
    0.849338     0.907150     0.731461     0.000000
    0.321215     0.037514     0.564885     0.000000
    0.130333     0.178416     0.320233     0.000000
    0.199271     0.711866     0.541808     0.000000
    0.043492     0.977120     0.533530     0.000000
    0.037568     0.462054     0.414886     0.000000
    0.544075     0.005376     0.443643     0.000000
    0.424478     0.281865     0.636293     0.000000
    0.662894     0.665241     0.627905     0.000000
    0.685935     0.369926     0.582017     0.000000
    0.434451     0.530935     0.567652     0.000000
    0.457165     0.282669     0.494662     0.000000
    0.702410     0.605046     0.496415     0.000000
    0.712730     0.365319     0.411301     0.000000
    0.344531     0.596898     0.426005     0.000000
    0.950439     0.507420     0.695588     0.000000
    0.847953     0.883999     0.283179     0.000000
    0.858590     0.163139     0.289775     0.000000
    0.123570     0.907229     0.299052     0.000000
    0.967261     0.476345     0.550666     0.000000
    0.488131     0.802783     0.537635     0.000000
    0.866388     0.207545     0.505454     0.000000
    0.386635     0.041833     0.728504     0.000000
EA43    6.616  9.005 23.388 90.00 90.00 90.00 Sym.group:    0
1.0000
    6.616114     0.000000     0.000000
    0.000000     9.005282     0.000000
    0.000000     0.000000    23.387666
   O  Cu
  17   40 
Direct
    0.390692     0.704408     0.614084     1.026851
    0.974970     0.519301     0.391501     0.000000
    0.821542     0.584051     0.646884     0.000000
    0.157046     0.216460     0.570823     0.000000
    0.927906     0.678107     0.819948     0.000000
    0.421658     0.594287     0.751581     0.000000
    0.225598     0.984428     0.247982     0.000000
    0.855815     0.023761     0.416099     0.000000
    0.970066     0.974540     0.629638     0.000000
    0.765336     0.331479     0.821248     0.000000
    0.354419     0.199000     0.707634     0.000000
    0.791083     0.529172     0.589271     0.000000
    0.209056     0.571460     0.260023     0.000000
    0.583224     0.807832     0.358353     0.000000
    0.297970     0.261833     0.368589     0.000000
    0.654957     0.331895     0.509960     0.000000
    0.795292     0.184373     0.301129     0.000000
    0.165318     0.567469     0.455242     1.030232
    0.362154     0.391733     0.733089     1.022824
    0.477740     0.446605     0.391471     1.030126
    0.697007     0.995994     0.335904     1.034057
    0.770446     0.650980     0.362287     1.023804
    0.080471     0.149099     0.401600     1.026006
    0.461137     0.715962     0.423621     1.017640
    0.913854     0.671841     0.530783     1.025122
    0.527238     0.977221     0.241232     0.000000
    0.986933     0.380692     0.568780     0.000000
    0.902176     0.988592     0.708132     0.000000
    0.944479     0.880220     0.799132     0.000000
    0.476600     0.325934     0.826337     0.000000
    0.285305     0.122475     0.306847     0.000000
    0.865495     0.345642     0.350208     0.000000
    0.515253     0.584700     0.273400     0.000000
    0.175509     0.131812     0.649433     0.000000
    0.807805     0.940572     0.565682     0.000000
    0.572156     0.622239     0.682198     0.000000
    0.169559     0.830944     0.617320     0.000000
    0.066804     0.349442     0.818629     0.000000
    0.689297     0.597244     0.788461     0.000000
    0.168723     0.121457     0.761646     0.000000
    0.172589     0.613401     0.791489     0.000000
    0.631072     0.327580     0.262420     0.000000
    0.919848     0.010116     0.246345     0.000000
    0.915805     0.539371     0.263732     0.000000
    0.819888     0.439353     0.453645     0.000000
    0.395537     0.278353     0.539091     0.000000
    0.731349     0.166237     0.464341     0.000000
    0.247197     0.568188     0.565547     0.000000
    0.548200     0.757429     0.547426     0.000000
    0.764162     0.771815     0.232997     0.000000
    0.157552     0.778869     0.259285     0.000000
    0.822578     0.137101     0.794588     0.000000
    0.466558     0.013011     0.524996     0.000000
    0.745692     0.873737     0.467747     0.000000
    0.498870     0.522349     0.493437     0.000000
    0.240237     0.409126     0.310205     0.000000
    0.684139     0.521757     0.185063     0.000000
EA44    8.269  8.269 20.236 90.00 90.00 90.00 Sym.group:    0
1.0000
    8.268542     0.000000     0.000000
    0.000000     8.268542     0.000000
    0.000000     0.000000    20.236213
   O  Cu
  17   40 
Direct
    0.800615     0.032478     0.241168     1.024655
    0.597334     0.813830     0.783805     0.000000
    0.237954     0.012881     0.710314     0.000000
    0.190095     0.837984     0.284099     0.000000
    0.805000     0.441496     0.311452     0.000000
    0.724857     0.340733     0.644493     0.000000
    0.324618     0.246880     0.325377     0.000000
    0.710955     0.767782     0.367629     0.000000
    0.388219     0.411639     0.768865     0.000000
    0.341918     0.193564     0.555454     0.000000
    0.036878     0.796191     0.494473     0.000000
    0.997661     0.218516     0.452338     0.000000
    0.580165     0.038991     0.467439     0.000000
    0.969411     0.481595     0.538028     0.000000
    0.508873     0.564039     0.222128     0.000000
    0.986325     0.612216     0.744596     0.000000
    0.857648     0.917859     0.619878     0.000000
    0.874511     0.708838     0.569062     1.028885
    0.803553     0.230021     0.282065     1.027245
    0.628080     0.542471     0.595767     1.026841
    0.384359     0.684939     0.643480     1.021936
    0.353831     0.451261     0.400248     1.026620
    0.570030     0.644601     0.426887     1.030173
    0.144310     0.306205     0.531672     1.021326
    0.225154     0.810131     0.552240     1.024591
    0.562248     0.372870     0.707245     0.000000
    0.195607     0.530613     0.732411     0.000000
    0.873641     0.478952     0.687524     0.000000
    0.596572     0.941621     0.258019     0.000000
    0.299988     0.031394     0.302409     0.000000
    0.000212     0.509505     0.352748     0.000000
    0.426231     0.905349     0.737281     0.000000
    0.488089     0.618210     0.773162     0.000000
    0.371489     0.731257     0.247238     0.000000
    0.775608     0.149751     0.455197     0.000000
    0.793522     0.723777     0.757811     0.000000
    0.357033     0.374290     0.617530     0.000000
    0.542158     0.948826     0.378668     0.000000
    0.991948     0.940125     0.266205     0.000000
    0.056311     0.945357     0.662507     0.000000
    0.889482     0.752996     0.422549     0.000000
    0.140795     0.243064     0.380476     0.000000
    0.781966     0.126636     0.631274     0.000000
    0.377271     0.015393     0.618143     0.000000
    0.394606     0.568169     0.519094     0.000000
    0.503302     0.281128     0.487848     0.000000
    0.533443     0.856009     0.527862     0.000000
    0.122110     0.562921     0.462030     0.000000
    0.766593     0.466157     0.487854     0.000000
    0.644443     0.641822     0.291751     0.000000
    0.642632     0.832134     0.644797     0.000000
    0.222588     0.709134     0.365680     0.000000
    0.652359     0.374756     0.381233     0.000000
    0.040702     0.008892     0.472856     0.000000
    0.125257     0.554454     0.608700     0.000000
    0.304130     0.219901     0.732541     0.000000
    0.415299     0.407384     0.274223     0.000000
EA45    8.593  8.593 21.019 90.08 90.08 90.08 Sym.group:    0
1.0000
    8.593017     0.000000     0.000000
   -0.011983     8.593000     0.000000
   -0.029353    -0.029394    21.018959
   O  Cu
  17   40 
Direct
    0.812948     0.141229     0.415665     1.030962
    0.000610     0.000610     0.004757     0.000000
    0.500610     0.000610     0.004757     0.000000
    0.000610     0.500610     0.004757     0.000000
    0.500610     0.500610     0.004757     0.000000
    0.250790     0.250800     0.107041     0.000000
    0.750790     0.250800     0.107041     0.000000
    0.250790     0.750800     0.107041     0.000000
    0.750790     0.750800     0.107041     0.000000
    0.000610     0.000610     0.209175     0.000000
    0.500610     0.000610     0.209175     0.000000
    0.000610     0.500610     0.209175     0.000000
    0.500610     0.500610     0.209175     0.000000
    0.250790     0.250800     0.311459     0.000000
    0.750790     0.250800     0.311459     0.000000
    0.250790     0.750800     0.311459     0.000000
    0.750790     0.750800     0.311459     0.000000
    0.185007     0.106464     0.506754     1.025673
    0.391877     0.313334     0.506754     1.025623
    0.713197     0.578274     0.506754     1.025719
    0.480767     0.017574     0.456881     1.014858
    0.624307     0.874034     0.456881     1.014936
    0.303357     0.696624     0.435664     1.032213
    0.781658     0.475659     0.510660     1.032562
    0.920067     0.785144     0.506754     1.024964
    0.125670     0.125670     0.055888     0.000000
    0.625670     0.125670     0.055888     0.000000
    0.375590     0.375590     0.055892     0.000000
    0.875590     0.375590     0.055892     0.000000
    0.125670     0.625670     0.055888     0.000000
    0.625670     0.625670     0.055888     0.000000
    0.375590     0.875590     0.055892     0.000000
    0.875590     0.875590     0.055892     0.000000
    0.375580     0.125690     0.158064     0.000000
    0.875580     0.125690     0.158064     0.000000
    0.125680     0.375590     0.158064     0.000000
    0.625680     0.375590     0.158064     0.000000
    0.375580     0.625690     0.158064     0.000000
    0.875580     0.625690     0.158064     0.000000
    0.125680     0.875590     0.158064     0.000000
    0.625680     0.875590     0.158064     0.000000
    0.125670     0.125670     0.260306     0.000000
    0.625670     0.125670     0.260306     0.000000
    0.375590     0.375590     0.260313     0.000000
    0.875590     0.375590     0.260313     0.000000
    0.125670     0.625670     0.260306     0.000000
    0.625670     0.625670     0.260306     0.000000
    0.375590     0.875590     0.260313     0.000000
    0.875590     0.875590     0.260313     0.000000
    0.375580     0.125690     0.362482     0.000000
    0.875580     0.125690     0.362482     0.000000
    0.125680     0.375590     0.362482     0.000000
    0.625680     0.375590     0.362482     0.000000
    0.375580     0.625690     0.362482     0.000000
    0.875580     0.625690     0.362482     0.000000
    0.125680     0.875590     0.362482     0.000000
    0.625680     0.875590     0.362482     0.000000
EA46    8.593  8.593 21.019 90.08 90.08 90.08 Sym.group:    0
1.0000
    8.593017     0.000000     0.000000
   -0.011983     8.593000     0.000000
   -0.029353    -0.029394    21.018959
   O  Cu
  17   40 
Direct
    0.409870     0.972995     0.458244     1.032507
    0.000610     0.000610     0.004757     0.000000
    0.500610     0.000610     0.004757     0.000000
    0.000610     0.500610     0.004757     0.000000
    0.500610     0.500610     0.004757     0.000000
    0.250790     0.250800     0.107041     0.000000
    0.750790     0.250800     0.107041     0.000000
    0.250790     0.750800     0.107041     0.000000
    0.750790     0.750800     0.107041     0.000000
    0.000610     0.000610     0.209175     0.000000
    0.500610     0.000610     0.209175     0.000000
    0.000610     0.500610     0.209175     0.000000
    0.500610     0.500610     0.209175     0.000000
    0.250790     0.250800     0.311459     0.000000
    0.750790     0.250800     0.311459     0.000000
    0.250790     0.750800     0.311459     0.000000
    0.750790     0.750800     0.311459     0.000000
    0.898100     0.218534     0.488799     1.030013
    0.659570     0.151194     0.454408     1.028660
    0.542340     0.633655     0.436422     1.025585
    0.277400     0.312335     0.436422     1.026350
    0.749210     0.840525     0.436422     1.022170
    0.838100     0.544765     0.386549     1.013463
    0.981640     0.401225     0.386549     1.017900
    0.159050     0.722175     0.508060     1.032166
    0.125670     0.125670     0.055888     0.000000
    0.625670     0.125670     0.055888     0.000000
    0.375590     0.375590     0.055892     0.000000
    0.875590     0.375590     0.055892     0.000000
    0.125670     0.625670     0.055888     0.000000
    0.625670     0.625670     0.055888     0.000000
    0.375590     0.875590     0.055892     0.000000
    0.875590     0.875590     0.055892     0.000000
    0.375580     0.125690     0.158064     0.000000
    0.875580     0.125690     0.158064     0.000000
    0.125680     0.375590     0.158064     0.000000
    0.625680     0.375590     0.158064     0.000000
    0.375580     0.625690     0.158064     0.000000
    0.875580     0.625690     0.158064     0.000000
    0.125680     0.875590     0.158064     0.000000
    0.625680     0.875590     0.158064     0.000000
    0.125670     0.125670     0.260306     0.000000
    0.625670     0.125670     0.260306     0.000000
    0.375590     0.375590     0.260313     0.000000
    0.875590     0.375590     0.260313     0.000000
    0.125670     0.625670     0.260306     0.000000
    0.625670     0.625670     0.260306     0.000000
    0.375590     0.875590     0.260313     0.000000
    0.875590     0.875590     0.260313     0.000000
    0.375580     0.125690     0.362482     0.000000
    0.875580     0.125690     0.362482     0.000000
    0.125680     0.375590     0.362482     0.000000
    0.625680     0.375590     0.362482     0.000000
    0.375580     0.625690     0.362482     0.000000
    0.875580     0.625690     0.362482     0.000000
    0.125680     0.875590     0.362482     0.000000
    0.625680     0.875590     0.362482     0.000000
EA47    8.593  8.593 21.019 90.08 90.08 90.08 Sym.group:    0
1.0000
    8.593017     0.000000     0.000000
   -0.011983     8.593000     0.000000
   -0.029353    -0.029394    21.018959
   O  Cu
  17   40 
Direct
    0.660090     0.953282     0.480729     1.025341
    0.000610     0.000610     0.004757     0.000000
    0.500610     0.000610     0.004757     0.000000
    0.000610     0.500610     0.004757     0.000000
    0.500610     0.500610     0.004757     0.000000
    0.250790     0.250800     0.107041     0.000000
    0.750790     0.250800     0.107041     0.000000
    0.250790     0.750800     0.107041     0.000000
    0.750790     0.750800     0.107041     0.000000
    0.000610     0.000610     0.209175     0.000000
    0.500610     0.000610     0.209175     0.000000
    0.000610     0.500610     0.209175     0.000000
    0.500610     0.500610     0.209175     0.000000
    0.250790     0.250800     0.311459     0.000000
    0.750790     0.250800     0.311459     0.000000
    0.250790     0.750800     0.311459     0.000000
    0.750790     0.750800     0.311459     0.000000
    0.411790     0.471172     0.473646     1.032446
    0.509360     0.702772     0.478039     1.023204
    0.481320     0.430742     0.400018     1.033047
    0.820305     0.171806     0.427616     1.024816
    0.820305     0.286066     0.443924     1.022918
    0.759445     0.826596     0.477195     1.015973
    0.759445     0.938696     0.493195     1.026626
    0.924735     0.182206     0.442439     1.030989
    0.125670     0.125670     0.055888     0.000000
    0.625670     0.125670     0.055888     0.000000
    0.375590     0.375590     0.055892     0.000000
    0.875590     0.375590     0.055892     0.000000
    0.125670     0.625670     0.055888     0.000000
    0.625670     0.625670     0.055888     0.000000
    0.375590     0.875590     0.055892     0.000000
    0.875590     0.875590     0.055892     0.000000
    0.375580     0.125690     0.158064     0.000000
    0.875580     0.125690     0.158064     0.000000
    0.125680     0.375590     0.158064     0.000000
    0.625680     0.375590     0.158064     0.000000
    0.375580     0.625690     0.158064     0.000000
    0.875580     0.625690     0.158064     0.000000
    0.125680     0.875590     0.158064     0.000000
    0.625680     0.875590     0.158064     0.000000
    0.125670     0.125670     0.260306     0.000000
    0.625670     0.125670     0.260306     0.000000
    0.375590     0.375590     0.260313     0.000000
    0.875590     0.375590     0.260313     0.000000
    0.125670     0.625670     0.260306     0.000000
    0.625670     0.625670     0.260306     0.000000
    0.375590     0.875590     0.260313     0.000000
    0.875590     0.875590     0.260313     0.000000
    0.375580     0.125690     0.362482     0.000000
    0.875580     0.125690     0.362482     0.000000
    0.125680     0.375590     0.362482     0.000000
    0.625680     0.375590     0.362482     0.000000
    0.375580     0.625690     0.362482     0.000000
    0.875580     0.625690     0.362482     0.000000
    0.125680     0.875590     0.362482     0.000000
    0.625680     0.875590     0.362482     0.000000
EA48    8.593  8.593 21.019 90.08 90.08 90.08 Sym.group:    0
1.0000
    8.593017     0.000000     0.000000
   -0.011983     8.593000     0.000000
   -0.029353    -0.029394    21.018959
   O  Cu
  17   40 
Direct
    0.681176     0.156672     0.382366     1.028016
    0.000610     0.000610     0.004757     0.000000
    0.500610     0.000610     0.004757     0.000000
    0.000610     0.500610     0.004757     0.000000
    0.500610     0.500610     0.004757     0.000000
    0.250790     0.250800     0.107041     0.000000
    0.750790     0.250800     0.107041     0.000000
    0.250790     0.750800     0.107041     0.000000
    0.750790     0.750800     0.107041     0.000000
    0.000610     0.000610     0.209175     0.000000
    0.500610     0.000610     0.209175     0.000000
    0.000610     0.500610     0.209175     0.000000
    0.500610     0.500610     0.209175     0.000000
    0.250790     0.250800     0.311459     0.000000
    0.750790     0.250800     0.311459     0.000000
    0.250790     0.750800     0.311459     0.000000
    0.750790     0.750800     0.311459     0.000000
    0.684114     0.354215     0.421740     1.033182
    0.552252     0.829783     0.431162     1.031761
    0.051172     0.567223     0.431162     1.033052
    0.821642     0.966133     0.441638     1.030206
    0.297702     0.821773     0.435268     1.022926
    0.264920     0.809133     0.484239     1.020753
    0.508641     0.666665     0.438303     1.023632
    0.755072     0.833032     0.412593     1.014234
    0.125670     0.125670     0.055888     0.000000
    0.625670     0.125670     0.055888     0.000000
    0.375590     0.375590     0.055892     0.000000
    0.875590     0.375590     0.055892     0.000000
    0.125670     0.625670     0.055888     0.000000
    0.625670     0.625670     0.055888     0.000000
    0.375590     0.875590     0.055892     0.000000
    0.875590     0.875590     0.055892     0.000000
    0.375580     0.125690     0.158064     0.000000
    0.875580     0.125690     0.158064     0.000000
    0.125680     0.375590     0.158064     0.000000
    0.625680     0.375590     0.158064     0.000000
    0.375580     0.625690     0.158064     0.000000
    0.875580     0.625690     0.158064     0.000000
    0.125680     0.875590     0.158064     0.000000
    0.625680     0.875590     0.158064     0.000000
    0.125670     0.125670     0.260306     0.000000
    0.625670     0.125670     0.260306     0.000000
    0.375590     0.375590     0.260313     0.000000
    0.875590     0.375590     0.260313     0.000000
    0.125670     0.625670     0.260306     0.000000
    0.625670     0.625670     0.260306     0.000000
    0.375590     0.875590     0.260313     0.000000
    0.875590     0.875590     0.260313     0.000000
    0.375580     0.125690     0.362482     0.000000
    0.875580     0.125690     0.362482     0.000000
    0.125680     0.375590     0.362482     0.000000
    0.625680     0.375590     0.362482     0.000000
    0.375580     0.625690     0.362482     0.000000
    0.875580     0.625690     0.362482     0.000000
    0.125680     0.875590     0.362482     0.000000
    0.625680     0.875590     0.362482     0.000000
EA49    8.593  8.593 21.019 90.08 90.08 90.08 Sym.group:    0
1.0000
    8.593017     0.000000     0.000000
   -0.011983     8.593000     0.000000
   -0.029353    -0.029394    21.018959
   O  Cu
  17   40 
Direct
    0.500392     0.196897     0.410680     1.025273
    0.000610     0.000610     0.004757     0.000000
    0.500610     0.000610     0.004757     0.000000
    0.000610     0.500610     0.004757     0.000000
    0.500610     0.500610     0.004757     0.000000
    0.250790     0.250800     0.107041     0.000000
    0.750790     0.250800     0.107041     0.000000
    0.250790     0.750800     0.107041     0.000000
    0.750790     0.750800     0.107041     0.000000
    0.000610     0.000610     0.209175     0.000000
    0.500610     0.000610     0.209175     0.000000
    0.000610     0.500610     0.209175     0.000000
    0.500610     0.500610     0.209175     0.000000
    0.250790     0.250800     0.311459     0.000000
    0.750790     0.250800     0.311459     0.000000
    0.250790     0.750800     0.311459     0.000000
    0.750790     0.750800     0.311459     0.000000
    0.014384     0.004903     0.447721     1.032758
    0.621534     0.004903     0.447721     1.020860
    0.228684     0.219203     0.447721     1.032800
    0.621534     0.219203     0.447721     1.031815
    0.689492     0.661937     0.516668     1.025755
    0.478122     0.695957     0.448006     1.032701
    0.478122     0.935377     0.482178     1.028657
    0.450962     0.902887     0.383551     1.031359
    0.125670     0.125670     0.055888     0.000000
    0.625670     0.125670     0.055888     0.000000
    0.375590     0.375590     0.055892     0.000000
    0.875590     0.375590     0.055892     0.000000
    0.125670     0.625670     0.055888     0.000000
    0.625670     0.625670     0.055888     0.000000
    0.375590     0.875590     0.055892     0.000000
    0.875590     0.875590     0.055892     0.000000
    0.375580     0.125690     0.158064     0.000000
    0.875580     0.125690     0.158064     0.000000
    0.125680     0.375590     0.158064     0.000000
    0.625680     0.375590     0.158064     0.000000
    0.375580     0.625690     0.158064     0.000000
    0.875580     0.625690     0.158064     0.000000
    0.125680     0.875590     0.158064     0.000000
    0.625680     0.875590     0.158064     0.000000
    0.125670     0.125670     0.260306     0.000000
    0.625670     0.125670     0.260306     0.000000
    0.375590     0.375590     0.260313     0.000000
    0.875590     0.375590     0.260313     0.000000
    0.125670     0.625670     0.260306     0.000000
    0.625670     0.625670     0.260306     0.000000
    0.375590     0.875590     0.260313     0.000000
    0.875590     0.875590     0.260313     0.000000
    0.375580     0.125690     0.362482     0.000000
    0.875580     0.125690     0.362482     0.000000
    0.125680     0.375590     0.362482     0.000000
    0.625680     0.375590     0.362482     0.000000
    0.375580     0.625690     0.362482     0.000000
    0.875580     0.625690     0.362482     0.000000
    0.125680     0.875590     0.362482     0.000000
    0.625680     0.875590     0.362482     0.000000
EA50    8.593  8.593 21.019 90.08 90.08 90.08 Sym.group:    0
1.0000
    8.593017     0.000000     0.000000
   -0.011983     8.593000     0.000000
   -0.029353    -0.029394    21.018959
   O  Cu
  17   40 
Direct
    0.366300     0.663718     0.447684     1.020326
    0.000610     0.000610     0.004757     0.000000
    0.500610     0.000610     0.004757     0.000000
    0.000610     0.500610     0.004757     0.000000
    0.500610     0.500610     0.004757     0.000000
    0.250790     0.250800     0.107041     0.000000
    0.750790     0.250800     0.107041     0.000000
    0.250790     0.750800     0.107041     0.000000
    0.750790     0.750800     0.107041     0.000000
    0.000610     0.000610     0.209175     0.000000
    0.500610     0.000610     0.209175     0.000000
    0.000610     0.500610     0.209175     0.000000
    0.500610     0.500610     0.209175     0.000000
    0.250790     0.250800     0.311459     0.000000
    0.750790     0.250800     0.311459     0.000000
    0.250790     0.750800     0.311459     0.000000
    0.750790     0.750800     0.311459     0.000000
    0.819786     0.309794     0.421318     1.029139
    0.983492     0.645930     0.433018     1.019148
    0.522341     0.618559     0.441409     1.012981
    0.764435     0.465271     0.518358     1.015675
    0.068949     0.633340     0.508850     1.026048
    0.717950     0.776678     0.388318     1.027118
    0.898170     0.708818     0.494428     1.015324
    0.697260     0.893758     0.402531     1.031161
    0.125670     0.125670     0.055888     0.000000
    0.625670     0.125670     0.055888     0.000000
    0.375590     0.375590     0.055892     0.000000
    0.875590     0.375590     0.055892     0.000000
    0.125670     0.625670     0.055888     0.000000
    0.625670     0.625670     0.055888     0.000000
    0.375590     0.875590     0.055892     0.000000
    0.875590     0.875590     0.055892     0.000000
    0.375580     0.125690     0.158064     0.000000
    0.875580     0.125690     0.158064     0.000000
    0.125680     0.375590     0.158064     0.000000
    0.625680     0.375590     0.158064     0.000000
    0.375580     0.625690     0.158064     0.000000
    0.875580     0.625690     0.158064     0.000000
    0.125680     0.875590     0.158064     0.000000
    0.625680     0.875590     0.158064     0.000000
    0.125670     0.125670     0.260306     0.000000
    0.625670     0.125670     0.260306     0.000000
    0.375590     0.375590     0.260313     0.000000
    0.875590     0.375590     0.260313     0.000000
    0.125670     0.625670     0.260306     0.000000
    0.625670     0.625670     0.260306     0.000000
    0.375590     0.875590     0.260313     0.000000
    0.875590     0.875590     0.260313     0.000000
    0.375580     0.125690     0.362482     0.000000
    0.875580     0.125690     0.362482     0.000000
    0.125680     0.375590     0.362482     0.000000
    0.625680     0.375590     0.362482     0.000000
    0.375580     0.625690     0.362482     0.000000
    0.875580     0.625690     0.362482     0.000000
    0.125680     0.875590     0.362482     0.000000
    0.625680     0.875590     0.362482     0.000000
EA51    8.593  8.593 21.019 90.08 90.08 90.08 Sym.group:    0
1.0000
    8.593017     0.000000     0.000000
   -0.011983     8.593000     0.000000
   -0.029353    -0.029394    21.018959
   O  Cu
  17   40 
Direct
    0.096450     0.971381     0.395395     1.025464
    0.000610     0.000610     0.004757     0.000000
    0.500610     0.000610     0.004757     0.000000
    0.000610     0.500610     0.004757     0.000000
    0.500610     0.500610     0.004757     0.000000
    0.250790     0.250800     0.107041     0.000000
    0.750790     0.250800     0.107041     0.000000
    0.250790     0.750800     0.107041     0.000000
    0.750790     0.750800     0.107041     0.000000
    0.000610     0.000610     0.209175     0.000000
    0.500610     0.000610     0.209175     0.000000
    0.000610     0.500610     0.209175     0.000000
    0.500610     0.500610     0.209175     0.000000
    0.250790     0.250800     0.311459     0.000000
    0.750790     0.250800     0.311459     0.000000
    0.250790     0.750800     0.311459     0.000000
    0.750790     0.750800     0.311459     0.000000
    0.453512     0.369828     0.485858     1.024706
    0.985462     0.267658     0.496334     1.031353
    0.461522     0.123298     0.489964     1.026029
    0.204233     0.831893     0.400528     1.031451
    0.956781     0.489998     0.468238     1.033113
    0.551919     0.491774     0.426710     1.023518
    0.724550     0.981570     0.430903     1.030070
    0.468554     0.820879     0.443060     1.023226
    0.125670     0.125670     0.055888     0.000000
    0.625670     0.125670     0.055888     0.000000
    0.375590     0.375590     0.055892     0.000000
    0.875590     0.375590     0.055892     0.000000
    0.125670     0.625670     0.055888     0.000000
    0.625670     0.625670     0.055888     0.000000
    0.375590     0.875590     0.055892     0.000000
    0.875590     0.875590     0.055892     0.000000
    0.375580     0.125690     0.158064     0.000000
    0.875580     0.125690     0.158064     0.000000
    0.125680     0.375590     0.158064     0.000000
    0.625680     0.375590     0.158064     0.000000
    0.375580     0.625690     0.158064     0.000000
    0.875580     0.625690     0.158064     0.000000
    0.125680     0.875590     0.158064     0.000000
    0.625680     0.875590     0.158064     0.000000
    0.125670     0.125670     0.260306     0.000000
    0.625670     0.125670     0.260306     0.000000
    0.375590     0.375590     0.260313     0.000000
    0.875590     0.375590     0.260313     0.000000
    0.125670     0.625670     0.260306     0.000000
    0.625670     0.625670     0.260306     0.000000
    0.375590     0.875590     0.260313     0.000000
    0.875590     0.875590     0.260313     0.000000
    0.375580     0.125690     0.362482     0.000000
    0.875580     0.125690     0.362482     0.000000
    0.125680     0.375590     0.362482     0.000000
    0.625680     0.375590     0.362482     0.000000
    0.375580     0.625690     0.362482     0.000000
    0.875580     0.625690     0.362482     0.000000
    0.125680     0.875590     0.362482     0.000000
    0.625680     0.875590     0.362482     0.000000
EA52    8.593  8.593 21.019 90.08 90.08 90.08 Sym.group:    0
1.0000
    8.593017     0.000000     0.000000
   -0.011983     8.593000     0.000000
   -0.029353    -0.029394    21.018959
   O  Cu
  17   40 
Direct
    0.254248     0.105028     0.442737     1.031502
    0.000610     0.000610     0.004757     0.000000
    0.500610     0.000610     0.004757     0.000000
    0.000610     0.500610     0.004757     0.000000
    0.500610     0.500610     0.004757     0.000000
    0.250790     0.250800     0.107041     0.000000
    0.750790     0.250800     0.107041     0.000000
    0.250790     0.750800     0.107041     0.000000
    0.750790     0.750800     0.107041     0.000000
    0.000610     0.000610     0.209175     0.000000
    0.500610     0.000610     0.209175     0.000000
    0.000610     0.500610     0.209175     0.000000
    0.500610     0.500610     0.209175     0.000000
    0.250790     0.250800     0.311459     0.000000
    0.750790     0.250800     0.311459     0.000000
    0.250790     0.750800     0.311459     0.000000
    0.750790     0.750800     0.311459     0.000000
    0.391478     0.419988     0.514101     1.025553
    0.868678     0.260848     0.514101     1.032072
    0.280168     0.007218     0.514101     1.032898
    0.755818     0.146808     0.514101     1.032079
    0.413008     0.429708     0.442737     1.027277
    0.435095     0.864249     0.414255     1.025420
    0.649395     0.864249     0.414255     1.033137
    0.042245     0.471399     0.414255     1.027426
    0.125670     0.125670     0.055888     0.000000
    0.625670     0.125670     0.055888     0.000000
    0.375590     0.375590     0.055892     0.000000
    0.875590     0.375590     0.055892     0.000000
    0.125670     0.625670     0.055888     0.000000
    0.625670     0.625670     0.055888     0.000000
    0.375590     0.875590     0.055892     0.000000
    0.875590     0.875590     0.055892     0.000000
    0.375580     0.125690     0.158064     0.000000
    0.875580     0.125690     0.158064     0.000000
    0.125680     0.375590     0.158064     0.000000
    0.625680     0.375590     0.158064     0.000000
    0.375580     0.625690     0.158064     0.000000
    0.875580     0.625690     0.158064     0.000000
    0.125680     0.875590     0.158064     0.000000
    0.625680     0.875590     0.158064     0.000000
    0.125670     0.125670     0.260306     0.000000
    0.625670     0.125670     0.260306     0.000000
    0.375590     0.375590     0.260313     0.000000
    0.875590     0.375590     0.260313     0.000000
    0.125670     0.625670     0.260306     0.000000
    0.625670     0.625670     0.260306     0.000000
    0.375590     0.875590     0.260313     0.000000
    0.875590     0.875590     0.260313     0.000000
    0.375580     0.125690     0.362482     0.000000
    0.875580     0.125690     0.362482     0.000000
    0.125680     0.375590     0.362482     0.000000
    0.625680     0.375590     0.362482     0.000000
    0.375580     0.625690     0.362482     0.000000
    0.875580     0.625690     0.362482     0.000000
    0.125680     0.875590     0.362482     0.000000
    0.625680     0.875590     0.362482     0.000000
EA53    8.593  8.593 21.019 90.08 90.08 90.08 Sym.group:    0
1.0000
    8.593017     0.000000     0.000000
   -0.011983     8.593000     0.000000
   -0.029353    -0.029394    21.018959
   O  Cu
  17   40 
Direct
    0.911832     0.849531     0.495345     1.030580
    0.000610     0.000610     0.004757     0.000000
    0.500610     0.000610     0.004757     0.000000
    0.000610     0.500610     0.004757     0.000000
    0.500610     0.500610     0.004757     0.000000
    0.250790     0.250800     0.107041     0.000000
    0.750790     0.250800     0.107041     0.000000
    0.250790     0.750800     0.107041     0.000000
    0.750790     0.750800     0.107041     0.000000
    0.000610     0.000610     0.209175     0.000000
    0.500610     0.000610     0.209175     0.000000
    0.000610     0.500610     0.209175     0.000000
    0.500610     0.500610     0.209175     0.000000
    0.250790     0.250800     0.311459     0.000000
    0.750790     0.250800     0.311459     0.000000
    0.250790     0.750800     0.311459     0.000000
    0.750790     0.750800     0.311459     0.000000
    0.714832     0.241821     0.500165     1.024135
    0.100932     0.314571     0.458605     1.029772
    0.100932     0.106941     0.428971     1.031632
    0.889562     0.348591     0.389943     1.027990
    0.862402     0.039601     0.394580     1.028640
    0.677753     0.807595     0.504907     1.026197
    0.177753     0.807595     0.490114     1.022786
    0.274673     0.485095     0.411525     1.025671
    0.125670     0.125670     0.055888     0.000000
    0.625670     0.125670     0.055888     0.000000
    0.375590     0.375590     0.055892     0.000000
    0.875590     0.375590     0.055892     0.000000
    0.125670     0.625670     0.055888     0.000000
    0.625670     0.625670     0.055888     0.000000
    0.375590     0.875590     0.055892     0.000000
    0.875590     0.875590     0.055892     0.000000
    0.375580     0.125690     0.158064     0.000000
    0.875580     0.125690     0.158064     0.000000
    0.125680     0.375590     0.158064     0.000000
    0.625680     0.375590     0.158064     0.000000
    0.375580     0.625690     0.158064     0.000000
    0.875580     0.625690     0.158064     0.000000
    0.125680     0.875590     0.158064     0.000000
    0.625680     0.875590     0.158064     0.000000
    0.125670     0.125670     0.260306     0.000000
    0.625670     0.125670     0.260306     0.000000
    0.375590     0.375590     0.260313     0.000000
    0.875590     0.375590     0.260313     0.000000
    0.125670     0.625670     0.260306     0.000000
    0.625670     0.625670     0.260306     0.000000
    0.375590     0.875590     0.260313     0.000000
    0.875590     0.875590     0.260313     0.000000
    0.375580     0.125690     0.362482     0.000000
    0.875580     0.125690     0.362482     0.000000
    0.125680     0.375590     0.362482     0.000000
    0.625680     0.375590     0.362482     0.000000
    0.375580     0.625690     0.362482     0.000000
    0.875580     0.625690     0.362482     0.000000
    0.125680     0.875590     0.362482     0.000000
    0.625680     0.875590     0.362482     0.000000
EA54    8.593  8.593 21.019 90.08 90.08 90.08 Sym.group:    0
1.0000
    8.593017     0.000000     0.000000
   -0.011983     8.593000     0.000000
   -0.029353    -0.029394    21.018959
   O  Cu
  17   40 
Direct
    0.710150     0.655815     0.397405     1.033222
    0.000610     0.000610     0.004757     0.000000
    0.500610     0.000610     0.004757     0.000000
    0.000610     0.500610     0.004757     0.000000
    0.500610     0.500610     0.004757     0.000000
    0.250790     0.250800     0.107041     0.000000
    0.750790     0.250800     0.107041     0.000000
    0.250790     0.750800     0.107041     0.000000
    0.750790     0.750800     0.107041     0.000000
    0.000610     0.000610     0.209175     0.000000
    0.500610     0.000610     0.209175     0.000000
    0.000610     0.500610     0.209175     0.000000
    0.500610     0.500610     0.209175     0.000000
    0.250790     0.250800     0.311459     0.000000
    0.750790     0.250800     0.311459     0.000000
    0.250790     0.750800     0.311459     0.000000
    0.750790     0.750800     0.311459     0.000000
    0.543620     0.292305     0.443373     1.027278
    0.073660     0.489285     0.443373     1.031199
    0.346640     0.822345     0.443373     1.031609
    0.543620     0.019325     0.443373     1.031610
    0.346640     0.489285     0.443373     1.031441
    0.073660     0.822345     0.443373     1.032061
    0.960310     0.148948     0.518365     1.031205
    0.902260     0.251078     0.498502     1.027408
    0.125670     0.125670     0.055888     0.000000
    0.625670     0.125670     0.055888     0.000000
    0.375590     0.375590     0.055892     0.000000
    0.875590     0.375590     0.055892     0.000000
    0.125670     0.625670     0.055888     0.000000
    0.625670     0.625670     0.055888     0.000000
    0.375590     0.875590     0.055892     0.000000
    0.875590     0.875590     0.055892     0.000000
    0.375580     0.125690     0.158064     0.000000
    0.875580     0.125690     0.158064     0.000000
    0.125680     0.375590     0.158064     0.000000
    0.625680     0.375590     0.158064     0.000000
    0.375580     0.625690     0.158064     0.000000
    0.875580     0.625690     0.158064     0.000000
    0.125680     0.875590     0.158064     0.000000
    0.625680     0.875590     0.158064     0.000000
    0.125670     0.125670     0.260306     0.000000
    0.625670     0.125670     0.260306     0.000000
    0.375590     0.375590     0.260313     0.000000
    0.875590     0.375590     0.260313     0.000000
    0.125670     0.625670     0.260306     0.000000
    0.625670     0.625670     0.260306     0.000000
    0.375590     0.875590     0.260313     0.000000
    0.875590     0.875590     0.260313     0.000000
    0.375580     0.125690     0.362482     0.000000
    0.875580     0.125690     0.362482     0.000000
    0.125680     0.375590     0.362482     0.000000
    0.625680     0.375590     0.362482     0.000000
    0.375580     0.625690     0.362482     0.000000
    0.875580     0.625690     0.362482     0.000000
    0.125680     0.875590     0.362482     0.000000
    0.625680     0.875590     0.362482     0.000000
EA55    8.593  8.593 21.019 90.08 90.08 90.08 Sym.group:    0
1.0000
    8.593017     0.000000     0.000000
   -0.011983     8.593000     0.000000
   -0.029353    -0.029394    21.018959
   O  Cu
  17   40 
Direct
    0.790937     0.835317     0.503380     1.032971
    0.000610     0.000610     0.004757     0.000000
    0.500610     0.000610     0.004757     0.000000
    0.000610     0.500610     0.004757     0.000000
    0.500610     0.500610     0.004757     0.000000
    0.250790     0.250800     0.107041     0.000000
    0.750790     0.250800     0.107041     0.000000
    0.250790     0.750800     0.107041     0.000000
    0.750790     0.750800     0.107041     0.000000
    0.000610     0.000610     0.209175     0.000000
    0.500610     0.000610     0.209175     0.000000
    0.000610     0.500610     0.209175     0.000000
    0.500610     0.500610     0.209175     0.000000
    0.250790     0.250800     0.311459     0.000000
    0.750790     0.250800     0.311459     0.000000
    0.250790     0.750800     0.311459     0.000000
    0.750790     0.750800     0.311459     0.000000
    0.462241     0.229495     0.393768     1.030252
    0.057379     0.231271     0.494968     1.027671
    0.624407     0.471807     0.406620     1.030389
    0.154447     0.668787     0.406620     1.031473
    0.957467     0.471807     0.406620     1.025112
    0.427427     0.668787     0.406620     1.030008
    0.427427     0.001847     0.406620     1.033211
    0.081201     0.664078     0.465739     1.027559
    0.125670     0.125670     0.055888     0.000000
    0.625670     0.125670     0.055888     0.000000
    0.375590     0.375590     0.055892     0.000000
    0.875590     0.375590     0.055892     0.000000
    0.125670     0.625670     0.055888     0.000000
    0.625670     0.625670     0.055888     0.000000
    0.375590     0.875590     0.055892     0.000000
    0.875590     0.875590     0.055892     0.000000
    0.375580     0.125690     0.158064     0.000000
    0.875580     0.125690     0.158064     0.000000
    0.125680     0.375590     0.158064     0.000000
    0.625680     0.375590     0.158064     0.000000
    0.375580     0.625690     0.158064     0.000000
    0.875580     0.625690     0.158064     0.000000
    0.125680     0.875590     0.158064     0.000000
    0.625680     0.875590     0.158064     0.000000
    0.125670     0.125670     0.260306     0.000000
    0.625670     0.125670     0.260306     0.000000
    0.375590     0.375590     0.260313     0.000000
    0.875590     0.375590     0.260313     0.000000
    0.125670     0.625670     0.260306     0.000000
    0.625670     0.625670     0.260306     0.000000
    0.375590     0.875590     0.260313     0.000000
    0.875590     0.875590     0.260313     0.000000
    0.375580     0.125690     0.362482     0.000000
    0.875580     0.125690     0.362482     0.000000
    0.125680     0.375590     0.362482     0.000000
    0.625680     0.375590     0.362482     0.000000
    0.375580     0.625690     0.362482     0.000000
    0.875580     0.625690     0.362482     0.000000
    0.125680     0.875590     0.362482     0.000000
    0.625680     0.875590     0.362482     0.000000
EA56    8.593  8.593 21.019 90.08 90.08 90.08 Sym.group:    0
1.0000
    8.593017     0.000000     0.000000
   -0.011983     8.593000     0.000000
   -0.029353    -0.029394    21.018959
   O  Cu
  17   40 
Direct
    0.622399     0.246646     0.418470     1.032786
    0.000610     0.000610     0.004757     0.000000
    0.500610     0.000610     0.004757     0.000000
    0.000610     0.500610     0.004757     0.000000
    0.500610     0.500610     0.004757     0.000000
    0.250790     0.250800     0.107041     0.000000
    0.750790     0.250800     0.107041     0.000000
    0.250790     0.750800     0.107041     0.000000
    0.750790     0.750800     0.107041     0.000000
    0.000610     0.000610     0.209175     0.000000
    0.500610     0.000610     0.209175     0.000000
    0.000610     0.500610     0.209175     0.000000
    0.500610     0.500610     0.209175     0.000000
    0.250790     0.250800     0.311459     0.000000
    0.750790     0.250800     0.311459     0.000000
    0.250790     0.750800     0.311459     0.000000
    0.750790     0.750800     0.311459     0.000000
    0.489929     0.585986     0.396648     1.032474
    0.961739     0.114176     0.396648     1.026450
    0.283059     0.379116     0.396648     1.029758
    0.337713     0.970288     0.447006     1.022855
    0.876562     0.942917     0.455396     1.017729
    0.118656     0.789629     0.389617     1.026187
    0.423170     0.957698     0.522838     1.025330
    0.853238     0.814887     0.435339     1.025867
    0.125670     0.125670     0.055888     0.000000
    0.625670     0.125670     0.055888     0.000000
    0.375590     0.375590     0.055892     0.000000
    0.875590     0.375590     0.055892     0.000000
    0.125670     0.625670     0.055888     0.000000
    0.625670     0.625670     0.055888     0.000000
    0.375590     0.875590     0.055892     0.000000
    0.875590     0.875590     0.055892     0.000000
    0.375580     0.125690     0.158064     0.000000
    0.875580     0.125690     0.158064     0.000000
    0.125680     0.375590     0.158064     0.000000
    0.625680     0.375590     0.158064     0.000000
    0.375580     0.625690     0.158064     0.000000
    0.875580     0.625690     0.158064     0.000000
    0.125680     0.875590     0.158064     0.000000
    0.625680     0.875590     0.158064     0.000000
    0.125670     0.125670     0.260306     0.000000
    0.625670     0.125670     0.260306     0.000000
    0.375590     0.375590     0.260313     0.000000
    0.875590     0.375590     0.260313     0.000000
    0.125670     0.625670     0.260306     0.000000
    0.625670     0.625670     0.260306     0.000000
    0.375590     0.875590     0.260313     0.000000
    0.875590     0.875590     0.260313     0.000000
    0.375580     0.125690     0.362482     0.000000
    0.875580     0.125690     0.362482     0.000000
    0.125680     0.375590     0.362482     0.000000
    0.625680     0.375590     0.362482     0.000000
    0.375580     0.625690     0.362482     0.000000
    0.875580     0.625690     0.362482     0.000000
    0.125680     0.875590     0.362482     0.000000
    0.625680     0.875590     0.362482     0.000000
EA57    8.593  8.593 21.019 90.08 90.08 90.08 Sym.group:    0
1.0000
    8.593017     0.000000     0.000000
   -0.011983     8.593000     0.000000
   -0.029353    -0.029394    21.018959
   O  Cu
  17   40 
Direct
    0.171671     0.702053     0.477368     1.033071
    0.000610     0.000610     0.004757     0.000000
    0.500610     0.000610     0.004757     0.000000
    0.000610     0.500610     0.004757     0.000000
    0.500610     0.500610     0.004757     0.000000
    0.250790     0.250800     0.107041     0.000000
    0.750790     0.250800     0.107041     0.000000
    0.250790     0.750800     0.107041     0.000000
    0.750790     0.750800     0.107041     0.000000
    0.000610     0.000610     0.209175     0.000000
    0.500610     0.000610     0.209175     0.000000
    0.000610     0.500610     0.209175     0.000000
    0.500610     0.500610     0.209175     0.000000
    0.250790     0.250800     0.311459     0.000000
    0.750790     0.250800     0.311459     0.000000
    0.250790     0.750800     0.311459     0.000000
    0.750790     0.750800     0.311459     0.000000
    0.417441     0.659483     0.480526     1.033190
    0.214241     0.990393     0.480526     1.028621
    0.129101     0.413713     0.480526     1.032475
    0.626527     0.944706     0.503294     1.031525
    0.626527     0.337556     0.503294     1.031371
    0.840827     0.944706     0.503294     1.026819
    0.840827     0.551856     0.503294     1.030683
    0.900347     0.278036     0.384087     1.026930
    0.125670     0.125670     0.055888     0.000000
    0.625670     0.125670     0.055888     0.000000
    0.375590     0.375590     0.055892     0.000000
    0.875590     0.375590     0.055892     0.000000
    0.125670     0.625670     0.055888     0.000000
    0.625670     0.625670     0.055888     0.000000
    0.375590     0.875590     0.055892     0.000000
    0.875590     0.875590     0.055892     0.000000
    0.375580     0.125690     0.158064     0.000000
    0.875580     0.125690     0.158064     0.000000
    0.125680     0.375590     0.158064     0.000000
    0.625680     0.375590     0.158064     0.000000
    0.375580     0.625690     0.158064     0.000000
    0.875580     0.625690     0.158064     0.000000
    0.125680     0.875590     0.158064     0.000000
    0.625680     0.875590     0.158064     0.000000
    0.125670     0.125670     0.260306     0.000000
    0.625670     0.125670     0.260306     0.000000
    0.375590     0.375590     0.260313     0.000000
    0.875590     0.375590     0.260313     0.000000
    0.125670     0.625670     0.260306     0.000000
    0.625670     0.625670     0.260306     0.000000
    0.375590     0.875590     0.260313     0.000000
    0.875590     0.875590     0.260313     0.000000
    0.375580     0.125690     0.362482     0.000000
    0.875580     0.125690     0.362482     0.000000
    0.125680     0.375590     0.362482     0.000000
    0.625680     0.375590     0.362482     0.000000
    0.375580     0.625690     0.362482     0.000000
    0.875580     0.625690     0.362482     0.000000
    0.125680     0.875590     0.362482     0.000000
    0.625680     0.875590     0.362482     0.000000
EA58    8.593  8.593 21.019 90.08 90.08 90.08 Sym.group:    0
1.0000
    8.593017     0.000000     0.000000
   -0.011983     8.593000     0.000000
   -0.029353    -0.029394    21.018959
   O  Cu
  17   40 
Direct
    0.630961     0.609231     0.506863     1.027866
    0.000610     0.000610     0.004757     0.000000
    0.500610     0.000610     0.004757     0.000000
    0.000610     0.500610     0.004757     0.000000
    0.500610     0.500610     0.004757     0.000000
    0.250790     0.250800     0.107041     0.000000
    0.750790     0.250800     0.107041     0.000000
    0.250790     0.750800     0.107041     0.000000
    0.750790     0.750800     0.107041     0.000000
    0.000610     0.000610     0.209175     0.000000
    0.500610     0.000610     0.209175     0.000000
    0.000610     0.500610     0.209175     0.000000
    0.500610     0.500610     0.209175     0.000000
    0.250790     0.250800     0.311459     0.000000
    0.750790     0.250800     0.311459     0.000000
    0.250790     0.750800     0.311459     0.000000
    0.750790     0.750800     0.311459     0.000000
    0.316561     0.114281     0.435499     1.026307
    0.245391     0.765051     0.435499     1.029684
    0.656881     0.511421     0.435499     1.031037
    0.132531     0.651011     0.435499     1.028862
    0.814813     0.676326     0.523840     1.032895
    0.815800     0.385262     0.434840     1.029524
    0.294496     0.526649     0.493465     1.026035
    0.973871     0.110311     0.435499     1.032833
    0.125670     0.125670     0.055888     0.000000
    0.625670     0.125670     0.055888     0.000000
    0.375590     0.375590     0.055892     0.000000
    0.875590     0.375590     0.055892     0.000000
    0.125670     0.625670     0.055888     0.000000
    0.625670     0.625670     0.055888     0.000000
    0.375590     0.875590     0.055892     0.000000
    0.875590     0.875590     0.055892     0.000000
    0.375580     0.125690     0.158064     0.000000
    0.875580     0.125690     0.158064     0.000000
    0.125680     0.375590     0.158064     0.000000
    0.625680     0.375590     0.158064     0.000000
    0.375580     0.625690     0.158064     0.000000
    0.875580     0.625690     0.158064     0.000000
    0.125680     0.875590     0.158064     0.000000
    0.625680     0.875590     0.158064     0.000000
    0.125670     0.125670     0.260306     0.000000
    0.625670     0.125670     0.260306     0.000000
    0.375590     0.375590     0.260313     0.000000
    0.875590     0.375590     0.260313     0.000000
    0.125670     0.625670     0.260306     0.000000
    0.625670     0.625670     0.260306     0.000000
    0.375590     0.875590     0.260313     0.000000
    0.875590     0.875590     0.260313     0.000000
    0.375580     0.125690     0.362482     0.000000
    0.875580     0.125690     0.362482     0.000000
    0.125680     0.375590     0.362482     0.000000
    0.625680     0.375590     0.362482     0.000000
    0.375580     0.625690     0.362482     0.000000
    0.875580     0.625690     0.362482     0.000000
    0.125680     0.875590     0.362482     0.000000
    0.625680     0.875590     0.362482     0.000000
EA59    8.593  8.593 21.019 90.08 90.08 90.08 Sym.group:    0
1.0000
    8.593017     0.000000     0.000000
   -0.011983     8.593000     0.000000
   -0.029353    -0.029394    21.018959
   O  Cu
  17   40 
Direct
    0.432794     0.081572     0.420372     1.032647
    0.000610     0.000610     0.004757     0.000000
    0.500610     0.000610     0.004757     0.000000
    0.000610     0.500610     0.004757     0.000000
    0.500610     0.500610     0.004757     0.000000
    0.250790     0.250800     0.107041     0.000000
    0.750790     0.250800     0.107041     0.000000
    0.250790     0.750800     0.107041     0.000000
    0.750790     0.750800     0.107041     0.000000
    0.000610     0.000610     0.209175     0.000000
    0.500610     0.000610     0.209175     0.000000
    0.000610     0.500610     0.209175     0.000000
    0.500610     0.500610     0.209175     0.000000
    0.250790     0.250800     0.311459     0.000000
    0.750790     0.250800     0.311459     0.000000
    0.250790     0.750800     0.311459     0.000000
    0.750790     0.750800     0.311459     0.000000
    0.300324     0.420912     0.398550     1.027656
    0.093454     0.214042     0.398550     1.027957
    0.004564     0.509802     0.491405     1.024373
    0.683614     0.332392     0.470188     1.027740
    0.756486     0.706533     0.421366     1.029377
    0.721286     0.902333     0.498845     1.031402
    0.562616     0.709043     0.470002     1.032826
    0.772134     0.949102     0.398550     1.032284
    0.125670     0.125670     0.055888     0.000000
    0.625670     0.125670     0.055888     0.000000
    0.375590     0.375590     0.055892     0.000000
    0.875590     0.375590     0.055892     0.000000
    0.125670     0.625670     0.055888     0.000000
    0.625670     0.625670     0.055888     0.000000
    0.375590     0.875590     0.055892     0.000000
    0.875590     0.875590     0.055892     0.000000
    0.375580     0.125690     0.158064     0.000000
    0.875580     0.125690     0.158064     0.000000
    0.125680     0.375590     0.158064     0.000000
    0.625680     0.375590     0.158064     0.000000
    0.375580     0.625690     0.158064     0.000000
    0.875580     0.625690     0.158064     0.000000
    0.125680     0.875590     0.158064     0.000000
    0.625680     0.875590     0.158064     0.000000
    0.125670     0.125670     0.260306     0.000000
    0.625670     0.125670     0.260306     0.000000
    0.375590     0.375590     0.260313     0.000000
    0.875590     0.375590     0.260313     0.000000
    0.125670     0.625670     0.260306     0.000000
    0.625670     0.625670     0.260306     0.000000
    0.375590     0.875590     0.260313     0.000000
    0.875590     0.875590     0.260313     0.000000
    0.375580     0.125690     0.362482     0.000000
    0.875580     0.125690     0.362482     0.000000
    0.125680     0.375590     0.362482     0.000000
    0.625680     0.375590     0.362482     0.000000
    0.375580     0.625690     0.362482     0.000000
    0.875580     0.625690     0.362482     0.000000
    0.125680     0.875590     0.362482     0.000000
    0.625680     0.875590     0.362482     0.000000
EA60    8.593  8.593 21.019 90.08 90.08 90.08 Sym.group:    0
1.0000
    8.593017     0.000000     0.000000
   -0.011983     8.593000     0.000000
   -0.029353    -0.029394    21.018959
   O  Cu
  17   40 
Direct
    0.007587     0.360531     0.432994     1.033260
    0.000610     0.000610     0.004757     0.000000
    0.500610     0.000610     0.004757     0.000000
    0.000610     0.500610     0.004757     0.000000
    0.500610     0.500610     0.004757     0.000000
    0.250790     0.250800     0.107041     0.000000
    0.750790     0.250800     0.107041     0.000000
    0.250790     0.750800     0.107041     0.000000
    0.750790     0.750800     0.107041     0.000000
    0.000610     0.000610     0.209175     0.000000
    0.500610     0.000610     0.209175     0.000000
    0.000610     0.500610     0.209175     0.000000
    0.500610     0.500610     0.209175     0.000000
    0.250790     0.250800     0.311459     0.000000
    0.750790     0.250800     0.311459     0.000000
    0.250790     0.750800     0.311459     0.000000
    0.750790     0.750800     0.311459     0.000000
    0.475777     0.026641     0.454049     1.016980
    0.341477     0.162601     0.454049     1.017966
    0.205517     0.026641     0.454049     1.025488
    0.475777     0.162601     0.454049     1.022244
    0.674257     0.693861     0.504097     1.033259
    0.340917     0.027201     0.458655     1.021992
    0.199794     0.938521     0.421506     1.023926
    0.516784     0.537411     0.421506     1.021626
    0.125670     0.125670     0.055888     0.000000
    0.625670     0.125670     0.055888     0.000000
    0.375590     0.375590     0.055892     0.000000
    0.875590     0.375590     0.055892     0.000000
    0.125670     0.625670     0.055888     0.000000
    0.625670     0.625670     0.055888     0.000000
    0.375590     0.875590     0.055892     0.000000
    0.875590     0.875590     0.055892     0.000000
    0.375580     0.125690     0.158064     0.000000
    0.875580     0.125690     0.158064     0.000000
    0.125680     0.375590     0.158064     0.000000
    0.625680     0.375590     0.158064     0.000000
    0.375580     0.625690     0.158064     0.000000
    0.875580     0.625690     0.158064     0.000000
    0.125680     0.875590     0.158064     0.000000
    0.625680     0.875590     0.158064     0.000000
    0.125670     0.125670     0.260306     0.000000
    0.625670     0.125670     0.260306     0.000000
    0.375590     0.375590     0.260313     0.000000
    0.875590     0.375590     0.260313     0.000000
    0.125670     0.625670     0.260306     0.000000
    0.625670     0.625670     0.260306     0.000000
    0.375590     0.875590     0.260313     0.000000
    0.875590     0.875590     0.260313     0.000000
    0.375580     0.125690     0.362482     0.000000
    0.875580     0.125690     0.362482     0.000000
    0.125680     0.375590     0.362482     0.000000
    0.625680     0.375590     0.362482     0.000000
    0.375580     0.625690     0.362482     0.000000
    0.875580     0.625690     0.362482     0.000000
    0.125680     0.875590     0.362482     0.000000
    0.625680     0.875590     0.362482     0.000000
EA61    8.593  8.593 21.019 90.08 90.08 90.08 Sym.group:    0
1.0000
    8.593017     0.000000     0.000000
   -0.011983     8.593000     0.000000
   -0.029353    -0.029394    21.018959
   O  Cu
  17   40 
Direct
    0.953728     0.339679     0.511667     1.014824
    0.000610     0.000610     0.004757     0.000000
    0.500610     0.000610     0.004757     0.000000
    0.000610     0.500610     0.004757     0.000000
    0.500610     0.500610     0.004757     0.000000
    0.250790     0.250800     0.107041     0.000000
    0.750790     0.250800     0.107041     0.000000
    0.250790     0.750800     0.107041     0.000000
    0.750790     0.750800     0.107041     0.000000
    0.000610     0.000610     0.209175     0.000000
    0.500610     0.000610     0.209175     0.000000
    0.000610     0.500610     0.209175     0.000000
    0.500610     0.500610     0.209175     0.000000
    0.250790     0.250800     0.311459     0.000000
    0.750790     0.250800     0.311459     0.000000
    0.250790     0.750800     0.311459     0.000000
    0.750790     0.750800     0.311459     0.000000
    0.251690     0.232926     0.456646     1.030911
    0.251690     0.447226     0.456646     1.030364
    0.720958     0.974029     0.457686     1.028422
    0.588078     0.572449     0.457686     1.021422
    0.720958     0.705329     0.457686     1.026145
    0.588078     0.106909     0.457686     1.025215
    0.186498     0.705329     0.457686     1.029775
    0.644540     0.232926     0.456646     1.023811
    0.125670     0.125670     0.055888     0.000000
    0.625670     0.125670     0.055888     0.000000
    0.375590     0.375590     0.055892     0.000000
    0.875590     0.375590     0.055892     0.000000
    0.125670     0.625670     0.055888     0.000000
    0.625670     0.625670     0.055888     0.000000
    0.375590     0.875590     0.055892     0.000000
    0.875590     0.875590     0.055892     0.000000
    0.375580     0.125690     0.158064     0.000000
    0.875580     0.125690     0.158064     0.000000
    0.125680     0.375590     0.158064     0.000000
    0.625680     0.375590     0.158064     0.000000
    0.375580     0.625690     0.158064     0.000000
    0.875580     0.625690     0.158064     0.000000
    0.125680     0.875590     0.158064     0.000000
    0.625680     0.875590     0.158064     0.000000
    0.125670     0.125670     0.260306     0.000000
    0.625670     0.125670     0.260306     0.000000
    0.375590     0.375590     0.260313     0.000000
    0.875590     0.375590     0.260313     0.000000
    0.125670     0.625670     0.260306     0.000000
    0.625670     0.625670     0.260306     0.000000
    0.375590     0.875590     0.260313     0.000000
    0.875590     0.875590     0.260313     0.000000
    0.375580     0.125690     0.362482     0.000000
    0.875580     0.125690     0.362482     0.000000
    0.125680     0.375590     0.362482     0.000000
    0.625680     0.375590     0.362482     0.000000
    0.375580     0.625690     0.362482     0.000000
    0.875580     0.625690     0.362482     0.000000
    0.125680     0.875590     0.362482     0.000000
    0.625680     0.875590     0.362482     0.000000
EA62    8.593  8.593 21.019 90.08 90.08 90.08 Sym.group:    0
1.0000
    8.593017     0.000000     0.000000
   -0.011983     8.593000     0.000000
   -0.029353    -0.029394    21.018959
   O  Cu
  17   40 
Direct
    0.928604     0.443215     0.484478     1.030736
    0.000610     0.000610     0.004757     0.000000
    0.500610     0.000610     0.004757     0.000000
    0.000610     0.500610     0.004757     0.000000
    0.500610     0.500610     0.004757     0.000000
    0.250790     0.250800     0.107041     0.000000
    0.750790     0.250800     0.107041     0.000000
    0.250790     0.750800     0.107041     0.000000
    0.750790     0.750800     0.107041     0.000000
    0.000610     0.000610     0.209175     0.000000
    0.500610     0.000610     0.209175     0.000000
    0.000610     0.500610     0.209175     0.000000
    0.500610     0.500610     0.209175     0.000000
    0.250790     0.250800     0.311459     0.000000
    0.750790     0.250800     0.311459     0.000000
    0.250790     0.750800     0.311459     0.000000
    0.750790     0.750800     0.311459     0.000000
    0.285194     0.319315     0.446218     1.027912
    0.092614     0.898085     0.437724     1.023694
    0.383474     0.607225     0.437724     1.022398
    0.756530     0.022122     0.431647     1.027749
    0.756530     0.414972     0.431647     1.032653
    0.970830     0.022122     0.431647     1.030565
    0.970830     0.629272     0.431647     1.023203
    0.697010     0.688792     0.455168     1.023702
    0.125670     0.125670     0.055888     0.000000
    0.625670     0.125670     0.055888     0.000000
    0.375590     0.375590     0.055892     0.000000
    0.875590     0.375590     0.055892     0.000000
    0.125670     0.625670     0.055888     0.000000
    0.625670     0.625670     0.055888     0.000000
    0.375590     0.875590     0.055892     0.000000
    0.875590     0.875590     0.055892     0.000000
    0.375580     0.125690     0.158064     0.000000
    0.875580     0.125690     0.158064     0.000000
    0.125680     0.375590     0.158064     0.000000
    0.625680     0.375590     0.158064     0.000000
    0.375580     0.625690     0.158064     0.000000
    0.875580     0.625690     0.158064     0.000000
    0.125680     0.875590     0.158064     0.000000
    0.625680     0.875590     0.158064     0.000000
    0.125670     0.125670     0.260306     0.000000
    0.625670     0.125670     0.260306     0.000000
    0.375590     0.375590     0.260313     0.000000
    0.875590     0.375590     0.260313     0.000000
    0.125670     0.625670     0.260306     0.000000
    0.625670     0.625670     0.260306     0.000000
    0.375590     0.875590     0.260313     0.000000
    0.875590     0.875590     0.260313     0.000000
    0.375580     0.125690     0.362482     0.000000
    0.875580     0.125690     0.362482     0.000000
    0.125680     0.375590     0.362482     0.000000
    0.625680     0.375590     0.362482     0.000000
    0.375580     0.625690     0.362482     0.000000
    0.875580     0.625690     0.362482     0.000000
    0.125680     0.875590     0.362482     0.000000
    0.625680     0.875590     0.362482     0.000000
EA63    8.593  8.593 21.019 90.08 90.08 90.08 Sym.group:    0
1.0000
    8.593017     0.000000     0.000000
   -0.011983     8.593000     0.000000
   -0.029353    -0.029394    21.018959
   O  Cu
  17   40 
Direct
    0.910602     0.731001     0.413076     1.027474
    0.000610     0.000610     0.004757     0.000000
    0.500610     0.000610     0.004757     0.000000
    0.000610     0.500610     0.004757     0.000000
    0.500610     0.500610     0.004757     0.000000
    0.250790     0.250800     0.107041     0.000000
    0.750790     0.250800     0.107041     0.000000
    0.250790     0.750800     0.107041     0.000000
    0.750790     0.750800     0.107041     0.000000
    0.000610     0.000610     0.209175     0.000000
    0.500610     0.000610     0.209175     0.000000
    0.000610     0.500610     0.209175     0.000000
    0.500610     0.500610     0.209175     0.000000
    0.250790     0.250800     0.311459     0.000000
    0.750790     0.250800     0.311459     0.000000
    0.250790     0.750800     0.311459     0.000000
    0.750790     0.750800     0.311459     0.000000
    0.202935     0.091190     0.383136     1.028061
    0.524255     0.356130     0.383136     1.028515
    0.291825     0.795430     0.475991     1.020012
    0.435365     0.651890     0.475991     1.020706
    0.114415     0.474480     0.454774     1.032601
    0.831812     0.072351     0.430647     1.033403
    0.569252     0.310871     0.430647     1.033080
    0.577262     0.064341     0.434753     1.032866
    0.125670     0.125670     0.055888     0.000000
    0.625670     0.125670     0.055888     0.000000
    0.375590     0.375590     0.055892     0.000000
    0.875590     0.375590     0.055892     0.000000
    0.125670     0.625670     0.055888     0.000000
    0.625670     0.625670     0.055888     0.000000
    0.375590     0.875590     0.055892     0.000000
    0.875590     0.875590     0.055892     0.000000
    0.375580     0.125690     0.158064     0.000000
    0.875580     0.125690     0.158064     0.000000
    0.125680     0.375590     0.158064     0.000000
    0.625680     0.375590     0.158064     0.000000
    0.375580     0.625690     0.158064     0.000000
    0.875580     0.625690     0.158064     0.000000
    0.125680     0.875590     0.158064     0.000000
    0.625680     0.875590     0.158064     0.000000
    0.125670     0.125670     0.260306     0.000000
    0.625670     0.125670     0.260306     0.000000
    0.375590     0.375590     0.260313     0.000000
    0.875590     0.375590     0.260313     0.000000
    0.125670     0.625670     0.260306     0.000000
    0.625670     0.625670     0.260306     0.000000
    0.375590     0.875590     0.260313     0.000000
    0.875590     0.875590     0.260313     0.000000
    0.375580     0.125690     0.362482     0.000000
    0.875580     0.125690     0.362482     0.000000
    0.125680     0.375590     0.362482     0.000000
    0.625680     0.375590     0.362482     0.000000
    0.375580     0.625690     0.362482     0.000000
    0.875580     0.625690     0.362482     0.000000
    0.125680     0.875590     0.362482     0.000000
    0.625680     0.875590     0.362482     0.000000
EA64    8.593  8.593 21.019 90.08 90.08 90.08 Sym.group:    0
1.0000
    8.593017     0.000000     0.000000
   -0.011983     8.593000     0.000000
   -0.029353    -0.029394    21.018959
   O  Cu
  17   40 
Direct
    0.712295     0.222888     0.493734     1.033143
    0.000610     0.000610     0.004757     0.000000
    0.500610     0.000610     0.004757     0.000000
    0.000610     0.500610     0.004757     0.000000
    0.500610     0.500610     0.004757     0.000000
    0.250790     0.250800     0.107041     0.000000
    0.750790     0.250800     0.107041     0.000000
    0.250790     0.750800     0.107041     0.000000
    0.750790     0.750800     0.107041     0.000000
    0.000610     0.000610     0.209175     0.000000
    0.500610     0.000610     0.209175     0.000000
    0.000610     0.500610     0.209175     0.000000
    0.500610     0.500610     0.209175     0.000000
    0.250790     0.250800     0.311459     0.000000
    0.750790     0.250800     0.311459     0.000000
    0.250790     0.750800     0.311459     0.000000
    0.750790     0.750800     0.311459     0.000000
    0.958065     0.180318     0.496892     1.029338
    0.000635     0.468658     0.496892     1.024645
    0.754865     0.511228     0.496892     1.028354
    0.466525     0.265458     0.496892     1.024513
    0.378965     0.556218     0.403255     1.022305
    0.104152     0.965461     0.446598     1.032121
    0.897282     0.758591     0.446598     1.019983
    0.487442     0.876941     0.518236     1.023186
    0.125670     0.125670     0.055888     0.000000
    0.625670     0.125670     0.055888     0.000000
    0.375590     0.375590     0.055892     0.000000
    0.875590     0.375590     0.055892     0.000000
    0.125670     0.625670     0.055888     0.000000
    0.625670     0.625670     0.055888     0.000000
    0.375590     0.875590     0.055892     0.000000
    0.875590     0.875590     0.055892     0.000000
    0.375580     0.125690     0.158064     0.000000
    0.875580     0.125690     0.158064     0.000000
    0.125680     0.375590     0.158064     0.000000
    0.625680     0.375590     0.158064     0.000000
    0.375580     0.625690     0.158064     0.000000
    0.875580     0.625690     0.158064     0.000000
    0.125680     0.875590     0.158064     0.000000
    0.625680     0.875590     0.158064     0.000000
    0.125670     0.125670     0.260306     0.000000
    0.625670     0.125670     0.260306     0.000000
    0.375590     0.375590     0.260313     0.000000
    0.875590     0.375590     0.260313     0.000000
    0.125670     0.625670     0.260306     0.000000
    0.625670     0.625670     0.260306     0.000000
    0.375590     0.875590     0.260313     0.000000
    0.875590     0.875590     0.260313     0.000000
    0.375580     0.125690     0.362482     0.000000
    0.875580     0.125690     0.362482     0.000000
    0.125680     0.375590     0.362482     0.000000
    0.625680     0.375590     0.362482     0.000000
    0.375580     0.625690     0.362482     0.000000
    0.875580     0.625690     0.362482     0.000000
    0.125680     0.875590     0.362482     0.000000
    0.625680     0.875590     0.362482     0.000000
EA65    8.593  8.593 21.019 90.08 90.08 90.08 Sym.group:    0
1.0000
    8.593017     0.000000     0.000000
   -0.011983     8.593000     0.000000
   -0.029353    -0.029394    21.018959
   O  Cu
  17   40 
Direct
    0.470670     0.404680     0.466481     1.022424
    0.000610     0.000610     0.004757     0.000000
    0.500610     0.000610     0.004757     0.000000
    0.000610     0.500610     0.004757     0.000000
    0.500610     0.500610     0.004757     0.000000
    0.250790     0.250800     0.107041     0.000000
    0.750790     0.250800     0.107041     0.000000
    0.250790     0.750800     0.107041     0.000000
    0.750790     0.750800     0.107041     0.000000
    0.000610     0.000610     0.209175     0.000000
    0.500610     0.000610     0.209175     0.000000
    0.000610     0.500610     0.209175     0.000000
    0.500610     0.500610     0.209175     0.000000
    0.250790     0.250800     0.311459     0.000000
    0.750790     0.250800     0.311459     0.000000
    0.250790     0.750800     0.311459     0.000000
    0.750790     0.750800     0.311459     0.000000
    0.206380     0.588060     0.411964     1.020542
    0.206380     0.786640     0.440307     1.024005
    0.738180     0.316550     0.433531     1.023787
    0.738180     0.635540     0.479059     1.028208
    0.129900     0.016580     0.473616     1.032824
    0.129900     0.354690     0.521874     1.020686
    0.336630     0.385360     0.447368     1.020840
    0.336630     0.538590     0.469238     1.016424
    0.125670     0.125670     0.055888     0.000000
    0.625670     0.125670     0.055888     0.000000
    0.375590     0.375590     0.055892     0.000000
    0.875590     0.375590     0.055892     0.000000
    0.125670     0.625670     0.055888     0.000000
    0.625670     0.625670     0.055888     0.000000
    0.375590     0.875590     0.055892     0.000000
    0.875590     0.875590     0.055892     0.000000
    0.375580     0.125690     0.158064     0.000000
    0.875580     0.125690     0.158064     0.000000
    0.125680     0.375590     0.158064     0.000000
    0.625680     0.375590     0.158064     0.000000
    0.375580     0.625690     0.158064     0.000000
    0.875580     0.625690     0.158064     0.000000
    0.125680     0.875590     0.158064     0.000000
    0.625680     0.875590     0.158064     0.000000
    0.125670     0.125670     0.260306     0.000000
    0.625670     0.125670     0.260306     0.000000
    0.375590     0.375590     0.260313     0.000000
    0.875590     0.375590     0.260313     0.000000
    0.125670     0.625670     0.260306     0.000000
    0.625670     0.625670     0.260306     0.000000
    0.375590     0.875590     0.260313     0.000000
    0.875590     0.875590     0.260313     0.000000
    0.375580     0.125690     0.362482     0.000000
    0.875580     0.125690     0.362482     0.000000
    0.125680     0.375590     0.362482     0.000000
    0.625680     0.375590     0.362482     0.000000
    0.375580     0.625690     0.362482     0.000000
    0.875580     0.625690     0.362482     0.000000
    0.125680     0.875590     0.362482     0.000000
    0.625680     0.875590     0.362482     0.000000
EA66    8.593  8.593 21.019 90.08 90.08 90.08 Sym.group:    0
1.0000
    8.593017     0.000000     0.000000
   -0.011983     8.593000     0.000000
   -0.029353    -0.029394    21.018959
   O  Cu
  17   40 
Direct
    0.000000     0.000000     0.445912     1.033241
    0.000610     0.000610     0.004757     0.000000
    0.500610     0.000610     0.004757     0.000000
    0.000610     0.500610     0.004757     0.000000
    0.500610     0.500610     0.004757     0.000000
    0.250790     0.250800     0.107041     0.000000
    0.750790     0.250800     0.107041     0.000000
    0.250790     0.750800     0.107041     0.000000
    0.750790     0.750800     0.107041     0.000000
    0.000610     0.000610     0.209175     0.000000
    0.500610     0.000610     0.209175     0.000000
    0.000610     0.500610     0.209175     0.000000
    0.500610     0.500610     0.209175     0.000000
    0.250790     0.250800     0.311459     0.000000
    0.750790     0.250800     0.311459     0.000000
    0.250790     0.750800     0.311459     0.000000
    0.750790     0.750800     0.311459     0.000000
    0.721070     0.296420     0.391697     1.022682
    0.703580     0.424650     0.391697     1.021812
    0.575350     0.278930     0.391697     1.022256
    0.010140     0.724610     0.486421     1.028813
    0.275390     0.285540     0.486421     1.025006
    0.714460     0.989860     0.486421     1.026330
    0.333330     0.666670     0.501883     1.027067
    0.000000     0.000000     0.387372     1.033154
    0.125670     0.125670     0.055888     0.000000
    0.625670     0.125670     0.055888     0.000000
    0.375590     0.375590     0.055892     0.000000
    0.875590     0.375590     0.055892     0.000000
    0.125670     0.625670     0.055888     0.000000
    0.625670     0.625670     0.055888     0.000000
    0.375590     0.875590     0.055892     0.000000
    0.875590     0.875590     0.055892     0.000000
    0.375580     0.125690     0.158064     0.000000
    0.875580     0.125690     0.158064     0.000000
    0.125680     0.375590     0.158064     0.000000
    0.625680     0.375590     0.158064     0.000000
    0.375580     0.625690     0.158064     0.000000
    0.875580     0.625690     0.158064     0.000000
    0.125680     0.875590     0.158064     0.000000
    0.625680     0.875590     0.158064     0.000000
    0.125670     0.125670     0.260306     0.000000
    0.625670     0.125670     0.260306     0.000000
    0.375590     0.375590     0.260313     0.000000
    0.875590     0.375590     0.260313     0.000000
    0.125670     0.625670     0.260306     0.000000
    0.625670     0.625670     0.260306     0.000000
    0.375590     0.875590     0.260313     0.000000
    0.875590     0.875590     0.260313     0.000000
    0.375580     0.125690     0.362482     0.000000
    0.875580     0.125690     0.362482     0.000000
    0.125680     0.375590     0.362482     0.000000
    0.625680     0.375590     0.362482     0.000000
    0.375580     0.625690     0.362482     0.000000
    0.875580     0.625690     0.362482     0.000000
    0.125680     0.875590     0.362482     0.000000
    0.625680     0.875590     0.362482     0.000000
EA67    8.593  8.593 21.019 90.08 90.08 90.08 Sym.group:    0
1.0000
    8.593017     0.000000     0.000000
   -0.011983     8.593000     0.000000
   -0.029353    -0.029394    21.018959
   O  Cu
  17   40 
Direct
    0.000000     0.000000     0.404662     1.028762
    0.000610     0.000610     0.004757     0.000000
    0.500610     0.000610     0.004757     0.000000
    0.000610     0.500610     0.004757     0.000000
    0.500610     0.500610     0.004757     0.000000
    0.250790     0.250800     0.107041     0.000000
    0.750790     0.250800     0.107041     0.000000
    0.250790     0.750800     0.107041     0.000000
    0.750790     0.750800     0.107041     0.000000
    0.000610     0.000610     0.209175     0.000000
    0.500610     0.000610     0.209175     0.000000
    0.000610     0.500610     0.209175     0.000000
    0.500610     0.500610     0.209175     0.000000
    0.250790     0.250800     0.311459     0.000000
    0.750790     0.250800     0.311459     0.000000
    0.250790     0.750800     0.311459     0.000000
    0.750790     0.750800     0.311459     0.000000
    0.677260     0.576510     0.490218     1.028318
    0.322740     0.423490     0.490218     1.028215
    0.099240     0.899920     0.497961     1.026676
    0.900760     0.100080     0.497961     1.026637
    0.970660     0.696050     0.390228     1.020568
    0.029340     0.303950     0.390228     1.020506
    0.828540     0.753690     0.453013     1.023539
    0.171460     0.246310     0.453013     1.023631
    0.125670     0.125670     0.055888     0.000000
    0.625670     0.125670     0.055888     0.000000
    0.375590     0.375590     0.055892     0.000000
    0.875590     0.375590     0.055892     0.000000
    0.125670     0.625670     0.055888     0.000000
    0.625670     0.625670     0.055888     0.000000
    0.375590     0.875590     0.055892     0.000000
    0.875590     0.875590     0.055892     0.000000
    0.375580     0.125690     0.158064     0.000000
    0.875580     0.125690     0.158064     0.000000
    0.125680     0.375590     0.158064     0.000000
    0.625680     0.375590     0.158064     0.000000
    0.375580     0.625690     0.158064     0.000000
    0.875580     0.625690     0.158064     0.000000
    0.125680     0.875590     0.158064     0.000000
    0.625680     0.875590     0.158064     0.000000
    0.125670     0.125670     0.260306     0.000000
    0.625670     0.125670     0.260306     0.000000
    0.375590     0.375590     0.260313     0.000000
    0.875590     0.375590     0.260313     0.000000
    0.125670     0.625670     0.260306     0.000000
    0.625670     0.625670     0.260306     0.000000
    0.375590     0.875590     0.260313     0.000000
    0.875590     0.875590     0.260313     0.000000
    0.375580     0.125690     0.362482     0.000000
    0.875580     0.125690     0.362482     0.000000
    0.125680     0.375590     0.362482     0.000000
    0.625680     0.375590     0.362482     0.000000
    0.375580     0.625690     0.362482     0.000000
    0.875580     0.625690     0.362482     0.000000
    0.125680     0.875590     0.362482     0.000000
    0.625680     0.875590     0.362482     0.000000
EA68    8.593  8.593 21.019 90.08 90.08 90.08 Sym.group:    0
1.0000
    8.593017     0.000000     0.000000
   -0.011983     8.593000     0.000000
   -0.029353    -0.029394    21.018959
   O  Cu
  17   40 
Direct
    0.500000     0.500000     0.443335     1.032880
    0.000610     0.000610     0.004757     0.000000
    0.500610     0.000610     0.004757     0.000000
    0.000610     0.500610     0.004757     0.000000
    0.500610     0.500610     0.004757     0.000000
    0.250790     0.250800     0.107041     0.000000
    0.750790     0.250800     0.107041     0.000000
    0.250790     0.750800     0.107041     0.000000
    0.750790     0.750800     0.107041     0.000000
    0.000610     0.000610     0.209175     0.000000
    0.500610     0.000610     0.209175     0.000000
    0.000610     0.500610     0.209175     0.000000
    0.500610     0.500610     0.209175     0.000000
    0.250790     0.250800     0.311459     0.000000
    0.750790     0.250800     0.311459     0.000000
    0.250790     0.750800     0.311459     0.000000
    0.750790     0.750800     0.311459     0.000000
    0.184790     0.658890     0.491096     1.025171
    0.815210     0.341110     0.491096     1.025206
    0.341110     0.815210     0.491096     1.025206
    0.658890     0.184790     0.491096     1.025171
    0.328030     0.328030     0.446566     1.025204
    0.671970     0.671970     0.446566     1.025143
    0.837270     0.837270     0.506139     1.025672
    0.162730     0.162730     0.506139     1.025640
    0.125670     0.125670     0.055888     0.000000
    0.625670     0.125670     0.055888     0.000000
    0.375590     0.375590     0.055892     0.000000
    0.875590     0.375590     0.055892     0.000000
    0.125670     0.625670     0.055888     0.000000
    0.625670     0.625670     0.055888     0.000000
    0.375590     0.875590     0.055892     0.000000
    0.875590     0.875590     0.055892     0.000000
    0.375580     0.125690     0.158064     0.000000
    0.875580     0.125690     0.158064     0.000000
    0.125680     0.375590     0.158064     0.000000
    0.625680     0.375590     0.158064     0.000000
    0.375580     0.625690     0.158064     0.000000
    0.875580     0.625690     0.158064     0.000000
    0.125680     0.875590     0.158064     0.000000
    0.625680     0.875590     0.158064     0.000000
    0.125670     0.125670     0.260306     0.000000
    0.625670     0.125670     0.260306     0.000000
    0.375590     0.375590     0.260313     0.000000
    0.875590     0.375590     0.260313     0.000000
    0.125670     0.625670     0.260306     0.000000
    0.625670     0.625670     0.260306     0.000000
    0.375590     0.875590     0.260313     0.000000
    0.875590     0.875590     0.260313     0.000000
    0.375580     0.125690     0.362482     0.000000
    0.875580     0.125690     0.362482     0.000000
    0.125680     0.375590     0.362482     0.000000
    0.625680     0.375590     0.362482     0.000000
    0.375580     0.625690     0.362482     0.000000
    0.875580     0.625690     0.362482     0.000000
    0.125680     0.875590     0.362482     0.000000
    0.625680     0.875590     0.362482     0.000000
EA69    8.593  8.593 21.019 90.08 90.08 90.08 Sym.group:    0
1.0000
    8.593017     0.000000     0.000000
   -0.011983     8.593000     0.000000
   -0.029353    -0.029394    21.018959
   O  Cu
  17   40 
Direct
    0.666670     0.333330     0.453293     1.032206
    0.000610     0.000610     0.004757     0.000000
    0.500610     0.000610     0.004757     0.000000
    0.000610     0.500610     0.004757     0.000000
    0.500610     0.500610     0.004757     0.000000
    0.250790     0.250800     0.107041     0.000000
    0.750790     0.250800     0.107041     0.000000
    0.250790     0.750800     0.107041     0.000000
    0.750790     0.750800     0.107041     0.000000
    0.000610     0.000610     0.209175     0.000000
    0.500610     0.000610     0.209175     0.000000
    0.000610     0.500610     0.209175     0.000000
    0.500610     0.500610     0.209175     0.000000
    0.250790     0.250800     0.311459     0.000000
    0.750790     0.250800     0.311459     0.000000
    0.250790     0.750800     0.311459     0.000000
    0.750790     0.750800     0.311459     0.000000
    0.333330     0.666670     0.433536     1.032648
    0.152420     0.152340     0.410932     1.027781
    0.847660     0.000070     0.410932     1.016059
    0.999930     0.847580     0.410932     1.022494
    0.908680     0.404990     0.455596     1.026527
    0.595010     0.503700     0.455596     1.028499
    0.496300     0.091320     0.455596     1.022890
    0.000000     0.000000     0.437693     1.023901
    0.125670     0.125670     0.055888     0.000000
    0.625670     0.125670     0.055888     0.000000
    0.375590     0.375590     0.055892     0.000000
    0.875590     0.375590     0.055892     0.000000
    0.125670     0.625670     0.055888     0.000000
    0.625670     0.625670     0.055888     0.000000
    0.375590     0.875590     0.055892     0.000000
    0.875590     0.875590     0.055892     0.000000
    0.375580     0.125690     0.158064     0.000000
    0.875580     0.125690     0.158064     0.000000
    0.125680     0.375590     0.158064     0.000000
    0.625680     0.375590     0.158064     0.000000
    0.375580     0.625690     0.158064     0.000000
    0.875580     0.625690     0.158064     0.000000
    0.125680     0.875590     0.158064     0.000000
    0.625680     0.875590     0.158064     0.000000
    0.125670     0.125670     0.260306     0.000000
    0.625670     0.125670     0.260306     0.000000
    0.375590     0.375590     0.260313     0.000000
    0.875590     0.375590     0.260313     0.000000
    0.125670     0.625670     0.260306     0.000000
    0.625670     0.625670     0.260306     0.000000
    0.375590     0.875590     0.260313     0.000000
    0.875590     0.875590     0.260313     0.000000
    0.375580     0.125690     0.362482     0.000000
    0.875580     0.125690     0.362482     0.000000
    0.125680     0.375590     0.362482     0.000000
    0.625680     0.375590     0.362482     0.000000
    0.375580     0.625690     0.362482     0.000000
    0.875580     0.625690     0.362482     0.000000
    0.125680     0.875590     0.362482     0.000000
    0.625680     0.875590     0.362482     0.000000
EA70    8.593  8.593 21.019 90.08 90.08 90.08 Sym.group:    0
1.0000
    8.593017     0.000000     0.000000
   -0.011983     8.593000     0.000000
   -0.029353    -0.029394    21.018959
   O  Cu
  17   40 
Direct
    0.500000     0.500000     0.463692     1.032963
    0.000610     0.000610     0.004757     0.000000
    0.500610     0.000610     0.004757     0.000000
    0.000610     0.500610     0.004757     0.000000
    0.500610     0.500610     0.004757     0.000000
    0.250790     0.250800     0.107041     0.000000
    0.750790     0.250800     0.107041     0.000000
    0.250790     0.750800     0.107041     0.000000
    0.750790     0.750800     0.107041     0.000000
    0.000610     0.000610     0.209175     0.000000
    0.500610     0.000610     0.209175     0.000000
    0.000610     0.500610     0.209175     0.000000
    0.500610     0.500610     0.209175     0.000000
    0.250790     0.250800     0.311459     0.000000
    0.750790     0.250800     0.311459     0.000000
    0.250790     0.750800     0.311459     0.000000
    0.750790     0.750800     0.311459     0.000000
    0.882210     0.882210     0.509408     1.033139
    0.117790     0.117790     0.509408     1.033139
    0.920750     0.714050     0.483181     1.032384
    0.079250     0.285950     0.483181     1.032387
    0.285950     0.079250     0.483181     1.032387
    0.714050     0.920750     0.483181     1.032384
    0.728650     0.271350     0.418344     1.032972
    0.271350     0.728650     0.418344     1.032972
    0.125670     0.125670     0.055888     0.000000
    0.625670     0.125670     0.055888     0.000000
    0.375590     0.375590     0.055892     0.000000
    0.875590     0.375590     0.055892     0.000000
    0.125670     0.625670     0.055888     0.000000
    0.625670     0.625670     0.055888     0.000000
    0.375590     0.875590     0.055892     0.000000
    0.875590     0.875590     0.055892     0.000000
    0.375580     0.125690     0.158064     0.000000
    0.875580     0.125690     0.158064     0.000000
    0.125680     0.375590     0.158064     0.000000
    0.625680     0.375590     0.158064     0.000000
    0.375580     0.625690     0.158064     0.000000
    0.875580     0.625690     0.158064     0.000000
    0.125680     0.875590     0.158064     0.000000
    0.625680     0.875590     0.158064     0.000000
    0.125670     0.125670     0.260306     0.000000
    0.625670     0.125670     0.260306     0.000000
    0.375590     0.375590     0.260313     0.000000
    0.875590     0.375590     0.260313     0.000000
    0.125670     0.625670     0.260306     0.000000
    0.625670     0.625670     0.260306     0.000000
    0.375590     0.875590     0.260313     0.000000
    0.875590     0.875590     0.260313     0.000000
    0.375580     0.125690     0.362482     0.000000
    0.875580     0.125690     0.362482     0.000000
    0.125680     0.375590     0.362482     0.000000
    0.625680     0.375590     0.362482     0.000000
    0.375580     0.625690     0.362482     0.000000
    0.875580     0.625690     0.362482     0.000000
    0.125680     0.875590     0.362482     0.000000
    0.625680     0.875590     0.362482     0.000000
EA71    8.593  8.593 21.019 90.08 90.08 90.08 Sym.group:    0
1.0000
    8.593017     0.000000     0.000000
   -0.011983     8.593000     0.000000
   -0.029353    -0.029394    21.018959
   O  Cu
  17   40 
Direct
    1.000000     0.000000     0.432410     1.033218
    0.000610     0.000610     0.004757     0.000000
    0.500610     0.000610     0.004757     0.000000
    0.000610     0.500610     0.004757     0.000000
    0.500610     0.500610     0.004757     0.000000
    0.250790     0.250800     0.107041     0.000000
    0.750790     0.250800     0.107041     0.000000
    0.250790     0.750800     0.107041     0.000000
    0.750790     0.750800     0.107041     0.000000
    0.000610     0.000610     0.209175     0.000000
    0.500610     0.000610     0.209175     0.000000
    0.000610     0.500610     0.209175     0.000000
    0.500610     0.500610     0.209175     0.000000
    0.250790     0.250800     0.311459     0.000000
    0.750790     0.250800     0.311459     0.000000
    0.250790     0.750800     0.311459     0.000000
    0.750790     0.750800     0.311459     0.000000
    0.863080     0.500000     0.522233     1.033260
    0.136920     0.500000     0.522233     1.033260
    0.500000     0.863080     0.522233     1.033260
    0.500000     0.136920     0.522233     1.033260
    0.745630     0.745630     0.401374     1.030172
    0.254370     0.254370     0.401374     1.030172
    0.254370     0.745630     0.401374     1.030171
    0.745630     0.254370     0.401374     1.030171
    0.125670     0.125670     0.055888     0.000000
    0.625670     0.125670     0.055888     0.000000
    0.375590     0.375590     0.055892     0.000000
    0.875590     0.375590     0.055892     0.000000
    0.125670     0.625670     0.055888     0.000000
    0.625670     0.625670     0.055888     0.000000
    0.375590     0.875590     0.055892     0.000000
    0.875590     0.875590     0.055892     0.000000
    0.375580     0.125690     0.158064     0.000000
    0.875580     0.125690     0.158064     0.000000
    0.125680     0.375590     0.158064     0.000000
    0.625680     0.375590     0.158064     0.000000
    0.375580     0.625690     0.158064     0.000000
    0.875580     0.625690     0.158064     0.000000
    0.125680     0.875590     0.158064     0.000000
    0.625680     0.875590     0.158064     0.000000
    0.125670     0.125670     0.260306     0.000000
    0.625670     0.125670     0.260306     0.000000
    0.375590     0.375590     0.260313     0.000000
    0.875590     0.375590     0.260313     0.000000
    0.125670     0.625670     0.260306     0.000000
    0.625670     0.625670     0.260306     0.000000
    0.375590     0.875590     0.260313     0.000000
    0.875590     0.875590     0.260313     0.000000
    0.375580     0.125690     0.362482     0.000000
    0.875580     0.125690     0.362482     0.000000
    0.125680     0.375590     0.362482     0.000000
    0.625680     0.375590     0.362482     0.000000
    0.375580     0.625690     0.362482     0.000000
    0.875580     0.625690     0.362482     0.000000
    0.125680     0.875590     0.362482     0.000000
    0.625680     0.875590     0.362482     0.000000
EA72    8.593  8.593 21.019 90.08 90.08 90.08 Sym.group:    0
1.0000
    8.593017     0.000000     0.000000
   -0.011983     8.593000     0.000000
   -0.029353    -0.029394    21.018959
   O  Cu
  17   40 
Direct
    0.666670     0.333330     0.521026     1.025931
    0.000610     0.000610     0.004757     0.000000
    0.500610     0.000610     0.004757     0.000000
    0.000610     0.500610     0.004757     0.000000
    0.500610     0.500610     0.004757     0.000000
    0.250790     0.250800     0.107041     0.000000
    0.750790     0.250800     0.107041     0.000000
    0.250790     0.750800     0.107041     0.000000
    0.750790     0.750800     0.107041     0.000000
    0.000610     0.000610     0.209175     0.000000
    0.500610     0.000610     0.209175     0.000000
    0.000610     0.500610     0.209175     0.000000
    0.500610     0.500610     0.209175     0.000000
    0.250790     0.250800     0.311459     0.000000
    0.750790     0.250800     0.311459     0.000000
    0.250790     0.750800     0.311459     0.000000
    0.750790     0.750800     0.311459     0.000000
    0.818430     0.181570     0.512562     1.022057
    0.818430     0.636860     0.512562     1.022507
    0.363140     0.181570     0.512562     1.022372
    0.952360     0.047640     0.491681     1.024545
    0.952360     0.904730     0.491681     1.019918
    0.095270     0.047640     0.491681     1.019915
    0.333330     0.666670     0.421086     1.023452
    0.000000     0.000000     0.430747     1.032644
    0.125670     0.125670     0.055888     0.000000
    0.625670     0.125670     0.055888     0.000000
    0.375590     0.375590     0.055892     0.000000
    0.875590     0.375590     0.055892     0.000000
    0.125670     0.625670     0.055888     0.000000
    0.625670     0.625670     0.055888     0.000000
    0.375590     0.875590     0.055892     0.000000
    0.875590     0.875590     0.055892     0.000000
    0.375580     0.125690     0.158064     0.000000
    0.875580     0.125690     0.158064     0.000000
    0.125680     0.375590     0.158064     0.000000
    0.625680     0.375590     0.158064     0.000000
    0.375580     0.625690     0.158064     0.000000
    0.875580     0.625690     0.158064     0.000000
    0.125680     0.875590     0.158064     0.000000
    0.625680     0.875590     0.158064     0.000000
    0.125670     0.125670     0.260306     0.000000
    0.625670     0.125670     0.260306     0.000000
    0.375590     0.375590     0.260313     0.000000
    0.875590     0.375590     0.260313     0.000000
    0.125670     0.625670     0.260306     0.000000
    0.625670     0.625670     0.260306     0.000000
    0.375590     0.875590     0.260313     0.000000
    0.875590     0.875590     0.260313     0.000000
    0.375580     0.125690     0.362482     0.000000
    0.875580     0.125690     0.362482     0.000000
    0.125680     0.375590     0.362482     0.000000
    0.625680     0.375590     0.362482     0.000000
    0.375580     0.625690     0.362482     0.000000
    0.875580     0.625690     0.362482     0.000000
    0.125680     0.875590     0.362482     0.000000
    0.625680     0.875590     0.362482     0.000000
EA73    8.593  8.593 21.019 90.08 90.08 90.08 Sym.group:    0
1.0000
    8.593017     0.000000     0.000000
   -0.011983     8.593000     0.000000
   -0.029353    -0.029394    21.018959
   O  Cu
  17   40 
Direct
    0.134350     0.267230     0.465710     1.026046
    0.000610     0.000610     0.004757     0.000000
    0.500610     0.000610     0.004757     0.000000
    0.000610     0.500610     0.004757     0.000000
    0.500610     0.500610     0.004757     0.000000
    0.250790     0.250800     0.107041     0.000000
    0.750790     0.250800     0.107041     0.000000
    0.250790     0.750800     0.107041     0.000000
    0.750790     0.750800     0.107041     0.000000
    0.000610     0.000610     0.209175     0.000000
    0.500610     0.000610     0.209175     0.000000
    0.000610     0.500610     0.209175     0.000000
    0.500610     0.500610     0.209175     0.000000
    0.250790     0.250800     0.311459     0.000000
    0.750790     0.250800     0.311459     0.000000
    0.250790     0.750800     0.311459     0.000000
    0.750790     0.750800     0.311459     0.000000
    0.267230     0.134350     0.465710     1.029369
    0.732770     0.865650     0.465710     1.026042
    0.865650     0.267230     0.465710     1.026167
    0.134350     0.732770     0.465710     1.029071
    0.732770     0.134350     0.465710     1.026164
    0.267230     0.865650     0.465710     1.026164
    0.500000     0.500000     0.519691     1.033269
    0.865650     0.732770     0.465710     1.026042
    0.125670     0.125670     0.055888     0.000000
    0.625670     0.125670     0.055888     0.000000
    0.375590     0.375590     0.055892     0.000000
    0.875590     0.375590     0.055892     0.000000
    0.125670     0.625670     0.055888     0.000000
    0.625670     0.625670     0.055888     0.000000
    0.375590     0.875590     0.055892     0.000000
    0.875590     0.875590     0.055892     0.000000
    0.375580     0.125690     0.158064     0.000000
    0.875580     0.125690     0.158064     0.000000
    0.125680     0.375590     0.158064     0.000000
    0.625680     0.375590     0.158064     0.000000
    0.375580     0.625690     0.158064     0.000000
    0.875580     0.625690     0.158064     0.000000
    0.125680     0.875590     0.158064     0.000000
    0.625680     0.875590     0.158064     0.000000
    0.125670     0.125670     0.260306     0.000000
    0.625670     0.125670     0.260306     0.000000
    0.375590     0.375590     0.260313     0.000000
    0.875590     0.375590     0.260313     0.000000
    0.125670     0.625670     0.260306     0.000000
    0.625670     0.625670     0.260306     0.000000
    0.375590     0.875590     0.260313     0.000000
    0.875590     0.875590     0.260313     0.000000
    0.375580     0.125690     0.362482     0.000000
    0.875580     0.125690     0.362482     0.000000
    0.125680     0.375590     0.362482     0.000000
    0.625680     0.375590     0.362482     0.000000
    0.375580     0.625690     0.362482     0.000000
    0.875580     0.625690     0.362482     0.000000
    0.125680     0.875590     0.362482     0.000000
    0.625680     0.875590     0.362482     0.000000
EA74    8.269  8.269 21.019 90.00 90.00 90.00 Sym.group:    0
1.0000
    8.268542     0.000000     0.000000
    0.000000     8.268542     0.000000
    0.000000     0.000000    21.019000
   O  Cu
  17   40 
Direct
    0.225154     0.810131     0.531674     1.024323
    0.000610     0.000610     0.004757     0.000000
    0.500610     0.000610     0.004757     0.000000
    0.000610     0.500610     0.004757     0.000000
    0.500610     0.500610     0.004757     0.000000
    0.250790     0.250800     0.107041     0.000000
    0.750790     0.250800     0.107041     0.000000
    0.250790     0.750800     0.107041     0.000000
    0.750790     0.750800     0.107041     0.000000
    0.000610     0.000610     0.209175     0.000000
    0.500610     0.000610     0.209175     0.000000
    0.000610     0.500610     0.209175     0.000000
    0.500610     0.500610     0.209175     0.000000
    0.250790     0.250800     0.311459     0.000000
    0.750790     0.250800     0.311459     0.000000
    0.250790     0.750800     0.311459     0.000000
    0.750790     0.750800     0.311459     0.000000
    0.874511     0.708838     0.547869     1.028939
    0.803553     0.230021     0.271560     1.024856
    0.628080     0.542471     0.573580     1.026841
    0.384359     0.684939     0.619516     1.021244
    0.353831     0.451261     0.385342     1.026705
    0.570030     0.644601     0.410989     1.030178
    0.144310     0.306205     0.511872     1.026257
    0.800615     0.032478     0.232186     1.025019
    0.125670     0.125670     0.055888     0.000000
    0.625670     0.125670     0.055888     0.000000
    0.375590     0.375590     0.055892     0.000000
    0.875590     0.375590     0.055892     0.000000
    0.125670     0.625670     0.055888     0.000000
    0.625670     0.625670     0.055888     0.000000
    0.375590     0.875590     0.055892     0.000000
    0.875590     0.875590     0.055892     0.000000
    0.375580     0.125690     0.158064     0.000000
    0.875580     0.125690     0.158064     0.000000
    0.125680     0.375590     0.158064     0.000000
    0.625680     0.375590     0.158064     0.000000
    0.375580     0.625690     0.158064     0.000000
    0.875580     0.625690     0.158064     0.000000
    0.125680     0.875590     0.158064     0.000000
    0.625680     0.875590     0.158064     0.000000
    0.125670     0.125670     0.260306     0.000000
    0.625670     0.125670     0.260306     0.000000
    0.375590     0.375590     0.260313     0.000000
    0.875590     0.375590     0.260313     0.000000
    0.125670     0.625670     0.260306     0.000000
    0.625670     0.625670     0.260306     0.000000
    0.375590     0.875590     0.260313     0.000000
    0.875590     0.875590     0.260313     0.000000
    0.375580     0.125690     0.362482     0.000000
    0.875580     0.125690     0.362482     0.000000
    0.125680     0.375590     0.362482     0.000000
    0.625680     0.375590     0.362482     0.000000
    0.375580     0.625690     0.362482     0.000000
    0.875580     0.625690     0.362482     0.000000
    0.125680     0.875590     0.362482     0.000000
    0.625680     0.875590     0.362482     0.000000
EA75    8.593  8.593 21.019 90.08 90.08 90.08 Sym.group:    0
1.0000
    8.593017     0.000000     0.000000
   -0.011983     8.593000     0.000000
   -0.029353    -0.029394    21.018959
   O  Cu
  17   40 
Direct
    0.666670     0.333330     0.417547     1.025267
    0.000610     0.000610     0.004757     0.000000
    0.500610     0.000610     0.004757     0.000000
    0.000610     0.500610     0.004757     0.000000
    0.500610     0.500610     0.004757     0.000000
    0.250790     0.250800     0.107041     0.000000
    0.750790     0.250800     0.107041     0.000000
    0.250790     0.750800     0.107041     0.000000
    0.750790     0.750800     0.107041     0.000000
    0.000610     0.000610     0.209175     0.000000
    0.500610     0.000610     0.209175     0.000000
    0.000610     0.500610     0.209175     0.000000
    0.500610     0.500610     0.209175     0.000000
    0.250790     0.250800     0.311459     0.000000
    0.750790     0.250800     0.311459     0.000000
    0.250790     0.750800     0.311459     0.000000
    0.750790     0.750800     0.311459     0.000000
    0.374010     0.959940     0.400913     1.029359
    0.040060     0.414070     0.400913     1.030008
    0.585930     0.625990     0.400913     1.030135
    0.828500     0.832560     0.501956     1.032369
    0.167440     0.995940     0.501956     1.033057
    0.004060     0.171500     0.501956     1.033068
    0.000000     0.000000     0.414068     1.028111
    0.333330     0.666670     0.437745     1.033092
    0.125670     0.125670     0.055888     0.000000
    0.625670     0.125670     0.055888     0.000000
    0.375590     0.375590     0.055892     0.000000
    0.875590     0.375590     0.055892     0.000000
    0.125670     0.625670     0.055888     0.000000
    0.625670     0.625670     0.055888     0.000000
    0.375590     0.875590     0.055892     0.000000
    0.875590     0.875590     0.055892     0.000000
    0.375580     0.125690     0.158064     0.000000
    0.875580     0.125690     0.158064     0.000000
    0.125680     0.375590     0.158064     0.000000
    0.625680     0.375590     0.158064     0.000000
    0.375580     0.625690     0.158064     0.000000
    0.875580     0.625690     0.158064     0.000000
    0.125680     0.875590     0.158064     0.000000
    0.625680     0.875590     0.158064     0.000000
    0.125670     0.125670     0.260306     0.000000
    0.625670     0.125670     0.260306     0.000000
    0.375590     0.375590     0.260313     0.000000
    0.875590     0.375590     0.260313     0.000000
    0.125670     0.625670     0.260306     0.000000
    0.625670     0.625670     0.260306     0.000000
    0.375590     0.875590     0.260313     0.000000
    0.875590     0.875590     0.260313     0.000000
    0.375580     0.125690     0.362482     0.000000
    0.875580     0.125690     0.362482     0.000000
    0.125680     0.375590     0.362482     0.000000
    0.625680     0.375590     0.362482     0.000000
    0.375580     0.625690     0.362482     0.000000
    0.875580     0.625690     0.362482     0.000000
    0.125680     0.875590     0.362482     0.000000
    0.625680     0.875590     0.362482     0.000000
EA76    8.593  8.593 21.019 90.08 90.08 90.08 Sym.group:    0
1.0000
    8.593017     0.000000     0.000000
   -0.011983     8.593000     0.000000
   -0.029353    -0.029394    21.018959
   O  Cu
  17   40 
Direct
    0.004060     0.171500     0.501956     1.033032
    0.000610     0.000610     0.004757     0.000000
    0.500610     0.000610     0.004757     0.000000
    0.000610     0.500610     0.004757     0.000000
    0.500610     0.500610     0.004757     0.000000
    0.250790     0.250800     0.107041     0.000000
    0.750790     0.250800     0.107041     0.000000
    0.250790     0.750800     0.107041     0.000000
    0.750790     0.750800     0.107041     0.000000
    0.000610     0.000610     0.209175     0.000000
    0.500610     0.000610     0.209175     0.000000
    0.000610     0.500610     0.209175     0.000000
    0.500610     0.500610     0.209175     0.000000
    0.250790     0.250800     0.311459     0.000000
    0.750790     0.250800     0.311459     0.000000
    0.250790     0.750800     0.311459     0.000000
    0.750790     0.750800     0.311459     0.000000
    0.374010     0.959940     0.400913     1.029361
    0.040060     0.414070     0.400913     1.028556
    0.585930     0.625990     0.400913     1.027714
    0.828500     0.832560     0.501956     1.032372
    0.167440     0.995940     0.501956     1.033057
    0.000000     0.000000     0.414068     1.028116
    0.666670     0.333330     0.417547     1.025318
    0.333330     0.666670     0.437745     1.033092
    0.125670     0.125670     0.055888     0.000000
    0.625670     0.125670     0.055888     0.000000
    0.375590     0.375590     0.055892     0.000000
    0.875590     0.375590     0.055892     0.000000
    0.125670     0.625670     0.055888     0.000000
    0.625670     0.625670     0.055888     0.000000
    0.375590     0.875590     0.055892     0.000000
    0.875590     0.875590     0.055892     0.000000
    0.375580     0.125690     0.158064     0.000000
    0.875580     0.125690     0.158064     0.000000
    0.125680     0.375590     0.158064     0.000000
    0.625680     0.375590     0.158064     0.000000
    0.375580     0.625690     0.158064     0.000000
    0.875580     0.625690     0.158064     0.000000
    0.125680     0.875590     0.158064     0.000000
    0.625680     0.875590     0.158064     0.000000
    0.125670     0.125670     0.260306     0.000000
    0.625670     0.125670     0.260306     0.000000
    0.375590     0.375590     0.260313     0.000000
    0.875590     0.375590     0.260313     0.000000
    0.125670     0.625670     0.260306     0.000000
    0.625670     0.625670     0.260306     0.000000
    0.375590     0.875590     0.260313     0.000000
    0.875590     0.875590     0.260313     0.000000
    0.375580     0.125690     0.362482     0.000000
    0.875580     0.125690     0.362482     0.000000
    0.125680     0.375590     0.362482     0.000000
    0.625680     0.375590     0.362482     0.000000
    0.375580     0.625690     0.362482     0.000000
    0.875580     0.625690     0.362482     0.000000
    0.125680     0.875590     0.362482     0.000000
    0.625680     0.875590     0.362482     0.000000
EA77    8.593  8.593 21.019 90.08 90.08 90.08 Sym.group:    0
1.0000
    8.593017     0.000000     0.000000
   -0.011983     8.593000     0.000000
   -0.029353    -0.029394    21.018959
   O  Cu
  17   40 
Direct
    0.500000     0.500000     0.416988     1.029011
    0.000610     0.000610     0.004757     0.000000
    0.500610     0.000610     0.004757     0.000000
    0.000610     0.500610     0.004757     0.000000
    0.500610     0.500610     0.004757     0.000000
    0.250790     0.250800     0.107041     0.000000
    0.750790     0.250800     0.107041     0.000000
    0.250790     0.750800     0.107041     0.000000
    0.750790     0.750800     0.107041     0.000000
    0.000610     0.000610     0.209175     0.000000
    0.500610     0.000610     0.209175     0.000000
    0.000610     0.500610     0.209175     0.000000
    0.500610     0.500610     0.209175     0.000000
    0.250790     0.250800     0.311459     0.000000
    0.750790     0.250800     0.311459     0.000000
    0.250790     0.750800     0.311459     0.000000
    0.750790     0.750800     0.311459     0.000000
    0.158170     0.577331     0.431505     1.029247
    0.030050     0.757791     0.431505     1.022390
    0.996120     0.396499     0.431505     1.019002
    0.815660     0.268379     0.431505     1.030465
    0.539110     0.853950     0.495576     1.029040
    0.460890     0.146050     0.495576     1.028846
    0.146050     0.539110     0.495576     1.022060
    0.853950     0.460890     0.495576     1.022163
    0.125670     0.125670     0.055888     0.000000
    0.625670     0.125670     0.055888     0.000000
    0.375590     0.375590     0.055892     0.000000
    0.875590     0.375590     0.055892     0.000000
    0.125670     0.625670     0.055888     0.000000
    0.625670     0.625670     0.055888     0.000000
    0.375590     0.875590     0.055892     0.000000
    0.875590     0.875590     0.055892     0.000000
    0.375580     0.125690     0.158064     0.000000
    0.875580     0.125690     0.158064     0.000000
    0.125680     0.375590     0.158064     0.000000
    0.625680     0.375590     0.158064     0.000000
    0.375580     0.625690     0.158064     0.000000
    0.875580     0.625690     0.158064     0.000000
    0.125680     0.875590     0.158064     0.000000
    0.625680     0.875590     0.158064     0.000000
    0.125670     0.125670     0.260306     0.000000
    0.625670     0.125670     0.260306     0.000000
    0.375590     0.375590     0.260313     0.000000
    0.875590     0.375590     0.260313     0.000000
    0.125670     0.625670     0.260306     0.000000
    0.625670     0.625670     0.260306     0.000000
    0.375590     0.875590     0.260313     0.000000
    0.875590     0.875590     0.260313     0.000000
    0.375580     0.125690     0.362482     0.000000
    0.875580     0.125690     0.362482     0.000000
    0.125680     0.375590     0.362482     0.000000
    0.625680     0.375590     0.362482     0.000000
    0.375580     0.625690     0.362482     0.000000
    0.875580     0.625690     0.362482     0.000000
    0.125680     0.875590     0.362482     0.000000
    0.625680     0.875590     0.362482     0.000000
EA78    8.593  8.593 21.019 90.08 90.08 90.08 Sym.group:    0
1.0000
    8.593017     0.000000     0.000000
   -0.011983     8.593000     0.000000
   -0.029353    -0.029394    21.018959
   O  Cu
  17   40 
Direct
    0.500000     0.500000     0.409918     1.033272
    0.000610     0.000610     0.004757     0.000000
    0.500610     0.000610     0.004757     0.000000
    0.000610     0.500610     0.004757     0.000000
    0.500610     0.500610     0.004757     0.000000
    0.250790     0.250800     0.107041     0.000000
    0.750790     0.250800     0.107041     0.000000
    0.250790     0.750800     0.107041     0.000000
    0.750790     0.750800     0.107041     0.000000
    0.000610     0.000610     0.209175     0.000000
    0.500610     0.000610     0.209175     0.000000
    0.000610     0.500610     0.209175     0.000000
    0.500610     0.500610     0.209175     0.000000
    0.250790     0.250800     0.311459     0.000000
    0.750790     0.250800     0.311459     0.000000
    0.250790     0.750800     0.311459     0.000000
    0.750790     0.750800     0.311459     0.000000
    0.281177     0.891327     0.459157     1.023713
    0.718758     0.108600     0.459155     1.023760
    0.108674     0.282563     0.459143     1.027242
    0.891398     0.717502     0.459145     1.027252
    0.168910     0.181043     0.454671     1.023688
    0.831104     0.818979     0.454674     1.023611
    0.818957     0.169390     0.454769     1.027202
    0.181021     0.830596     0.454766     1.027213
    0.125670     0.125670     0.055888     0.000000
    0.625670     0.125670     0.055888     0.000000
    0.375590     0.375590     0.055892     0.000000
    0.875590     0.375590     0.055892     0.000000
    0.125670     0.625670     0.055888     0.000000
    0.625670     0.625670     0.055888     0.000000
    0.375590     0.875590     0.055892     0.000000
    0.875590     0.875590     0.055892     0.000000
    0.375580     0.125690     0.158064     0.000000
    0.875580     0.125690     0.158064     0.000000
    0.125680     0.375590     0.158064     0.000000
    0.625680     0.375590     0.158064     0.000000
    0.375580     0.625690     0.158064     0.000000
    0.875580     0.625690     0.158064     0.000000
    0.125680     0.875590     0.158064     0.000000
    0.625680     0.875590     0.158064     0.000000
    0.125670     0.125670     0.260306     0.000000
    0.625670     0.125670     0.260306     0.000000
    0.375590     0.375590     0.260313     0.000000
    0.875590     0.375590     0.260313     0.000000
    0.125670     0.625670     0.260306     0.000000
    0.625670     0.625670     0.260306     0.000000
    0.375590     0.875590     0.260313     0.000000
    0.875590     0.875590     0.260313     0.000000
    0.375580     0.125690     0.362482     0.000000
    0.875580     0.125690     0.362482     0.000000
    0.125680     0.375590     0.362482     0.000000
    0.625680     0.375590     0.362482     0.000000
    0.375580     0.625690     0.362482     0.000000
    0.875580     0.625690     0.362482     0.000000
    0.125680     0.875590     0.362482     0.000000
    0.625680     0.875590     0.362482     0.000000
EA79    8.593  8.593 21.019 90.08 90.08 90.08 Sym.group:    0
1.0000
    8.593017     0.000000     0.000000
   -0.011983     8.593000     0.000000
   -0.029353    -0.029394    21.018959
   O  Cu
  17   40 
Direct
    0.000000     0.000000     0.405997     1.033009
    0.000610     0.000610     0.004757     0.000000
    0.500610     0.000610     0.004757     0.000000
    0.000610     0.500610     0.004757     0.000000
    0.500610     0.500610     0.004757     0.000000
    0.250790     0.250800     0.107041     0.000000
    0.750790     0.250800     0.107041     0.000000
    0.250790     0.750800     0.107041     0.000000
    0.750790     0.750800     0.107041     0.000000
    0.000610     0.000610     0.209175     0.000000
    0.500610     0.000610     0.209175     0.000000
    0.000610     0.500610     0.209175     0.000000
    0.500610     0.500610     0.209175     0.000000
    0.250790     0.250800     0.311459     0.000000
    0.750790     0.250800     0.311459     0.000000
    0.250790     0.750800     0.311459     0.000000
    0.750790     0.750800     0.311459     0.000000
    0.136503     0.656226     0.386219     1.031036
    0.863515     0.343769     0.386213     1.031035
    0.343769     0.863514     0.386214     1.031034
    0.656226     0.136504     0.386219     1.031036
    0.425505     0.574958     0.455314     1.020942
    0.574948     0.425495     0.455314     1.020942
    0.457686     0.457683     0.473427     1.031730
    0.541848     0.541851     0.473467     1.031793
    0.125670     0.125670     0.055888     0.000000
    0.625670     0.125670     0.055888     0.000000
    0.375590     0.375590     0.055892     0.000000
    0.875590     0.375590     0.055892     0.000000
    0.125670     0.625670     0.055888     0.000000
    0.625670     0.625670     0.055888     0.000000
    0.375590     0.875590     0.055892     0.000000
    0.875590     0.875590     0.055892     0.000000
    0.375580     0.125690     0.158064     0.000000
    0.875580     0.125690     0.158064     0.000000
    0.125680     0.375590     0.158064     0.000000
    0.625680     0.375590     0.158064     0.000000
    0.375580     0.625690     0.158064     0.000000
    0.875580     0.625690     0.158064     0.000000
    0.125680     0.875590     0.158064     0.000000
    0.625680     0.875590     0.158064     0.000000
    0.125670     0.125670     0.260306     0.000000
    0.625670     0.125670     0.260306     0.000000
    0.375590     0.375590     0.260313     0.000000
    0.875590     0.375590     0.260313     0.000000
    0.125670     0.625670     0.260306     0.000000
    0.625670     0.625670     0.260306     0.000000
    0.375590     0.875590     0.260313     0.000000
    0.875590     0.875590     0.260313     0.000000
    0.375580     0.125690     0.362482     0.000000
    0.875580     0.125690     0.362482     0.000000
    0.125680     0.375590     0.362482     0.000000
    0.625680     0.375590     0.362482     0.000000
    0.375580     0.625690     0.362482     0.000000
    0.875580     0.625690     0.362482     0.000000
    0.125680     0.875590     0.362482     0.000000
    0.625680     0.875590     0.362482     0.000000
EA80    8.593  8.593 21.019 90.08 90.08 90.08 Sym.group:    0
1.0000
    8.593017     0.000000     0.000000
   -0.011983     8.593000     0.000000
   -0.029353    -0.029394    21.018959
   O  Cu
  17   40 
Direct
    0.500000     0.500000     0.414862     1.024041
    0.000610     0.000610     0.004757     0.000000
    0.500610     0.000610     0.004757     0.000000
    0.000610     0.500610     0.004757     0.000000
    0.500610     0.500610     0.004757     0.000000
    0.250790     0.250800     0.107041     0.000000
    0.750790     0.250800     0.107041     0.000000
    0.250790     0.750800     0.107041     0.000000
    0.750790     0.750800     0.107041     0.000000
    0.000610     0.000610     0.209175     0.000000
    0.500610     0.000610     0.209175     0.000000
    0.000610     0.500610     0.209175     0.000000
    0.500610     0.500610     0.209175     0.000000
    0.250790     0.250800     0.311459     0.000000
    0.750790     0.250800     0.311459     0.000000
    0.250790     0.750800     0.311459     0.000000
    0.750790     0.750800     0.311459     0.000000
    0.414414     0.853920     0.460830     1.020822
    0.747474     0.580940     0.460830     1.028891
    0.845043     0.678580     0.460830     1.024167
    0.118023     0.011640     0.460830     1.025665
    0.321501     0.155236     0.460830     1.024233
    0.988441     0.882256     0.460830     1.025609
    0.419042     0.252184     0.460830     1.028841
    0.146062     0.585244     0.460830     1.020991
    0.125670     0.125670     0.055888     0.000000
    0.625670     0.125670     0.055888     0.000000
    0.375590     0.375590     0.055892     0.000000
    0.875590     0.375590     0.055892     0.000000
    0.125670     0.625670     0.055888     0.000000
    0.625670     0.625670     0.055888     0.000000
    0.375590     0.875590     0.055892     0.000000
    0.875590     0.875590     0.055892     0.000000
    0.375580     0.125690     0.158064     0.000000
    0.875580     0.125690     0.158064     0.000000
    0.125680     0.375590     0.158064     0.000000
    0.625680     0.375590     0.158064     0.000000
    0.375580     0.625690     0.158064     0.000000
    0.875580     0.625690     0.158064     0.000000
    0.125680     0.875590     0.158064     0.000000
    0.625680     0.875590     0.158064     0.000000
    0.125670     0.125670     0.260306     0.000000
    0.625670     0.125670     0.260306     0.000000
    0.375590     0.375590     0.260313     0.000000
    0.875590     0.375590     0.260313     0.000000
    0.125670     0.625670     0.260306     0.000000
    0.625670     0.625670     0.260306     0.000000
    0.375590     0.875590     0.260313     0.000000
    0.875590     0.875590     0.260313     0.000000
    0.375580     0.125690     0.362482     0.000000
    0.875580     0.125690     0.362482     0.000000
    0.125680     0.375590     0.362482     0.000000
    0.625680     0.375590     0.362482     0.000000
    0.375580     0.625690     0.362482     0.000000
    0.875580     0.625690     0.362482     0.000000
    0.125680     0.875590     0.362482     0.000000
    0.625680     0.875590     0.362482     0.000000
EA81    8.593  8.593 21.019 90.08 90.08 90.08 Sym.group:    0
1.0000
    8.593017     0.000000     0.000000
   -0.011983     8.593000     0.000000
   -0.029353    -0.029394    21.018959
   O  Cu
  17   40 
Direct
    0.013243     0.011200     0.424333     1.027564
    0.000610     0.000610     0.004757     0.000000
    0.500610     0.000610     0.004757     0.000000
    0.000610     0.500610     0.004757     0.000000
    0.500610     0.500610     0.004757     0.000000
    0.250790     0.250800     0.107041     0.000000
    0.750790     0.250800     0.107041     0.000000
    0.250790     0.750800     0.107041     0.000000
    0.750790     0.750800     0.107041     0.000000
    0.000610     0.000610     0.209175     0.000000
    0.500610     0.000610     0.209175     0.000000
    0.000610     0.500610     0.209175     0.000000
    0.500610     0.500610     0.209175     0.000000
    0.250790     0.250800     0.311459     0.000000
    0.750790     0.250800     0.311459     0.000000
    0.250790     0.750800     0.311459     0.000000
    0.750790     0.750800     0.311459     0.000000
    0.759647     0.338701     0.443905     1.029631
    0.668025     0.451315     0.460071     1.031864
    0.580805     0.175363     0.451077     1.026437
    0.188099     0.156320     0.501440     1.023667
    0.868614     0.088592     0.496348     1.021886
    0.921580     0.778497     0.498352     1.032332
    0.333316     0.666682     0.436459     1.033214
    0.333330     0.666670     0.516150     1.033234
    0.125670     0.125670     0.055888     0.000000
    0.625670     0.125670     0.055888     0.000000
    0.375590     0.375590     0.055892     0.000000
    0.875590     0.375590     0.055892     0.000000
    0.125670     0.625670     0.055888     0.000000
    0.625670     0.625670     0.055888     0.000000
    0.375590     0.875590     0.055892     0.000000
    0.875590     0.875590     0.055892     0.000000
    0.375580     0.125690     0.158064     0.000000
    0.875580     0.125690     0.158064     0.000000
    0.125680     0.375590     0.158064     0.000000
    0.625680     0.375590     0.158064     0.000000
    0.375580     0.625690     0.158064     0.000000
    0.875580     0.625690     0.158064     0.000000
    0.125680     0.875590     0.158064     0.000000
    0.625680     0.875590     0.158064     0.000000
    0.125670     0.125670     0.260306     0.000000
    0.625670     0.125670     0.260306     0.000000
    0.375590     0.375590     0.260313     0.000000
    0.875590     0.375590     0.260313     0.000000
    0.125670     0.625670     0.260306     0.000000
    0.625670     0.625670     0.260306     0.000000
    0.375590     0.875590     0.260313     0.000000
    0.875590     0.875590     0.260313     0.000000
    0.375580     0.125690     0.362482     0.000000
    0.875580     0.125690     0.362482     0.000000
    0.125680     0.375590     0.362482     0.000000
    0.625680     0.375590     0.362482     0.000000
    0.375580     0.625690     0.362482     0.000000
    0.875580     0.625690     0.362482     0.000000
    0.125680     0.875590     0.362482     0.000000
    0.625680     0.875590     0.362482     0.000000
EA82    8.593  8.593 21.019 90.08 90.08 90.08 Sym.group:    0
1.0000
    8.593017     0.000000     0.000000
   -0.011983     8.593000     0.000000
   -0.029353    -0.029394    21.018959
   O  Cu
  17   40 
Direct
    0.076917     0.337070     0.459499     1.024592
    0.000610     0.000610     0.004757     0.000000
    0.500610     0.000610     0.004757     0.000000
    0.000610     0.500610     0.004757     0.000000
    0.500610     0.500610     0.004757     0.000000
    0.250790     0.250800     0.107041     0.000000
    0.750790     0.250800     0.107041     0.000000
    0.250790     0.750800     0.107041     0.000000
    0.750790     0.750800     0.107041     0.000000
    0.000610     0.000610     0.209175     0.000000
    0.500610     0.000610     0.209175     0.000000
    0.000610     0.500610     0.209175     0.000000
    0.500610     0.500610     0.209175     0.000000
    0.250790     0.250800     0.311459     0.000000
    0.750790     0.250800     0.311459     0.000000
    0.250790     0.750800     0.311459     0.000000
    0.750790     0.750800     0.311459     0.000000
    0.253758     0.976317     0.465648     1.032480
    0.293289     0.279117     0.463048     1.027232
    0.000471     0.049434     0.460725     1.032697
    0.761895     0.061433     0.459658     1.025021
    0.716595     0.787508     0.462274     1.028244
    0.915361     0.472883     0.464601     1.021927
    0.324177     0.684750     0.508906     1.029752
    0.657538     0.351488     0.514597     1.009365
    0.125670     0.125670     0.055888     0.000000
    0.625670     0.125670     0.055888     0.000000
    0.375590     0.375590     0.055892     0.000000
    0.875590     0.375590     0.055892     0.000000
    0.125670     0.625670     0.055888     0.000000
    0.625670     0.625670     0.055888     0.000000
    0.375590     0.875590     0.055892     0.000000
    0.875590     0.875590     0.055892     0.000000
    0.375580     0.125690     0.158064     0.000000
    0.875580     0.125690     0.158064     0.000000
    0.125680     0.375590     0.158064     0.000000
    0.625680     0.375590     0.158064     0.000000
    0.375580     0.625690     0.158064     0.000000
    0.875580     0.625690     0.158064     0.000000
    0.125680     0.875590     0.158064     0.000000
    0.625680     0.875590     0.158064     0.000000
    0.125670     0.125670     0.260306     0.000000
    0.625670     0.125670     0.260306     0.000000
    0.375590     0.375590     0.260313     0.000000
    0.875590     0.375590     0.260313     0.000000
    0.125670     0.625670     0.260306     0.000000
    0.625670     0.625670     0.260306     0.000000
    0.375590     0.875590     0.260313     0.000000
    0.875590     0.875590     0.260313     0.000000
    0.375580     0.125690     0.362482     0.000000
    0.875580     0.125690     0.362482     0.000000
    0.125680     0.375590     0.362482     0.000000
    0.625680     0.375590     0.362482     0.000000
    0.375580     0.625690     0.362482     0.000000
    0.875580     0.625690     0.362482     0.000000
    0.125680     0.875590     0.362482     0.000000
    0.625680     0.875590     0.362482     0.000000
EA83    8.593  8.593 21.019 90.08 90.08 90.08 Sym.group:    0
1.0000
    8.593017     0.000000     0.000000
   -0.011983     8.593000     0.000000
   -0.029353    -0.029394    21.018959
   O  Cu
  17   40 
Direct
    0.000000     0.000000     0.434066     1.028975
    0.000610     0.000610     0.004757     0.000000
    0.500610     0.000610     0.004757     0.000000
    0.000610     0.500610     0.004757     0.000000
    0.500610     0.500610     0.004757     0.000000
    0.250790     0.250800     0.107041     0.000000
    0.750790     0.250800     0.107041     0.000000
    0.250790     0.750800     0.107041     0.000000
    0.750790     0.750800     0.107041     0.000000
    0.000610     0.000610     0.209175     0.000000
    0.500610     0.000610     0.209175     0.000000
    0.000610     0.500610     0.209175     0.000000
    0.500610     0.500610     0.209175     0.000000
    0.250790     0.250800     0.311459     0.000000
    0.750790     0.250800     0.311459     0.000000
    0.250790     0.750800     0.311459     0.000000
    0.750790     0.750800     0.311459     0.000000
    0.156469     0.667583     0.465089     1.031263
    0.334168     0.112896     0.445229     1.025287
    0.198385     0.533302     0.455146     1.027449
    0.508577     0.666428     0.465009     1.030994
    0.335324     0.220245     0.445156     1.025929
    0.469785     0.802414     0.455096     1.024712
    0.666670     0.333330     0.505169     1.032544
    0.330643     0.663781     0.459728     1.018154
    0.125670     0.125670     0.055888     0.000000
    0.625670     0.125670     0.055888     0.000000
    0.375590     0.375590     0.055892     0.000000
    0.875590     0.375590     0.055892     0.000000
    0.125670     0.625670     0.055888     0.000000
    0.625670     0.625670     0.055888     0.000000
    0.375590     0.875590     0.055892     0.000000
    0.875590     0.875590     0.055892     0.000000
    0.375580     0.125690     0.158064     0.000000
    0.875580     0.125690     0.158064     0.000000
    0.125680     0.375590     0.158064     0.000000
    0.625680     0.375590     0.158064     0.000000
    0.375580     0.625690     0.158064     0.000000
    0.875580     0.625690     0.158064     0.000000
    0.125680     0.875590     0.158064     0.000000
    0.625680     0.875590     0.158064     0.000000
    0.125670     0.125670     0.260306     0.000000
    0.625670     0.125670     0.260306     0.000000
    0.375590     0.375590     0.260313     0.000000
    0.875590     0.375590     0.260313     0.000000
    0.125670     0.625670     0.260306     0.000000
    0.625670     0.625670     0.260306     0.000000
    0.375590     0.875590     0.260313     0.000000
    0.875590     0.875590     0.260313     0.000000
    0.375580     0.125690     0.362482     0.000000
    0.875580     0.125690     0.362482     0.000000
    0.125680     0.375590     0.362482     0.000000
    0.625680     0.375590     0.362482     0.000000
    0.375580     0.625690     0.362482     0.000000
    0.875580     0.625690     0.362482     0.000000
    0.125680     0.875590     0.362482     0.000000
    0.625680     0.875590     0.362482     0.000000
EA84    8.593  8.593 21.019 90.08 90.08 90.08 Sym.group:    0
1.0000
    8.593017     0.000000     0.000000
   -0.011983     8.593000     0.000000
   -0.029353    -0.029394    21.018959
   O  Cu
  17   40 
Direct
    0.666670     0.333330     0.460628     1.019702
    0.000610     0.000610     0.004757     0.000000
    0.500610     0.000610     0.004757     0.000000
    0.000610     0.500610     0.004757     0.000000
    0.500610     0.500610     0.004757     0.000000
    0.250790     0.250800     0.107041     0.000000
    0.750790     0.250800     0.107041     0.000000
    0.250790     0.750800     0.107041     0.000000
    0.750790     0.750800     0.107041     0.000000
    0.000610     0.000610     0.209175     0.000000
    0.500610     0.000610     0.209175     0.000000
    0.000610     0.500610     0.209175     0.000000
    0.500610     0.500610     0.209175     0.000000
    0.250790     0.250800     0.311459     0.000000
    0.750790     0.250800     0.311459     0.000000
    0.250790     0.750800     0.311459     0.000000
    0.750790     0.750800     0.311459     0.000000
    0.361911     0.454887     0.455596     1.022734
    0.417095     0.851421     0.472456     1.030189
    0.077986     0.331425     0.484407     1.023723
    0.874093     0.315490     0.475181     1.032116
    0.128012     0.773685     0.550566     1.018756
    0.344556     0.072974     0.505837     1.032150
    0.111188     0.287520     0.410540     1.019291
    0.018490     0.579269     0.486001     1.027022
    0.125670     0.125670     0.055888     0.000000
    0.625670     0.125670     0.055888     0.000000
    0.375590     0.375590     0.055892     0.000000
    0.875590     0.375590     0.055892     0.000000
    0.125670     0.625670     0.055888     0.000000
    0.625670     0.625670     0.055888     0.000000
    0.375590     0.875590     0.055892     0.000000
    0.875590     0.875590     0.055892     0.000000
    0.375580     0.125690     0.158064     0.000000
    0.875580     0.125690     0.158064     0.000000
    0.125680     0.375590     0.158064     0.000000
    0.625680     0.375590     0.158064     0.000000
    0.375580     0.625690     0.158064     0.000000
    0.875580     0.625690     0.158064     0.000000
    0.125680     0.875590     0.158064     0.000000
    0.625680     0.875590     0.158064     0.000000
    0.125670     0.125670     0.260306     0.000000
    0.625670     0.125670     0.260306     0.000000
    0.375590     0.375590     0.260313     0.000000
    0.875590     0.375590     0.260313     0.000000
    0.125670     0.625670     0.260306     0.000000
    0.625670     0.625670     0.260306     0.000000
    0.375590     0.875590     0.260313     0.000000
    0.875590     0.875590     0.260313     0.000000
    0.375580     0.125690     0.362482     0.000000
    0.875580     0.125690     0.362482     0.000000
    0.125680     0.375590     0.362482     0.000000
    0.625680     0.375590     0.362482     0.000000
    0.375580     0.625690     0.362482     0.000000
    0.875580     0.625690     0.362482     0.000000
    0.125680     0.875590     0.362482     0.000000
    0.625680     0.875590     0.362482     0.000000
EA85    8.593  8.593 21.019 90.08 90.08 90.08 Sym.group:    0
1.0000
    8.593017     0.000000     0.000000
   -0.011983     8.593000     0.000000
   -0.029353    -0.029394    21.018959
   O  Cu
  17   40 
Direct
    0.400000     0.800000     0.429088     1.027856
    0.000610     0.000610     0.004757     0.000000
    0.500610     0.000610     0.004757     0.000000
    0.000610     0.500610     0.004757     0.000000
    0.500610     0.500610     0.004757     0.000000
    0.250790     0.250800     0.107041     0.000000
    0.750790     0.250800     0.107041     0.000000
    0.250790     0.750800     0.107041     0.000000
    0.750790     0.750800     0.107041     0.000000
    0.000610     0.000610     0.209175     0.000000
    0.500610     0.000610     0.209175     0.000000
    0.000610     0.500610     0.209175     0.000000
    0.500610     0.500610     0.209175     0.000000
    0.250790     0.250800     0.311459     0.000000
    0.750790     0.250800     0.311459     0.000000
    0.250790     0.750800     0.311459     0.000000
    0.750790     0.750800     0.311459     0.000000
    0.400000     0.300000     0.499175     1.038850
    0.800000     0.100000     0.429088     1.026330
    0.900000     0.100000     0.547849     1.021824
    0.116600     0.538050     0.468510     1.032241
    0.883400     0.461950     0.468510     1.028284
    0.852570     0.696740     0.427680     1.022894
    0.147430     0.303260     0.427680     1.031001
    0.658700     0.699250     0.476316     1.032096
    0.125670     0.125670     0.055888     0.000000
    0.625670     0.125670     0.055888     0.000000
    0.375590     0.375590     0.055892     0.000000
    0.875590     0.375590     0.055892     0.000000
    0.125670     0.625670     0.055888     0.000000
    0.625670     0.625670     0.055888     0.000000
    0.375590     0.875590     0.055892     0.000000
    0.875590     0.875590     0.055892     0.000000
    0.375580     0.125690     0.158064     0.000000
    0.875580     0.125690     0.158064     0.000000
    0.125680     0.375590     0.158064     0.000000
    0.625680     0.375590     0.158064     0.000000
    0.375580     0.625690     0.158064     0.000000
    0.875580     0.625690     0.158064     0.000000
    0.125680     0.875590     0.158064     0.000000
    0.625680     0.875590     0.158064     0.000000
    0.125670     0.125670     0.260306     0.000000
    0.625670     0.125670     0.260306     0.000000
    0.375590     0.375590     0.260313     0.000000
    0.875590     0.375590     0.260313     0.000000
    0.125670     0.625670     0.260306     0.000000
    0.625670     0.625670     0.260306     0.000000
    0.375590     0.875590     0.260313     0.000000
    0.875590     0.875590     0.260313     0.000000
    0.375580     0.125690     0.362482     0.000000
    0.875580     0.125690     0.362482     0.000000
    0.125680     0.375590     0.362482     0.000000
    0.625680     0.375590     0.362482     0.000000
    0.375580     0.625690     0.362482     0.000000
    0.875580     0.625690     0.362482     0.000000
    0.125680     0.875590     0.362482     0.000000
    0.625680     0.875590     0.362482     0.000000
EA86    8.269  8.269 21.019 90.00 90.00 90.00 Sym.group:    0
1.0000
    8.268542     0.000000     0.000000
    0.000000     8.268542     0.000000
    0.000000     0.000000    21.019000
   O  Cu
  17   40 
Direct
    0.000000     0.600000     0.429088     1.021397
    0.000610     0.000610     0.004757     0.000000
    0.500610     0.000610     0.004757     0.000000
    0.000610     0.500610     0.004757     0.000000
    0.500610     0.500610     0.004757     0.000000
    0.250790     0.250800     0.107041     0.000000
    0.750790     0.250800     0.107041     0.000000
    0.250790     0.750800     0.107041     0.000000
    0.750790     0.750800     0.107041     0.000000
    0.000610     0.000610     0.209175     0.000000
    0.500610     0.000610     0.209175     0.000000
    0.000610     0.500610     0.209175     0.000000
    0.500610     0.500610     0.209175     0.000000
    0.250790     0.250800     0.311459     0.000000
    0.750790     0.250800     0.311459     0.000000
    0.250790     0.750800     0.311459     0.000000
    0.750790     0.750800     0.311459     0.000000
    0.500000     0.200000     0.429088     1.022320
    0.800615     0.032478     0.232186     1.023441
    0.900000     0.900000     0.429088     1.030471
    0.100000     0.900000     0.526993     1.026233
    0.803553     0.230021     0.271560     1.024422
    0.353831     0.451261     0.385342     1.023724
    0.570030     0.644601     0.410989     1.027770
    0.144310     0.306205     0.511872     1.018756
    0.125670     0.125670     0.055888     0.000000
    0.625670     0.125670     0.055888     0.000000
    0.375590     0.375590     0.055892     0.000000
    0.875590     0.375590     0.055892     0.000000
    0.125670     0.625670     0.055888     0.000000
    0.625670     0.625670     0.055888     0.000000
    0.375590     0.875590     0.055892     0.000000
    0.875590     0.875590     0.055892     0.000000
    0.375580     0.125690     0.158064     0.000000
    0.875580     0.125690     0.158064     0.000000
    0.125680     0.375590     0.158064     0.000000
    0.625680     0.375590     0.158064     0.000000
    0.375580     0.625690     0.158064     0.000000
    0.875580     0.625690     0.158064     0.000000
    0.125680     0.875590     0.158064     0.000000
    0.625680     0.875590     0.158064     0.000000
    0.125670     0.125670     0.260306     0.000000
    0.625670     0.125670     0.260306     0.000000
    0.375590     0.375590     0.260313     0.000000
    0.875590     0.375590     0.260313     0.000000
    0.125670     0.625670     0.260306     0.000000
    0.625670     0.625670     0.260306     0.000000
    0.375590     0.875590     0.260313     0.000000
    0.875590     0.875590     0.260313     0.000000
    0.375580     0.125690     0.362482     0.000000
    0.875580     0.125690     0.362482     0.000000
    0.125680     0.375590     0.362482     0.000000
    0.625680     0.375590     0.362482     0.000000
    0.375580     0.625690     0.362482     0.000000
    0.875580     0.625690     0.362482     0.000000
    0.125680     0.875590     0.362482     0.000000
    0.625680     0.875590     0.362482     0.000000
EA87    8.593  8.593 21.019 90.08 90.08 90.08 Sym.group:    0
1.0000
    8.593017     0.000000     0.000000
   -0.011983     8.593000     0.000000
   -0.029353    -0.029394    21.018959
   O  Cu
  17   40 
Direct
    0.300000     0.000000     0.429088     1.028486
    0.000610     0.000610     0.004757     0.000000
    0.500610     0.000610     0.004757     0.000000
    0.000610     0.500610     0.004757     0.000000
    0.500610     0.500610     0.004757     0.000000
    0.250790     0.250800     0.107041     0.000000
    0.750790     0.250800     0.107041     0.000000
    0.250790     0.750800     0.107041     0.000000
    0.750790     0.750800     0.107041     0.000000
    0.000610     0.000610     0.209175     0.000000
    0.500610     0.000610     0.209175     0.000000
    0.000610     0.500610     0.209175     0.000000
    0.500610     0.500610     0.209175     0.000000
    0.250790     0.250800     0.311459     0.000000
    0.750790     0.250800     0.311459     0.000000
    0.250790     0.750800     0.311459     0.000000
    0.750790     0.750800     0.311459     0.000000
    0.000000     0.200000     0.429088     1.023637
    0.000000     0.000000     0.426189     1.033122
    0.600000     0.900000     0.429088     1.027276
    0.000000     0.600000     0.429088     1.029171
    0.793400     0.335290     0.449735     1.018228
    0.664710     0.458110     0.449735     1.018139
    0.541890     0.206600     0.449735     1.014752
    0.333330     0.666670     0.436454     1.029363
    0.125670     0.125670     0.055888     0.000000
    0.625670     0.125670     0.055888     0.000000
    0.375590     0.375590     0.055892     0.000000
    0.875590     0.375590     0.055892     0.000000
    0.125670     0.625670     0.055888     0.000000
    0.625670     0.625670     0.055888     0.000000
    0.375590     0.875590     0.055892     0.000000
    0.875590     0.875590     0.055892     0.000000
    0.375580     0.125690     0.158064     0.000000
    0.875580     0.125690     0.158064     0.000000
    0.125680     0.375590     0.158064     0.000000
    0.625680     0.375590     0.158064     0.000000
    0.375580     0.625690     0.158064     0.000000
    0.875580     0.625690     0.158064     0.000000
    0.125680     0.875590     0.158064     0.000000
    0.625680     0.875590     0.158064     0.000000
    0.125670     0.125670     0.260306     0.000000
    0.625670     0.125670     0.260306     0.000000
    0.375590     0.375590     0.260313     0.000000
    0.875590     0.375590     0.260313     0.000000
    0.125670     0.625670     0.260306     0.000000
    0.625670     0.625670     0.260306     0.000000
    0.375590     0.875590     0.260313     0.000000
    0.875590     0.875590     0.260313     0.000000
    0.375580     0.125690     0.362482     0.000000
    0.875580     0.125690     0.362482     0.000000
    0.125680     0.375590     0.362482     0.000000
    0.625680     0.375590     0.362482     0.000000
    0.375580     0.625690     0.362482     0.000000
    0.875580     0.625690     0.362482     0.000000
    0.125680     0.875590     0.362482     0.000000
    0.625680     0.875590     0.362482     0.000000
EA88    8.593  8.593 21.019 90.08 90.08 90.08 Sym.group:    0
1.0000
    8.593017     0.000000     0.000000
   -0.011983     8.593000     0.000000
   -0.029353    -0.029394    21.018959
   O  Cu
  17   40 
Direct
    0.900000     0.500000     0.429088     1.022485
    0.000610     0.000610     0.004757     0.000000
    0.500610     0.000610     0.004757     0.000000
    0.000610     0.500610     0.004757     0.000000
    0.500610     0.500610     0.004757     0.000000
    0.250790     0.250800     0.107041     0.000000
    0.750790     0.250800     0.107041     0.000000
    0.250790     0.750800     0.107041     0.000000
    0.750790     0.750800     0.107041     0.000000
    0.000610     0.000610     0.209175     0.000000
    0.500610     0.000610     0.209175     0.000000
    0.000610     0.500610     0.209175     0.000000
    0.500610     0.500610     0.209175     0.000000
    0.250790     0.250800     0.311459     0.000000
    0.750790     0.250800     0.311459     0.000000
    0.250790     0.750800     0.311459     0.000000
    0.750790     0.750800     0.311459     0.000000
    0.500000     0.500000     0.409918     1.030638
    0.500000     0.200000     0.429088     1.026434
    0.700000     0.700000     0.429088     1.030099
    0.300000     0.700000     0.429088     1.030597
    0.169150     0.000000     0.454720     1.032625
    0.830850     0.000000     0.454720     1.032672
    0.000000     0.169150     0.454720     1.023366
    0.000000     0.830850     0.454720     1.029319
    0.125670     0.125670     0.055888     0.000000
    0.625670     0.125670     0.055888     0.000000
    0.375590     0.375590     0.055892     0.000000
    0.875590     0.375590     0.055892     0.000000
    0.125670     0.625670     0.055888     0.000000
    0.625670     0.625670     0.055888     0.000000
    0.375590     0.875590     0.055892     0.000000
    0.875590     0.875590     0.055892     0.000000
    0.375580     0.125690     0.158064     0.000000
    0.875580     0.125690     0.158064     0.000000
    0.125680     0.375590     0.158064     0.000000
    0.625680     0.375590     0.158064     0.000000
    0.375580     0.625690     0.158064     0.000000
    0.875580     0.625690     0.158064     0.000000
    0.125680     0.875590     0.158064     0.000000
    0.625680     0.875590     0.158064     0.000000
    0.125670     0.125670     0.260306     0.000000
    0.625670     0.125670     0.260306     0.000000
    0.375590     0.375590     0.260313     0.000000
    0.875590     0.375590     0.260313     0.000000
    0.125670     0.625670     0.260306     0.000000
    0.625670     0.625670     0.260306     0.000000
    0.375590     0.875590     0.260313     0.000000
    0.875590     0.875590     0.260313     0.000000
    0.375580     0.125690     0.362482     0.000000
    0.875580     0.125690     0.362482     0.000000
    0.125680     0.375590     0.362482     0.000000
    0.625680     0.375590     0.362482     0.000000
    0.375580     0.625690     0.362482     0.000000
    0.875580     0.625690     0.362482     0.000000
    0.125680     0.875590     0.362482     0.000000
    0.625680     0.875590     0.362482     0.000000
EA89    8.269  8.269 20.236 90.00 90.00 90.00 Sym.group:    0
1.0000
    8.268542     0.000000     0.000000
    0.000000     8.268542     0.000000
    0.000000     0.000000    20.236213
   O  Cu
  17   40 
Direct
    0.800615     0.032478     0.241168     1.024655
    0.597334     0.813830     0.783805     0.000000
    0.237954     0.012881     0.710314     0.000000
    0.190095     0.837984     0.284099     0.000000
    0.805000     0.441496     0.311452     0.000000
    0.724857     0.340733     0.644493     0.000000
    0.324618     0.246880     0.325377     0.000000
    0.710955     0.767782     0.367629     0.000000
    0.388219     0.411639     0.768865     0.000000
    0.341918     0.193564     0.555454     0.000000
    0.036878     0.796191     0.494473     0.000000
    0.997661     0.218516     0.452338     0.000000
    0.580165     0.038991     0.467439     0.000000
    0.969411     0.481595     0.538028     0.000000
    0.508873     0.564039     0.222128     0.000000
    0.986325     0.612216     0.744596     0.000000
    0.857648     0.917859     0.619878     0.000000
    0.874511     0.708838     0.569062     1.028885
    0.803553     0.230021     0.282065     1.027245
    0.628080     0.542471     0.595767     1.026841
    0.384359     0.684939     0.643480     1.021936
    0.353831     0.451261     0.400248     1.026620
    0.570030     0.644601     0.426887     1.030173
    0.144310     0.306205     0.531672     1.021326
    0.225154     0.810131     0.552240     1.024591
    0.562248     0.372870     0.707245     0.000000
    0.195607     0.530613     0.732411     0.000000
    0.873641     0.478952     0.687524     0.000000
    0.596572     0.941621     0.258019     0.000000
    0.299988     0.031394     0.302409     0.000000
    0.000212     0.509505     0.352748     0.000000
    0.426231     0.905349     0.737281     0.000000
    0.488089     0.618210     0.773162     0.000000
    0.371489     0.731257     0.247238     0.000000
    0.775608     0.149751     0.455197     0.000000
    0.793522     0.723777     0.757811     0.000000
    0.357033     0.374290     0.617530     0.000000
    0.542158     0.948826     0.378668     0.000000
    0.991948     0.940125     0.266205     0.000000
    0.056311     0.945357     0.662507     0.000000
    0.889482     0.752996     0.422549     0.000000
    0.140795     0.243064     0.380476     0.000000
    0.781966     0.126636     0.631274     0.000000
    0.377271     0.015393     0.618143     0.000000
    0.394606     0.568169     0.519094     0.000000
    0.503302     0.281128     0.487848     0.000000
    0.533443     0.856009     0.527862     0.000000
    0.122110     0.562921     0.462030     0.000000
    0.766593     0.466157     0.487854     0.000000
    0.644443     0.641822     0.291751     0.000000
    0.642632     0.832134     0.644797     0.000000
    0.222588     0.709134     0.365680     0.000000
    0.652359     0.374756     0.381233     0.000000
    0.040702     0.008892     0.472856     0.000000
    0.125257     0.554454     0.608700     0.000000
    0.304130     0.219901     0.732541     0.000000
    0.415299     0.407384     0.274223     0.000000
EA90    8.593  8.593 21.019 90.08 90.08 90.08 Sym.group:    0
1.0000
    8.593017     0.000000     0.000000
   -0.011983     8.593000     0.000000
   -0.029353    -0.029394    21.018959
   O  Cu
  17   40 
Direct
    0.500000     0.500000     0.414862     1.033226
    0.000610     0.000610     0.004757     0.000000
    0.500610     0.000610     0.004757     0.000000
    0.000610     0.500610     0.004757     0.000000
    0.500610     0.500610     0.004757     0.000000
    0.250790     0.250800     0.107041     0.000000
    0.750790     0.250800     0.107041     0.000000
    0.250790     0.750800     0.107041     0.000000
    0.750790     0.750800     0.107041     0.000000
    0.000610     0.000610     0.209175     0.000000
    0.500610     0.000610     0.209175     0.000000
    0.000610     0.500610     0.209175     0.000000
    0.500610     0.500610     0.209175     0.000000
    0.250790     0.250800     0.311459     0.000000
    0.750790     0.250800     0.311459     0.000000
    0.250790     0.750800     0.311459     0.000000
    0.750790     0.750800     0.311459     0.000000
    0.333470     0.136490     0.460830     1.031441
    0.666530     0.863510     0.460830     1.031440
    0.863510     0.333470     0.460830     1.031609
    0.136490     0.666530     0.460830     1.031609
    0.666530     0.136490     0.460830     1.031609
    0.333470     0.863510     0.460830     1.031609
    0.136490     0.333470     0.460830     1.031441
    0.863510     0.666530     0.460830     1.031440
    0.125670     0.125670     0.055888     0.000000
    0.625670     0.125670     0.055888     0.000000
    0.375590     0.375590     0.055892     0.000000
    0.875590     0.375590     0.055892     0.000000
    0.125670     0.625670     0.055888     0.000000
    0.625670     0.625670     0.055888     0.000000
    0.375590     0.875590     0.055892     0.000000
    0.875590     0.875590     0.055892     0.000000
    0.375580     0.125690     0.158064     0.000000
    0.875580     0.125690     0.158064     0.000000
    0.125680     0.375590     0.158064     0.000000
    0.625680     0.375590     0.158064     0.000000
    0.375580     0.625690     0.158064     0.000000
    0.875580     0.625690     0.158064     0.000000
    0.125680     0.875590     0.158064     0.000000
    0.625680     0.875590     0.158064     0.000000
    0.125670     0.125670     0.260306     0.000000
    0.625670     0.125670     0.260306     0.000000
    0.375590     0.375590     0.260313     0.000000
    0.875590     0.375590     0.260313     0.000000
    0.125670     0.625670     0.260306     0.000000
    0.625670     0.625670     0.260306     0.000000
    0.375590     0.875590     0.260313     0.000000
    0.875590     0.875590     0.260313     0.000000
    0.375580     0.125690     0.362482     0.000000
    0.875580     0.125690     0.362482     0.000000
    0.125680     0.375590     0.362482     0.000000
    0.625680     0.375590     0.362482     0.000000
    0.375580     0.625690     0.362482     0.000000
    0.875580     0.625690     0.362482     0.000000
    0.125680     0.875590     0.362482     0.000000
    0.625680     0.875590     0.362482     0.000000
EA91    8.593  8.593 21.019 90.08 90.08 90.08 Sym.group:    0
1.0000
    8.593017     0.000000     0.000000
   -0.011983     8.593000     0.000000
   -0.029353    -0.029394    21.018959
   O  Cu
  17   40 
Direct
    0.000000     0.000000     0.384755     1.033125
    0.000610     0.000610     0.004757     0.000000
    0.500610     0.000610     0.004757     0.000000
    0.000610     0.500610     0.004757     0.000000
    0.500610     0.500610     0.004757     0.000000
    0.250790     0.250800     0.107041     0.000000
    0.750790     0.250800     0.107041     0.000000
    0.250790     0.750800     0.107041     0.000000
    0.750790     0.750800     0.107041     0.000000
    0.000610     0.000610     0.209175     0.000000
    0.500610     0.000610     0.209175     0.000000
    0.000610     0.500610     0.209175     0.000000
    0.500610     0.500610     0.209175     0.000000
    0.250790     0.250800     0.311459     0.000000
    0.750790     0.250800     0.311459     0.000000
    0.250790     0.750800     0.311459     0.000000
    0.750790     0.750800     0.311459     0.000000
    0.392850     0.000000     0.398237     1.027956
    0.392850     0.392850     0.398237     1.032489
    1.000000     0.392850     0.398237     1.027956
    0.607150     0.000000     0.398237     1.027925
    0.607150     0.607150     0.398237     1.032490
    0.000000     0.607150     0.398237     1.027925
    0.333330     0.666670     0.421758     1.023111
    0.666670     0.333330     0.421758     1.023111
    0.125670     0.125670     0.055888     0.000000
    0.625670     0.125670     0.055888     0.000000
    0.375590     0.375590     0.055892     0.000000
    0.875590     0.375590     0.055892     0.000000
    0.125670     0.625670     0.055888     0.000000
    0.625670     0.625670     0.055888     0.000000
    0.375590     0.875590     0.055892     0.000000
    0.875590     0.875590     0.055892     0.000000
    0.375580     0.125690     0.158064     0.000000
    0.875580     0.125690     0.158064     0.000000
    0.125680     0.375590     0.158064     0.000000
    0.625680     0.375590     0.158064     0.000000
    0.375580     0.625690     0.158064     0.000000
    0.875580     0.625690     0.158064     0.000000
    0.125680     0.875590     0.158064     0.000000
    0.625680     0.875590     0.158064     0.000000
    0.125670     0.125670     0.260306     0.000000
    0.625670     0.125670     0.260306     0.000000
    0.375590     0.375590     0.260313     0.000000
    0.875590     0.375590     0.260313     0.000000
    0.125670     0.625670     0.260306     0.000000
    0.625670     0.625670     0.260306     0.000000
    0.375590     0.875590     0.260313     0.000000
    0.875590     0.875590     0.260313     0.000000
    0.375580     0.125690     0.362482     0.000000
    0.875580     0.125690     0.362482     0.000000
    0.125680     0.375590     0.362482     0.000000
    0.625680     0.375590     0.362482     0.000000
    0.375580     0.625690     0.362482     0.000000
    0.875580     0.625690     0.362482     0.000000
    0.125680     0.875590     0.362482     0.000000
    0.625680     0.875590     0.362482     0.000000
EA92    8.593  8.593 21.019 90.08 90.08 90.08 Sym.group:    0
1.0000
    8.593017     0.000000     0.000000
   -0.011983     8.593000     0.000000
   -0.029353    -0.029394    21.018959
   O  Cu
  17   40 
Direct
    0.500000     0.500000     0.409918     1.033273
    0.000610     0.000610     0.004757     0.000000
    0.500610     0.000610     0.004757     0.000000
    0.000610     0.500610     0.004757     0.000000
    0.500610     0.500610     0.004757     0.000000
    0.250790     0.250800     0.107041     0.000000
    0.750790     0.250800     0.107041     0.000000
    0.250790     0.750800     0.107041     0.000000
    0.750790     0.750800     0.107041     0.000000
    0.000610     0.000610     0.209175     0.000000
    0.500610     0.000610     0.209175     0.000000
    0.000610     0.500610     0.209175     0.000000
    0.500610     0.500610     0.209175     0.000000
    0.250790     0.250800     0.311459     0.000000
    0.750790     0.250800     0.311459     0.000000
    0.250790     0.750800     0.311459     0.000000
    0.750790     0.750800     0.311459     0.000000
    0.281870     0.000000     0.459150     1.022037
    0.718130     0.000000     0.459150     1.022037
    0.000000     0.281870     0.459150     1.022037
    0.000000     0.718130     0.459150     1.022037
    0.169150     0.000000     0.454720     1.027776
    0.830850     0.000000     0.454720     1.027771
    0.000000     0.169150     0.454720     1.027776
    0.000000     0.830850     0.454720     1.027771
    0.125670     0.125670     0.055888     0.000000
    0.625670     0.125670     0.055888     0.000000
    0.375590     0.375590     0.055892     0.000000
    0.875590     0.375590     0.055892     0.000000
    0.125670     0.625670     0.055888     0.000000
    0.625670     0.625670     0.055888     0.000000
    0.375590     0.875590     0.055892     0.000000
    0.875590     0.875590     0.055892     0.000000
    0.375580     0.125690     0.158064     0.000000
    0.875580     0.125690     0.158064     0.000000
    0.125680     0.375590     0.158064     0.000000
    0.625680     0.375590     0.158064     0.000000
    0.375580     0.625690     0.158064     0.000000
    0.875580     0.625690     0.158064     0.000000
    0.125680     0.875590     0.158064     0.000000
    0.625680     0.875590     0.158064     0.000000
    0.125670     0.125670     0.260306     0.000000
    0.625670     0.125670     0.260306     0.000000
    0.375590     0.375590     0.260313     0.000000
    0.875590     0.375590     0.260313     0.000000
    0.125670     0.625670     0.260306     0.000000
    0.625670     0.625670     0.260306     0.000000
    0.375590     0.875590     0.260313     0.000000
    0.875590     0.875590     0.260313     0.000000
    0.375580     0.125690     0.362482     0.000000
    0.875580     0.125690     0.362482     0.000000
    0.125680     0.375590     0.362482     0.000000
    0.625680     0.375590     0.362482     0.000000
    0.375580     0.625690     0.362482     0.000000
    0.875580     0.625690     0.362482     0.000000
    0.125680     0.875590     0.362482     0.000000
    0.625680     0.875590     0.362482     0.000000
EA93    8.593  8.593 21.019 90.08 90.08 90.08 Sym.group:    0
1.0000
    8.593017     0.000000     0.000000
   -0.011983     8.593000     0.000000
   -0.029353    -0.029394    21.018959
   O  Cu
  17   40 
Direct
    0.507175     0.580085     0.417799     1.033125
    0.000610     0.000610     0.004757     0.000000
    0.500610     0.000610     0.004757     0.000000
    0.000610     0.500610     0.004757     0.000000
    0.500610     0.500610     0.004757     0.000000
    0.250790     0.250800     0.107041     0.000000
    0.750790     0.250800     0.107041     0.000000
    0.250790     0.750800     0.107041     0.000000
    0.750790     0.750800     0.107041     0.000000
    0.000610     0.000610     0.209175     0.000000
    0.500610     0.000610     0.209175     0.000000
    0.000610     0.500610     0.209175     0.000000
    0.500610     0.500610     0.209175     0.000000
    0.250790     0.250800     0.311459     0.000000
    0.750790     0.250800     0.311459     0.000000
    0.250790     0.750800     0.311459     0.000000
    0.750790     0.750800     0.311459     0.000000
    0.992567     0.060713     0.428228     1.025365
    0.900025     0.580085     0.431281     1.033199
    0.900025     0.972935     0.431281     1.032704
    0.507175     0.972935     0.431281     1.027455
    0.114325     0.580085     0.431281     1.027537
    0.173845     0.913415     0.454802     1.020987
    0.507175     0.187235     0.431281     1.033284
    0.151772     0.935521     0.516070     1.027106
    0.125670     0.125670     0.055888     0.000000
    0.625670     0.125670     0.055888     0.000000
    0.375590     0.375590     0.055892     0.000000
    0.875590     0.375590     0.055892     0.000000
    0.125670     0.625670     0.055888     0.000000
    0.625670     0.625670     0.055888     0.000000
    0.375590     0.875590     0.055892     0.000000
    0.875590     0.875590     0.055892     0.000000
    0.375580     0.125690     0.158064     0.000000
    0.875580     0.125690     0.158064     0.000000
    0.125680     0.375590     0.158064     0.000000
    0.625680     0.375590     0.158064     0.000000
    0.375580     0.625690     0.158064     0.000000
    0.875580     0.625690     0.158064     0.000000
    0.125680     0.875590     0.158064     0.000000
    0.625680     0.875590     0.158064     0.000000
    0.125670     0.125670     0.260306     0.000000
    0.625670     0.125670     0.260306     0.000000
    0.375590     0.375590     0.260313     0.000000
    0.875590     0.375590     0.260313     0.000000
    0.125670     0.625670     0.260306     0.000000
    0.625670     0.625670     0.260306     0.000000
    0.375590     0.875590     0.260313     0.000000
    0.875590     0.875590     0.260313     0.000000
    0.375580     0.125690     0.362482     0.000000
    0.875580     0.125690     0.362482     0.000000
    0.125680     0.375590     0.362482     0.000000
    0.625680     0.375590     0.362482     0.000000
    0.375580     0.625690     0.362482     0.000000
    0.875580     0.625690     0.362482     0.000000
    0.125680     0.875590     0.362482     0.000000
    0.625680     0.875590     0.362482     0.000000
EA94    8.593  8.593 21.019 90.08 90.08 90.08 Sym.group:    0
1.0000
    8.593017     0.000000     0.000000
   -0.011983     8.593000     0.000000
   -0.029353    -0.029394    21.018959
   O  Cu
  17   40 
Direct
    0.721953     0.081623     0.458964     1.032647
    0.000610     0.000610     0.004757     0.000000
    0.500610     0.000610     0.004757     0.000000
    0.000610     0.500610     0.004757     0.000000
    0.500610     0.500610     0.004757     0.000000
    0.250790     0.250800     0.107041     0.000000
    0.750790     0.250800     0.107041     0.000000
    0.250790     0.750800     0.107041     0.000000
    0.750790     0.750800     0.107041     0.000000
    0.000610     0.000610     0.209175     0.000000
    0.500610     0.000610     0.209175     0.000000
    0.000610     0.500610     0.209175     0.000000
    0.500610     0.500610     0.209175     0.000000
    0.250790     0.250800     0.311459     0.000000
    0.750790     0.250800     0.311459     0.000000
    0.250790     0.750800     0.311459     0.000000
    0.750790     0.750800     0.311459     0.000000
    0.550339     0.830560     0.482695     1.027451
    0.268469     0.548690     0.482695     1.027741
    0.437619     0.830560     0.478265     1.032623
    0.099319     0.830560     0.478265     1.024908
    0.268469     0.999710     0.478265     1.028265
    0.268469     0.661410     0.478265     1.032650
    0.732093     0.806233     0.499473     1.029825
    0.997343     0.367163     0.499473     1.033103
    0.125670     0.125670     0.055888     0.000000
    0.625670     0.125670     0.055888     0.000000
    0.375590     0.375590     0.055892     0.000000
    0.875590     0.375590     0.055892     0.000000
    0.125670     0.625670     0.055888     0.000000
    0.625670     0.625670     0.055888     0.000000
    0.375590     0.875590     0.055892     0.000000
    0.875590     0.875590     0.055892     0.000000
    0.375580     0.125690     0.158064     0.000000
    0.875580     0.125690     0.158064     0.000000
    0.125680     0.375590     0.158064     0.000000
    0.625680     0.375590     0.158064     0.000000
    0.375580     0.625690     0.158064     0.000000
    0.875580     0.625690     0.158064     0.000000
    0.125680     0.875590     0.158064     0.000000
    0.625680     0.875590     0.158064     0.000000
    0.125670     0.125670     0.260306     0.000000
    0.625670     0.125670     0.260306     0.000000
    0.375590     0.375590     0.260313     0.000000
    0.875590     0.375590     0.260313     0.000000
    0.125670     0.625670     0.260306     0.000000
    0.625670     0.625670     0.260306     0.000000
    0.375590     0.875590     0.260313     0.000000
    0.875590     0.875590     0.260313     0.000000
    0.375580     0.125690     0.362482     0.000000
    0.875580     0.125690     0.362482     0.000000
    0.125680     0.375590     0.362482     0.000000
    0.625680     0.375590     0.362482     0.000000
    0.375580     0.625690     0.362482     0.000000
    0.875580     0.625690     0.362482     0.000000
    0.125680     0.875590     0.362482     0.000000
    0.625680     0.875590     0.362482     0.000000
EA95    8.593  8.593 21.019 90.08 90.08 90.08 Sym.group:    0
1.0000
    8.593017     0.000000     0.000000
   -0.011983     8.593000     0.000000
   -0.029353    -0.029394    21.018959
   O  Cu
  17   40 
Direct
    0.856460     0.394954     0.514394     1.025095
    0.000610     0.000610     0.004757     0.000000
    0.500610     0.000610     0.004757     0.000000
    0.000610     0.500610     0.004757     0.000000
    0.500610     0.500610     0.004757     0.000000
    0.250790     0.250800     0.107041     0.000000
    0.750790     0.250800     0.107041     0.000000
    0.250790     0.750800     0.107041     0.000000
    0.750790     0.750800     0.107041     0.000000
    0.000610     0.000610     0.209175     0.000000
    0.500610     0.000610     0.209175     0.000000
    0.000610     0.500610     0.209175     0.000000
    0.500610     0.500610     0.209175     0.000000
    0.250790     0.250800     0.311459     0.000000
    0.750790     0.250800     0.311459     0.000000
    0.250790     0.750800     0.311459     0.000000
    0.750790     0.750800     0.311459     0.000000
    0.562805     0.239683     0.390455     1.021617
    0.491847     0.760866     0.399602     1.029803
    0.316374     0.073316     0.416165     1.018808
    0.072653     0.215784     0.462101     1.014286
    0.042125     0.982106     0.513384     1.018606
    0.258324     0.175446     0.396303     1.027658
    0.780014     0.107318     0.515620     1.014004
    0.694904     0.530767     0.519496     1.027905
    0.125670     0.125670     0.055888     0.000000
    0.625670     0.125670     0.055888     0.000000
    0.375590     0.375590     0.055892     0.000000
    0.875590     0.375590     0.055892     0.000000
    0.125670     0.625670     0.055888     0.000000
    0.625670     0.625670     0.055888     0.000000
    0.375590     0.875590     0.055892     0.000000
    0.875590     0.875590     0.055892     0.000000
    0.375580     0.125690     0.158064     0.000000
    0.875580     0.125690     0.158064     0.000000
    0.125680     0.375590     0.158064     0.000000
    0.625680     0.375590     0.158064     0.000000
    0.375580     0.625690     0.158064     0.000000
    0.875580     0.625690     0.158064     0.000000
    0.125680     0.875590     0.158064     0.000000
    0.625680     0.875590     0.158064     0.000000
    0.125670     0.125670     0.260306     0.000000
    0.625670     0.125670     0.260306     0.000000
    0.375590     0.375590     0.260313     0.000000
    0.875590     0.375590     0.260313     0.000000
    0.125670     0.625670     0.260306     0.000000
    0.625670     0.625670     0.260306     0.000000
    0.375590     0.875590     0.260313     0.000000
    0.875590     0.875590     0.260313     0.000000
    0.375580     0.125690     0.362482     0.000000
    0.875580     0.125690     0.362482     0.000000
    0.125680     0.375590     0.362482     0.000000
    0.625680     0.375590     0.362482     0.000000
    0.375580     0.625690     0.362482     0.000000
    0.875580     0.625690     0.362482     0.000000
    0.125680     0.875590     0.362482     0.000000
    0.625680     0.875590     0.362482     0.000000
EA96    8.593  8.593 21.019 90.08 90.08 90.08 Sym.group:    0
1.0000
    8.593017     0.000000     0.000000
   -0.011983     8.593000     0.000000
   -0.029353    -0.029394    21.018959
   O  Cu
  17   40 
Direct
    0.197517     0.846975     0.464940     1.033256
    0.000610     0.000610     0.004757     0.000000
    0.500610     0.000610     0.004757     0.000000
    0.000610     0.500610     0.004757     0.000000
    0.500610     0.500610     0.004757     0.000000
    0.250790     0.250800     0.107041     0.000000
    0.750790     0.250800     0.107041     0.000000
    0.250790     0.750800     0.107041     0.000000
    0.750790     0.750800     0.107041     0.000000
    0.000610     0.000610     0.209175     0.000000
    0.500610     0.000610     0.209175     0.000000
    0.000610     0.500610     0.209175     0.000000
    0.500610     0.500610     0.209175     0.000000
    0.250790     0.250800     0.311459     0.000000
    0.750790     0.250800     0.311459     0.000000
    0.250790     0.750800     0.311459     0.000000
    0.750790     0.750800     0.311459     0.000000
    0.416275     0.455575     0.514177     1.027043
    0.588915     0.064477     0.514167     1.032010
    0.528621     0.165954     0.509696     1.017497
    0.516474     0.516365     0.509791     1.032802
    0.968812     0.846469     0.478401     1.033156
    0.463012     0.516269     0.441196     1.024421
    0.390792     0.169879     0.486144     1.023894
    0.978694     0.238302     0.514179     1.025808
    0.125670     0.125670     0.055888     0.000000
    0.625670     0.125670     0.055888     0.000000
    0.375590     0.375590     0.055892     0.000000
    0.875590     0.375590     0.055892     0.000000
    0.125670     0.625670     0.055888     0.000000
    0.625670     0.625670     0.055888     0.000000
    0.375590     0.875590     0.055892     0.000000
    0.875590     0.875590     0.055892     0.000000
    0.375580     0.125690     0.158064     0.000000
    0.875580     0.125690     0.158064     0.000000
    0.125680     0.375590     0.158064     0.000000
    0.625680     0.375590     0.158064     0.000000
    0.375580     0.625690     0.158064     0.000000
    0.875580     0.625690     0.158064     0.000000
    0.125680     0.875590     0.158064     0.000000
    0.625680     0.875590     0.158064     0.000000
    0.125670     0.125670     0.260306     0.000000
    0.625670     0.125670     0.260306     0.000000
    0.375590     0.375590     0.260313     0.000000
    0.875590     0.375590     0.260313     0.000000
    0.125670     0.625670     0.260306     0.000000
    0.625670     0.625670     0.260306     0.000000
    0.375590     0.875590     0.260313     0.000000
    0.875590     0.875590     0.260313     0.000000
    0.375580     0.125690     0.362482     0.000000
    0.875580     0.125690     0.362482     0.000000
    0.125680     0.375590     0.362482     0.000000
    0.625680     0.375590     0.362482     0.000000
    0.375580     0.625690     0.362482     0.000000
    0.875580     0.625690     0.362482     0.000000
    0.125680     0.875590     0.362482     0.000000
    0.625680     0.875590     0.362482     0.000000
EA97    8.593  8.593 21.019 90.08 90.08 90.08 Sym.group:    0
1.0000
    8.593017     0.000000     0.000000
   -0.011983     8.593000     0.000000
   -0.029353    -0.029394    21.018959
   O  Cu
  17   40 
Direct
    0.139300     0.300986     0.493452     1.032491
    0.000610     0.000610     0.004757     0.000000
    0.500610     0.000610     0.004757     0.000000
    0.000610     0.500610     0.004757     0.000000
    0.500610     0.500610     0.004757     0.000000
    0.250790     0.250800     0.107041     0.000000
    0.750790     0.250800     0.107041     0.000000
    0.250790     0.750800     0.107041     0.000000
    0.750790     0.750800     0.107041     0.000000
    0.000610     0.000610     0.209175     0.000000
    0.500610     0.000610     0.209175     0.000000
    0.000610     0.500610     0.209175     0.000000
    0.500610     0.500610     0.209175     0.000000
    0.250790     0.250800     0.311459     0.000000
    0.750790     0.250800     0.311459     0.000000
    0.250790     0.750800     0.311459     0.000000
    0.750790     0.750800     0.311459     0.000000
    0.824090     0.459876     0.398485     1.017570
    0.454510     0.142096     0.398485     1.017423
    0.967330     0.129016     0.496683     1.022396
    0.311270     0.472956     0.496683     1.014282
    0.770712     0.803692     0.408119     1.022060
    0.439862     0.603692     0.433751     1.021299
    0.101562     0.603692     0.433751     1.028076
    0.270712     0.772842     0.433751     1.026340
    0.125670     0.125670     0.055888     0.000000
    0.625670     0.125670     0.055888     0.000000
    0.375590     0.375590     0.055892     0.000000
    0.875590     0.375590     0.055892     0.000000
    0.125670     0.625670     0.055888     0.000000
    0.625670     0.625670     0.055888     0.000000
    0.375590     0.875590     0.055892     0.000000
    0.875590     0.875590     0.055892     0.000000
    0.375580     0.125690     0.158064     0.000000
    0.875580     0.125690     0.158064     0.000000
    0.125680     0.375590     0.158064     0.000000
    0.625680     0.375590     0.158064     0.000000
    0.375580     0.625690     0.158064     0.000000
    0.875580     0.625690     0.158064     0.000000
    0.125680     0.875590     0.158064     0.000000
    0.625680     0.875590     0.158064     0.000000
    0.125670     0.125670     0.260306     0.000000
    0.625670     0.125670     0.260306     0.000000
    0.375590     0.375590     0.260313     0.000000
    0.875590     0.375590     0.260313     0.000000
    0.125670     0.625670     0.260306     0.000000
    0.625670     0.625670     0.260306     0.000000
    0.375590     0.875590     0.260313     0.000000
    0.875590     0.875590     0.260313     0.000000
    0.375580     0.125690     0.362482     0.000000
    0.875580     0.125690     0.362482     0.000000
    0.125680     0.375590     0.362482     0.000000
    0.625680     0.375590     0.362482     0.000000
    0.375580     0.625690     0.362482     0.000000
    0.875580     0.625690     0.362482     0.000000
    0.125680     0.875590     0.362482     0.000000
    0.625680     0.875590     0.362482     0.000000
EA98    8.593  8.593 21.019 90.08 90.08 90.08 Sym.group:    0
1.0000
    8.593017     0.000000     0.000000
   -0.011983     8.593000     0.000000
   -0.029353    -0.029394    21.018959
   O  Cu
  17   40 
Direct
    0.907023     0.936686     0.474552     1.027798
    0.000610     0.000610     0.004757     0.000000
    0.500610     0.000610     0.004757     0.000000
    0.000610     0.500610     0.004757     0.000000
    0.500610     0.500610     0.004757     0.000000
    0.250790     0.250800     0.107041     0.000000
    0.750790     0.250800     0.107041     0.000000
    0.250790     0.750800     0.107041     0.000000
    0.750790     0.750800     0.107041     0.000000
    0.000610     0.000610     0.209175     0.000000
    0.500610     0.000610     0.209175     0.000000
    0.000610     0.500610     0.209175     0.000000
    0.500610     0.500610     0.209175     0.000000
    0.250790     0.250800     0.311459     0.000000
    0.750790     0.250800     0.311459     0.000000
    0.250790     0.750800     0.311459     0.000000
    0.750790     0.750800     0.311459     0.000000
    0.409116     0.084185     0.472318     1.028757
    0.589336     0.016325     0.435700     1.021300
    0.388426     0.201265     0.486531     1.025042
    0.614363     0.563296     0.457918     1.024586
    0.068853     0.435916     0.416233     1.033224
    0.407793     0.599296     0.416233     1.025331
    0.244413     0.774856     0.416233     1.033093
    0.240353     0.603356     0.471073     1.029523
    0.125670     0.125670     0.055888     0.000000
    0.625670     0.125670     0.055888     0.000000
    0.375590     0.375590     0.055892     0.000000
    0.875590     0.375590     0.055892     0.000000
    0.125670     0.625670     0.055888     0.000000
    0.625670     0.625670     0.055888     0.000000
    0.375590     0.875590     0.055892     0.000000
    0.875590     0.875590     0.055892     0.000000
    0.375580     0.125690     0.158064     0.000000
    0.875580     0.125690     0.158064     0.000000
    0.125680     0.375590     0.158064     0.000000
    0.625680     0.375590     0.158064     0.000000
    0.375580     0.625690     0.158064     0.000000
    0.875580     0.625690     0.158064     0.000000
    0.125680     0.875590     0.158064     0.000000
    0.625680     0.875590     0.158064     0.000000
    0.125670     0.125670     0.260306     0.000000
    0.625670     0.125670     0.260306     0.000000
    0.375590     0.375590     0.260313     0.000000
    0.875590     0.375590     0.260313     0.000000
    0.125670     0.625670     0.260306     0.000000
    0.625670     0.625670     0.260306     0.000000
    0.375590     0.875590     0.260313     0.000000
    0.875590     0.875590     0.260313     0.000000
    0.375580     0.125690     0.362482     0.000000
    0.875580     0.125690     0.362482     0.000000
    0.125680     0.375590     0.362482     0.000000
    0.625680     0.375590     0.362482     0.000000
    0.375580     0.625690     0.362482     0.000000
    0.875580     0.625690     0.362482     0.000000
    0.125680     0.875590     0.362482     0.000000
    0.625680     0.875590     0.362482     0.000000
EA99    8.593  8.593 21.019 90.08 90.08 90.08 Sym.group:    0
1.0000
    8.593017     0.000000     0.000000
   -0.011983     8.593000     0.000000
   -0.029353    -0.029394    21.018959
   O  Cu
  17   40 
Direct
    0.238917     0.155445     0.452575     1.024222
    0.000610     0.000610     0.004757     0.000000
    0.500610     0.000610     0.004757     0.000000
    0.000610     0.500610     0.004757     0.000000
    0.500610     0.500610     0.004757     0.000000
    0.250790     0.250800     0.107041     0.000000
    0.750790     0.250800     0.107041     0.000000
    0.250790     0.750800     0.107041     0.000000
    0.750790     0.750800     0.107041     0.000000
    0.000610     0.000610     0.209175     0.000000
    0.500610     0.000610     0.209175     0.000000
    0.000610     0.500610     0.209175     0.000000
    0.500610     0.500610     0.209175     0.000000
    0.250790     0.250800     0.311459     0.000000
    0.750790     0.250800     0.311459     0.000000
    0.250790     0.750800     0.311459     0.000000
    0.750790     0.750800     0.311459     0.000000
    0.162471     0.867809     0.453801     1.027950
    0.077361     0.291258     0.457677     1.027302
    0.538191     0.326849     0.448940     1.026159
    0.960171     0.650259     0.456683     1.022874
    0.761691     0.850419     0.456683     1.018751
    0.831591     0.446389     0.491678     1.014661
    0.890271     0.054289     0.491678     1.021292
    0.689471     0.504029     0.411735     1.024364
    0.125670     0.125670     0.055888     0.000000
    0.625670     0.125670     0.055888     0.000000
    0.375590     0.375590     0.055892     0.000000
    0.875590     0.375590     0.055892     0.000000
    0.125670     0.625670     0.055888     0.000000
    0.625670     0.625670     0.055888     0.000000
    0.375590     0.875590     0.055892     0.000000
    0.875590     0.875590     0.055892     0.000000
    0.375580     0.125690     0.158064     0.000000
    0.875580     0.125690     0.158064     0.000000
    0.125680     0.375590     0.158064     0.000000
    0.625680     0.375590     0.158064     0.000000
    0.375580     0.625690     0.158064     0.000000
    0.875580     0.625690     0.158064     0.000000
    0.125680     0.875590     0.158064     0.000000
    0.625680     0.875590     0.158064     0.000000
    0.125670     0.125670     0.260306     0.000000
    0.625670     0.125670     0.260306     0.000000
    0.375590     0.375590     0.260313     0.000000
    0.875590     0.375590     0.260313     0.000000
    0.125670     0.625670     0.260306     0.000000
    0.625670     0.625670     0.260306     0.000000
    0.375590     0.875590     0.260313     0.000000
    0.875590     0.875590     0.260313     0.000000
    0.375580     0.125690     0.362482     0.000000
    0.875580     0.125690     0.362482     0.000000
    0.125680     0.375590     0.362482     0.000000
    0.625680     0.375590     0.362482     0.000000
    0.375580     0.625690     0.362482     0.000000
    0.875580     0.625690     0.362482     0.000000
    0.125680     0.875590     0.362482     0.000000
    0.625680     0.875590     0.362482     0.000000
EA100   8.593  8.593 21.019 90.08 90.08 90.08 Sym.group:    0
1.0000
    8.593017     0.000000     0.000000
   -0.011983     8.593000     0.000000
   -0.029353    -0.029394    21.018959
   O  Cu
  17   40 
Direct
    0.138384     0.272450     0.417683     1.033131
    0.000610     0.000610     0.004757     0.000000
    0.500610     0.000610     0.004757     0.000000
    0.000610     0.500610     0.004757     0.000000
    0.500610     0.500610     0.004757     0.000000
    0.250790     0.250800     0.107041     0.000000
    0.750790     0.250800     0.107041     0.000000
    0.250790     0.750800     0.107041     0.000000
    0.750790     0.750800     0.107041     0.000000
    0.000610     0.000610     0.209175     0.000000
    0.500610     0.000610     0.209175     0.000000
    0.000610     0.500610     0.209175     0.000000
    0.500610     0.500610     0.209175     0.000000
    0.250790     0.250800     0.311459     0.000000
    0.750790     0.250800     0.311459     0.000000
    0.250790     0.750800     0.311459     0.000000
    0.750790     0.750800     0.311459     0.000000
    0.384154     0.229880     0.420841     1.031277
    0.892614     0.315020     0.420841     1.028869
    0.530241     0.015023     0.513275     1.025991
    0.156624     0.540499     0.518775     1.025140
    0.542724     0.613249     0.477215     1.024870
    0.331354     0.647269     0.408553     1.026397
    0.716465     0.783773     0.430135     1.031178
    0.542724     0.405619     0.447581     1.028628
    0.125670     0.125670     0.055888     0.000000
    0.625670     0.125670     0.055888     0.000000
    0.375590     0.375590     0.055892     0.000000
    0.875590     0.375590     0.055892     0.000000
    0.125670     0.625670     0.055888     0.000000
    0.625670     0.625670     0.055888     0.000000
    0.375590     0.875590     0.055892     0.000000
    0.875590     0.875590     0.055892     0.000000
    0.375580     0.125690     0.158064     0.000000
    0.875580     0.125690     0.158064     0.000000
    0.125680     0.375590     0.158064     0.000000
    0.625680     0.375590     0.158064     0.000000
    0.375580     0.625690     0.158064     0.000000
    0.875580     0.625690     0.158064     0.000000
    0.125680     0.875590     0.158064     0.000000
    0.625680     0.875590     0.158064     0.000000
    0.125670     0.125670     0.260306     0.000000
    0.625670     0.125670     0.260306     0.000000
    0.375590     0.375590     0.260313     0.000000
    0.875590     0.375590     0.260313     0.000000
    0.125670     0.625670     0.260306     0.000000
    0.625670     0.625670     0.260306     0.000000
    0.375590     0.875590     0.260313     0.000000
    0.875590     0.875590     0.260313     0.000000
    0.375580     0.125690     0.362482     0.000000
    0.875580     0.125690     0.362482     0.000000
    0.125680     0.375590     0.362482     0.000000
    0.625680     0.375590     0.362482     0.000000
    0.375580     0.625690     0.362482     0.000000
    0.875580     0.625690     0.362482     0.000000
    0.125680     0.875590     0.362482     0.000000
    0.625680     0.875590     0.362482     0.000000
EA101   8.593  8.593 21.019 90.08 90.08 90.08 Sym.group:    0
1.0000
    8.593017     0.000000     0.000000
   -0.011983     8.593000     0.000000
   -0.029353    -0.029394    21.018959
   O  Cu
  17   40 
Direct
    0.133476     0.923588     0.417679     1.032863
    0.000610     0.000610     0.004757     0.000000
    0.500610     0.000610     0.004757     0.000000
    0.000610     0.500610     0.004757     0.000000
    0.500610     0.500610     0.004757     0.000000
    0.250790     0.250800     0.107041     0.000000
    0.750790     0.250800     0.107041     0.000000
    0.250790     0.750800     0.107041     0.000000
    0.750790     0.750800     0.107041     0.000000
    0.000610     0.000610     0.209175     0.000000
    0.500610     0.000610     0.209175     0.000000
    0.000610     0.500610     0.209175     0.000000
    0.500610     0.500610     0.209175     0.000000
    0.250790     0.250800     0.311459     0.000000
    0.750790     0.250800     0.311459     0.000000
    0.250790     0.750800     0.311459     0.000000
    0.750790     0.750800     0.311459     0.000000
    0.352234     0.532188     0.466916     1.020060
    0.452433     0.592978     0.462530     1.024092
    0.497497     0.457297     0.517588     1.025383
    0.870553     0.872194     0.511511     1.027214
    0.870553     0.265044     0.511511     1.031741
    0.811033     0.538864     0.392304     1.014243
    0.084853     0.872194     0.511511     1.033279
    0.914653     0.314915     0.466918     1.028549
    0.125670     0.125670     0.055888     0.000000
    0.625670     0.125670     0.055888     0.000000
    0.375590     0.375590     0.055892     0.000000
    0.875590     0.375590     0.055892     0.000000
    0.125670     0.625670     0.055888     0.000000
    0.625670     0.625670     0.055888     0.000000
    0.375590     0.875590     0.055892     0.000000
    0.875590     0.875590     0.055892     0.000000
    0.375580     0.125690     0.158064     0.000000
    0.875580     0.125690     0.158064     0.000000
    0.125680     0.375590     0.158064     0.000000
    0.625680     0.375590     0.158064     0.000000
    0.375580     0.625690     0.158064     0.000000
    0.875580     0.625690     0.158064     0.000000
    0.125680     0.875590     0.158064     0.000000
    0.625680     0.875590     0.158064     0.000000
    0.125670     0.125670     0.260306     0.000000
    0.625670     0.125670     0.260306     0.000000
    0.375590     0.375590     0.260313     0.000000
    0.875590     0.375590     0.260313     0.000000
    0.125670     0.625670     0.260306     0.000000
    0.625670     0.625670     0.260306     0.000000
    0.375590     0.875590     0.260313     0.000000
    0.875590     0.875590     0.260313     0.000000
    0.375580     0.125690     0.362482     0.000000
    0.875580     0.125690     0.362482     0.000000
    0.125680     0.375590     0.362482     0.000000
    0.625680     0.375590     0.362482     0.000000
    0.375580     0.625690     0.362482     0.000000
    0.875580     0.625690     0.362482     0.000000
    0.125680     0.875590     0.362482     0.000000
    0.625680     0.875590     0.362482     0.000000
EA102   8.593  8.593 21.019 90.08 90.08 90.08 Sym.group:    0
1.0000
    8.593017     0.000000     0.000000
   -0.011983     8.593000     0.000000
   -0.029353    -0.029394    21.018959
   O  Cu
  17   40 
Direct
    0.804384     0.370484     0.391208     1.033113
    0.000610     0.000610     0.004757     0.000000
    0.500610     0.000610     0.004757     0.000000
    0.000610     0.500610     0.004757     0.000000
    0.500610     0.500610     0.004757     0.000000
    0.250790     0.250800     0.107041     0.000000
    0.750790     0.250800     0.107041     0.000000
    0.250790     0.750800     0.107041     0.000000
    0.750790     0.750800     0.107041     0.000000
    0.000610     0.000610     0.209175     0.000000
    0.500610     0.000610     0.209175     0.000000
    0.000610     0.500610     0.209175     0.000000
    0.500610     0.500610     0.209175     0.000000
    0.250790     0.250800     0.311459     0.000000
    0.750790     0.250800     0.311459     0.000000
    0.250790     0.750800     0.311459     0.000000
    0.750790     0.750800     0.311459     0.000000
    0.354838     0.169526     0.434037     1.029901
    0.820378     0.169526     0.434037     1.025525
    0.197234     0.370484     0.404690     1.033211
    0.197234     0.763334     0.404690     1.032616
    0.804384     0.763334     0.404690     1.023933
    0.411534     0.977634     0.404690     1.032637
    0.804384     0.977634     0.404690     1.033204
    0.471054     0.703814     0.428211     1.027725
    0.125670     0.125670     0.055888     0.000000
    0.625670     0.125670     0.055888     0.000000
    0.375590     0.375590     0.055892     0.000000
    0.875590     0.375590     0.055892     0.000000
    0.125670     0.625670     0.055888     0.000000
    0.625670     0.625670     0.055888     0.000000
    0.375590     0.875590     0.055892     0.000000
    0.875590     0.875590     0.055892     0.000000
    0.375580     0.125690     0.158064     0.000000
    0.875580     0.125690     0.158064     0.000000
    0.125680     0.375590     0.158064     0.000000
    0.625680     0.375590     0.158064     0.000000
    0.375580     0.625690     0.158064     0.000000
    0.875580     0.625690     0.158064     0.000000
    0.125680     0.875590     0.158064     0.000000
    0.625680     0.875590     0.158064     0.000000
    0.125670     0.125670     0.260306     0.000000
    0.625670     0.125670     0.260306     0.000000
    0.375590     0.375590     0.260313     0.000000
    0.875590     0.375590     0.260313     0.000000
    0.125670     0.625670     0.260306     0.000000
    0.625670     0.625670     0.260306     0.000000
    0.375590     0.875590     0.260313     0.000000
    0.875590     0.875590     0.260313     0.000000
    0.375580     0.125690     0.362482     0.000000
    0.875580     0.125690     0.362482     0.000000
    0.125680     0.375590     0.362482     0.000000
    0.625680     0.375590     0.362482     0.000000
    0.375580     0.625690     0.362482     0.000000
    0.875580     0.625690     0.362482     0.000000
    0.125680     0.875590     0.362482     0.000000
    0.625680     0.875590     0.362482     0.000000
EA103   8.593  8.593 21.019 90.08 90.08 90.08 Sym.group:    0
1.0000
    8.593017     0.000000     0.000000
   -0.011983     8.593000     0.000000
   -0.029353    -0.029394    21.018959
   O  Cu
  17   40 
Direct
    0.854176     0.201187     0.454671     1.028141
    0.000610     0.000610     0.004757     0.000000
    0.500610     0.000610     0.004757     0.000000
    0.000610     0.500610     0.004757     0.000000
    0.500610     0.500610     0.004757     0.000000
    0.250790     0.250800     0.107041     0.000000
    0.750790     0.250800     0.107041     0.000000
    0.250790     0.750800     0.107041     0.000000
    0.750790     0.750800     0.107041     0.000000
    0.000610     0.000610     0.209175     0.000000
    0.500610     0.000610     0.209175     0.000000
    0.000610     0.500610     0.209175     0.000000
    0.500610     0.500610     0.209175     0.000000
    0.250790     0.250800     0.311459     0.000000
    0.750790     0.250800     0.311459     0.000000
    0.250790     0.750800     0.311459     0.000000
    0.750790     0.750800     0.311459     0.000000
    0.054810     0.897860     0.518784     1.031285
    0.262076     0.105148     0.518779     1.032452
    0.375993     0.699317     0.463264     1.027283
    0.460155     0.783485     0.463304     1.032818
    0.928072     0.877547     0.484898     1.027997
    0.857114     0.398730     0.494045     1.033197
    0.681641     0.711180     0.510609     1.031845
    0.623591     0.813310     0.490746     1.026902
    0.125670     0.125670     0.055888     0.000000
    0.625670     0.125670     0.055888     0.000000
    0.375590     0.375590     0.055892     0.000000
    0.875590     0.375590     0.055892     0.000000
    0.125670     0.625670     0.055888     0.000000
    0.625670     0.625670     0.055888     0.000000
    0.375590     0.875590     0.055892     0.000000
    0.875590     0.875590     0.055892     0.000000
    0.375580     0.125690     0.158064     0.000000
    0.875580     0.125690     0.158064     0.000000
    0.125680     0.375590     0.158064     0.000000
    0.625680     0.375590     0.158064     0.000000
    0.375580     0.625690     0.158064     0.000000
    0.875580     0.625690     0.158064     0.000000
    0.125680     0.875590     0.158064     0.000000
    0.625680     0.875590     0.158064     0.000000
    0.125670     0.125670     0.260306     0.000000
    0.625670     0.125670     0.260306     0.000000
    0.375590     0.375590     0.260313     0.000000
    0.875590     0.375590     0.260313     0.000000
    0.125670     0.625670     0.260306     0.000000
    0.625670     0.625670     0.260306     0.000000
    0.375590     0.875590     0.260313     0.000000
    0.875590     0.875590     0.260313     0.000000
    0.375580     0.125690     0.362482     0.000000
    0.875580     0.125690     0.362482     0.000000
    0.125680     0.375590     0.362482     0.000000
    0.625680     0.375590     0.362482     0.000000
    0.375580     0.625690     0.362482     0.000000
    0.875580     0.625690     0.362482     0.000000
    0.125680     0.875590     0.362482     0.000000
    0.625680     0.875590     0.362482     0.000000
EA104   8.593  8.593 21.019 90.08 90.08 90.08 Sym.group:    0
1.0000
    8.593017     0.000000     0.000000
   -0.011983     8.593000     0.000000
   -0.029353    -0.029394    21.018959
   O  Cu
  17   40 
Direct
    0.467906     0.587445     0.399775     1.024847
    0.000610     0.000610     0.004757     0.000000
    0.500610     0.000610     0.004757     0.000000
    0.000610     0.500610     0.004757     0.000000
    0.500610     0.500610     0.004757     0.000000
    0.250790     0.250800     0.107041     0.000000
    0.750790     0.250800     0.107041     0.000000
    0.250790     0.750800     0.107041     0.000000
    0.750790     0.750800     0.107041     0.000000
    0.000610     0.000610     0.209175     0.000000
    0.500610     0.000610     0.209175     0.000000
    0.000610     0.500610     0.209175     0.000000
    0.500610     0.500610     0.209175     0.000000
    0.250790     0.250800     0.311459     0.000000
    0.750790     0.250800     0.311459     0.000000
    0.250790     0.750800     0.311459     0.000000
    0.750790     0.750800     0.311459     0.000000
    0.478046     0.312055     0.440284     1.028235
    0.182366     0.577305     0.440284     1.031727
    0.699813     0.082383     0.513329     1.025240
    0.863519     0.418519     0.382301     1.028163
    0.644462     0.237860     0.467641     1.016239
    0.948976     0.405929     0.458133     1.031725
    0.778197     0.481407     0.443711     1.015377
    0.577287     0.666347     0.494542     1.019981
    0.125670     0.125670     0.055888     0.000000
    0.625670     0.125670     0.055888     0.000000
    0.375590     0.375590     0.055892     0.000000
    0.875590     0.375590     0.055892     0.000000
    0.125670     0.625670     0.055888     0.000000
    0.625670     0.625670     0.055888     0.000000
    0.375590     0.875590     0.055892     0.000000
    0.875590     0.875590     0.055892     0.000000
    0.375580     0.125690     0.158064     0.000000
    0.875580     0.125690     0.158064     0.000000
    0.125680     0.375590     0.158064     0.000000
    0.625680     0.375590     0.158064     0.000000
    0.375580     0.625690     0.158064     0.000000
    0.875580     0.625690     0.158064     0.000000
    0.125680     0.875590     0.158064     0.000000
    0.625680     0.875590     0.158064     0.000000
    0.125670     0.125670     0.260306     0.000000
    0.625670     0.125670     0.260306     0.000000
    0.375590     0.375590     0.260313     0.000000
    0.875590     0.375590     0.260313     0.000000
    0.125670     0.625670     0.260306     0.000000
    0.625670     0.625670     0.260306     0.000000
    0.375590     0.875590     0.260313     0.000000
    0.875590     0.875590     0.260313     0.000000
    0.375580     0.125690     0.362482     0.000000
    0.875580     0.125690     0.362482     0.000000
    0.125680     0.375590     0.362482     0.000000
    0.625680     0.375590     0.362482     0.000000
    0.375580     0.625690     0.362482     0.000000
    0.875580     0.625690     0.362482     0.000000
    0.125680     0.875590     0.362482     0.000000
    0.625680     0.875590     0.362482     0.000000
EA105   8.593  8.593 21.019 90.08 90.08 90.08 Sym.group:    0
1.0000
    8.593017     0.000000     0.000000
   -0.011983     8.593000     0.000000
   -0.029353    -0.029394    21.018959
   O  Cu
  17   40 
Direct
    0.963490     0.781581     0.431159     1.033074
    0.000610     0.000610     0.004757     0.000000
    0.500610     0.000610     0.004757     0.000000
    0.000610     0.500610     0.004757     0.000000
    0.500610     0.500610     0.004757     0.000000
    0.250790     0.250800     0.107041     0.000000
    0.750790     0.250800     0.107041     0.000000
    0.250790     0.750800     0.107041     0.000000
    0.750790     0.750800     0.107041     0.000000
    0.000610     0.000610     0.209175     0.000000
    0.500610     0.000610     0.209175     0.000000
    0.000610     0.500610     0.209175     0.000000
    0.500610     0.500610     0.209175     0.000000
    0.250790     0.250800     0.311459     0.000000
    0.750790     0.250800     0.311459     0.000000
    0.250790     0.750800     0.311459     0.000000
    0.750790     0.750800     0.311459     0.000000
    0.353150     0.391464     0.436486     1.032812
    0.353150     0.183834     0.406852     1.030484
    0.141780     0.425484     0.510552     1.023541
    0.114620     0.116494     0.515189     1.029527
    0.429971     0.884488     0.467995     1.024586
    0.526891     0.561988     0.389406     1.023496
    0.744667     0.172908     0.480398     1.024722
    0.632400     0.462624     0.475912     1.017524
    0.125670     0.125670     0.055888     0.000000
    0.625670     0.125670     0.055888     0.000000
    0.375590     0.375590     0.055892     0.000000
    0.875590     0.375590     0.055892     0.000000
    0.125670     0.625670     0.055888     0.000000
    0.625670     0.625670     0.055888     0.000000
    0.375590     0.875590     0.055892     0.000000
    0.875590     0.875590     0.055892     0.000000
    0.375580     0.125690     0.158064     0.000000
    0.875580     0.125690     0.158064     0.000000
    0.125680     0.375590     0.158064     0.000000
    0.625680     0.375590     0.158064     0.000000
    0.375580     0.625690     0.158064     0.000000
    0.875580     0.625690     0.158064     0.000000
    0.125680     0.875590     0.158064     0.000000
    0.625680     0.875590     0.158064     0.000000
    0.125670     0.125670     0.260306     0.000000
    0.625670     0.125670     0.260306     0.000000
    0.375590     0.375590     0.260313     0.000000
    0.875590     0.375590     0.260313     0.000000
    0.125670     0.625670     0.260306     0.000000
    0.625670     0.625670     0.260306     0.000000
    0.375590     0.875590     0.260313     0.000000
    0.875590     0.875590     0.260313     0.000000
    0.375580     0.125690     0.362482     0.000000
    0.875580     0.125690     0.362482     0.000000
    0.125680     0.375590     0.362482     0.000000
    0.625680     0.375590     0.362482     0.000000
    0.375580     0.625690     0.362482     0.000000
    0.875580     0.625690     0.362482     0.000000
    0.125680     0.875590     0.362482     0.000000
    0.625680     0.875590     0.362482     0.000000
EA106   8.593  8.593 21.019 90.08 90.08 90.08 Sym.group:    0
1.0000
    8.593017     0.000000     0.000000
   -0.011983     8.593000     0.000000
   -0.029353    -0.029394    21.018959
   O  Cu
  17   40 
Direct
    0.831694     0.430115     0.414469     1.028303
    0.000610     0.000610     0.004757     0.000000
    0.500610     0.000610     0.004757     0.000000
    0.000610     0.500610     0.004757     0.000000
    0.500610     0.500610     0.004757     0.000000
    0.250790     0.250800     0.107041     0.000000
    0.750790     0.250800     0.107041     0.000000
    0.250790     0.750800     0.107041     0.000000
    0.750790     0.750800     0.107041     0.000000
    0.000610     0.000610     0.209175     0.000000
    0.500610     0.000610     0.209175     0.000000
    0.000610     0.500610     0.209175     0.000000
    0.500610     0.500610     0.209175     0.000000
    0.250790     0.250800     0.311459     0.000000
    0.750790     0.250800     0.311459     0.000000
    0.250790     0.750800     0.311459     0.000000
    0.750790     0.750800     0.311459     0.000000
    0.309440     0.429254     0.405575     1.026540
    0.009480     0.435864     0.500299     1.031381
    0.067420     0.816994     0.515761     1.025489
    0.445347     0.055244     0.384529     1.029943
    0.752904     0.771465     0.432040     1.033147
    0.490344     0.009985     0.432040     1.030661
    0.498354     0.763455     0.436146     1.027157
    0.437670     0.574974     0.405575     1.021826
    0.125670     0.125670     0.055888     0.000000
    0.625670     0.125670     0.055888     0.000000
    0.375590     0.375590     0.055892     0.000000
    0.875590     0.375590     0.055892     0.000000
    0.125670     0.625670     0.055888     0.000000
    0.625670     0.625670     0.055888     0.000000
    0.375590     0.875590     0.055892     0.000000
    0.875590     0.875590     0.055892     0.000000
    0.375580     0.125690     0.158064     0.000000
    0.875580     0.125690     0.158064     0.000000
    0.125680     0.375590     0.158064     0.000000
    0.625680     0.375590     0.158064     0.000000
    0.375580     0.625690     0.158064     0.000000
    0.875580     0.625690     0.158064     0.000000
    0.125680     0.875590     0.158064     0.000000
    0.625680     0.875590     0.158064     0.000000
    0.125670     0.125670     0.260306     0.000000
    0.625670     0.125670     0.260306     0.000000
    0.375590     0.375590     0.260313     0.000000
    0.875590     0.375590     0.260313     0.000000
    0.125670     0.625670     0.260306     0.000000
    0.625670     0.625670     0.260306     0.000000
    0.375590     0.875590     0.260313     0.000000
    0.875590     0.875590     0.260313     0.000000
    0.375580     0.125690     0.362482     0.000000
    0.875580     0.125690     0.362482     0.000000
    0.125680     0.375590     0.362482     0.000000
    0.625680     0.375590     0.362482     0.000000
    0.375580     0.625690     0.362482     0.000000
    0.875580     0.625690     0.362482     0.000000
    0.125680     0.875590     0.362482     0.000000
    0.625680     0.875590     0.362482     0.000000
EA107   8.593  8.593 21.019 90.08 90.08 90.08 Sym.group:    0
1.0000
    8.593017     0.000000     0.000000
   -0.011983     8.593000     0.000000
   -0.029353    -0.029394    21.018959
   O  Cu
  17   40 
Direct
    0.807779     0.271763     0.386240     1.029335
    0.000610     0.000610     0.004757     0.000000
    0.500610     0.000610     0.004757     0.000000
    0.000610     0.500610     0.004757     0.000000
    0.500610     0.500610     0.004757     0.000000
    0.250790     0.250800     0.107041     0.000000
    0.750790     0.250800     0.107041     0.000000
    0.250790     0.750800     0.107041     0.000000
    0.750790     0.750800     0.107041     0.000000
    0.000610     0.000610     0.209175     0.000000
    0.500610     0.000610     0.209175     0.000000
    0.000610     0.500610     0.209175     0.000000
    0.500610     0.500610     0.209175     0.000000
    0.250790     0.250800     0.311459     0.000000
    0.750790     0.250800     0.311459     0.000000
    0.250790     0.750800     0.311459     0.000000
    0.750790     0.750800     0.311459     0.000000
    0.130934     0.035613     0.448369     1.019397
    0.676804     0.247533     0.448369     1.030935
    0.919374     0.454103     0.406684     1.023980
    0.984620     0.911010     0.392389     1.021694
    0.731333     0.984127     0.387466     1.029894
    0.492757     0.996126     0.386399     1.032270
    0.447457     0.722201     0.389015     1.033114
    0.055039     0.619443     0.435647     1.024162
    0.125670     0.125670     0.055888     0.000000
    0.625670     0.125670     0.055888     0.000000
    0.375590     0.375590     0.055892     0.000000
    0.875590     0.375590     0.055892     0.000000
    0.125670     0.625670     0.055888     0.000000
    0.625670     0.625670     0.055888     0.000000
    0.375590     0.875590     0.055892     0.000000
    0.875590     0.875590     0.055892     0.000000
    0.375580     0.125690     0.158064     0.000000
    0.875580     0.125690     0.158064     0.000000
    0.125680     0.375590     0.158064     0.000000
    0.625680     0.375590     0.158064     0.000000
    0.375580     0.625690     0.158064     0.000000
    0.875580     0.625690     0.158064     0.000000
    0.125680     0.875590     0.158064     0.000000
    0.625680     0.875590     0.158064     0.000000
    0.125670     0.125670     0.260306     0.000000
    0.625670     0.125670     0.260306     0.000000
    0.375590     0.375590     0.260313     0.000000
    0.875590     0.375590     0.260313     0.000000
    0.125670     0.625670     0.260306     0.000000
    0.625670     0.625670     0.260306     0.000000
    0.375590     0.875590     0.260313     0.000000
    0.875590     0.875590     0.260313     0.000000
    0.375580     0.125690     0.362482     0.000000
    0.875580     0.125690     0.362482     0.000000
    0.125680     0.375590     0.362482     0.000000
    0.625680     0.375590     0.362482     0.000000
    0.375580     0.625690     0.362482     0.000000
    0.875580     0.625690     0.362482     0.000000
    0.125680     0.875590     0.362482     0.000000
    0.625680     0.875590     0.362482     0.000000
EA108   8.593  8.593 21.019 90.08 90.08 90.08 Sym.group:    0
1.0000
    8.593017     0.000000     0.000000
   -0.011983     8.593000     0.000000
   -0.029353    -0.029394    21.018959
   O  Cu
  17   40 
Direct
    0.351988     0.664018     0.460138     1.028308
    0.000610     0.000610     0.004757     0.000000
    0.500610     0.000610     0.004757     0.000000
    0.000610     0.500610     0.004757     0.000000
    0.500610     0.500610     0.004757     0.000000
    0.250790     0.250800     0.107041     0.000000
    0.750790     0.250800     0.107041     0.000000
    0.250790     0.750800     0.107041     0.000000
    0.750790     0.750800     0.107041     0.000000
    0.000610     0.000610     0.209175     0.000000
    0.500610     0.000610     0.209175     0.000000
    0.000610     0.500610     0.209175     0.000000
    0.500610     0.500610     0.209175     0.000000
    0.250790     0.250800     0.311459     0.000000
    0.750790     0.250800     0.311459     0.000000
    0.250790     0.750800     0.311459     0.000000
    0.750790     0.750800     0.311459     0.000000
    0.425884     0.340378     0.490365     1.014514
    0.354926     0.861561     0.499512     1.029634
    0.179453     0.174011     0.516075     1.032058
    0.121403     0.276141     0.496213     1.032670
    0.794772     0.968096     0.423892     1.032958
    0.521784     0.655639     0.423886     1.025939
    0.695683     0.937745     0.454367     1.029360
    0.935732     0.316479     0.419283     1.024163
    0.125670     0.125670     0.055888     0.000000
    0.625670     0.125670     0.055888     0.000000
    0.375590     0.375590     0.055892     0.000000
    0.875590     0.375590     0.055892     0.000000
    0.125670     0.625670     0.055888     0.000000
    0.625670     0.625670     0.055888     0.000000
    0.375590     0.875590     0.055892     0.000000
    0.875590     0.875590     0.055892     0.000000
    0.375580     0.125690     0.158064     0.000000
    0.875580     0.125690     0.158064     0.000000
    0.125680     0.375590     0.158064     0.000000
    0.625680     0.375590     0.158064     0.000000
    0.375580     0.625690     0.158064     0.000000
    0.875580     0.625690     0.158064     0.000000
    0.125680     0.875590     0.158064     0.000000
    0.625680     0.875590     0.158064     0.000000
    0.125670     0.125670     0.260306     0.000000
    0.625670     0.125670     0.260306     0.000000
    0.375590     0.375590     0.260313     0.000000
    0.875590     0.375590     0.260313     0.000000
    0.125670     0.625670     0.260306     0.000000
    0.625670     0.625670     0.260306     0.000000
    0.375590     0.875590     0.260313     0.000000
    0.875590     0.875590     0.260313     0.000000
    0.375580     0.125690     0.362482     0.000000
    0.875580     0.125690     0.362482     0.000000
    0.125680     0.375590     0.362482     0.000000
    0.625680     0.375590     0.362482     0.000000
    0.375580     0.625690     0.362482     0.000000
    0.875580     0.625690     0.362482     0.000000
    0.125680     0.875590     0.362482     0.000000
    0.625680     0.875590     0.362482     0.000000
EA109   8.593  8.593 21.019 90.08 90.08 90.08 Sym.group:    0
1.0000
    8.593017     0.000000     0.000000
   -0.011983     8.593000     0.000000
   -0.029353    -0.029394    21.018959
   O  Cu
  17   40 
Direct
    0.183930     0.441939     0.438165     1.024592
    0.000610     0.000610     0.004757     0.000000
    0.500610     0.000610     0.004757     0.000000
    0.000610     0.500610     0.004757     0.000000
    0.500610     0.500610     0.004757     0.000000
    0.250790     0.250800     0.107041     0.000000
    0.750790     0.250800     0.107041     0.000000
    0.250790     0.750800     0.107041     0.000000
    0.750790     0.750800     0.107041     0.000000
    0.000610     0.000610     0.209175     0.000000
    0.500610     0.000610     0.209175     0.000000
    0.000610     0.500610     0.209175     0.000000
    0.500610     0.500610     0.209175     0.000000
    0.250790     0.250800     0.311459     0.000000
    0.750790     0.250800     0.311459     0.000000
    0.250790     0.750800     0.311459     0.000000
    0.750790     0.750800     0.311459     0.000000
    0.360771     0.081186     0.444314     1.032489
    0.400302     0.383986     0.441714     1.027232
    0.107484     0.154303     0.439391     1.032643
    0.022374     0.577752     0.443267     1.021902
    0.431190     0.789619     0.487572     1.029665
    0.870829     0.919908     0.466899     1.032722
    0.758109     0.919908     0.462469     1.028314
    0.764551     0.456357     0.493263     1.014200
    0.125670     0.125670     0.055888     0.000000
    0.625670     0.125670     0.055888     0.000000
    0.375590     0.375590     0.055892     0.000000
    0.875590     0.375590     0.055892     0.000000
    0.125670     0.625670     0.055888     0.000000
    0.625670     0.625670     0.055888     0.000000
    0.375590     0.875590     0.055892     0.000000
    0.875590     0.875590     0.055892     0.000000
    0.375580     0.125690     0.158064     0.000000
    0.875580     0.125690     0.158064     0.000000
    0.125680     0.375590     0.158064     0.000000
    0.625680     0.375590     0.158064     0.000000
    0.375580     0.625690     0.158064     0.000000
    0.875580     0.625690     0.158064     0.000000
    0.125680     0.875590     0.158064     0.000000
    0.625680     0.875590     0.158064     0.000000
    0.125670     0.125670     0.260306     0.000000
    0.625670     0.125670     0.260306     0.000000
    0.375590     0.375590     0.260313     0.000000
    0.875590     0.375590     0.260313     0.000000
    0.125670     0.625670     0.260306     0.000000
    0.625670     0.625670     0.260306     0.000000
    0.375590     0.875590     0.260313     0.000000
    0.875590     0.875590     0.260313     0.000000
    0.375580     0.125690     0.362482     0.000000
    0.875580     0.125690     0.362482     0.000000
    0.125680     0.375590     0.362482     0.000000
    0.625680     0.375590     0.362482     0.000000
    0.375580     0.625690     0.362482     0.000000
    0.875580     0.625690     0.362482     0.000000
    0.125680     0.875590     0.362482     0.000000
    0.625680     0.875590     0.362482     0.000000
EA110   8.593  8.593 21.019 90.08 90.08 90.08 Sym.group:    0
1.0000
    8.593017     0.000000     0.000000
   -0.011983     8.593000     0.000000
   -0.029353    -0.029394    21.018959
   O  Cu
  17   40 
Direct
    0.649994     0.708693     0.412897     1.031970
    0.000610     0.000610     0.004757     0.000000
    0.500610     0.000610     0.004757     0.000000
    0.000610     0.500610     0.004757     0.000000
    0.500610     0.500610     0.004757     0.000000
    0.250790     0.250800     0.107041     0.000000
    0.750790     0.250800     0.107041     0.000000
    0.250790     0.750800     0.107041     0.000000
    0.750790     0.750800     0.107041     0.000000
    0.000610     0.000610     0.209175     0.000000
    0.500610     0.000610     0.209175     0.000000
    0.000610     0.500610     0.209175     0.000000
    0.500610     0.500610     0.209175     0.000000
    0.250790     0.250800     0.311459     0.000000
    0.750790     0.250800     0.311459     0.000000
    0.250790     0.750800     0.311459     0.000000
    0.750790     0.750800     0.311459     0.000000
    0.080569     0.239189     0.480811     1.026114
    0.080569     0.453489     0.480811     1.021437
    0.483464     0.345183     0.458865     1.032743
    0.816524     0.072203     0.458865     1.032804
    0.816524     0.345183     0.458865     1.016845
    0.483464     0.072203     0.458865     1.029632
    0.473419     0.239189     0.480811     1.027588
    0.413899     0.513009     0.504332     1.023947
    0.125670     0.125670     0.055888     0.000000
    0.625670     0.125670     0.055888     0.000000
    0.375590     0.375590     0.055892     0.000000
    0.875590     0.375590     0.055892     0.000000
    0.125670     0.625670     0.055888     0.000000
    0.625670     0.625670     0.055888     0.000000
    0.375590     0.875590     0.055892     0.000000
    0.875590     0.875590     0.055892     0.000000
    0.375580     0.125690     0.158064     0.000000
    0.875580     0.125690     0.158064     0.000000
    0.125680     0.375590     0.158064     0.000000
    0.625680     0.375590     0.158064     0.000000
    0.375580     0.625690     0.158064     0.000000
    0.875580     0.625690     0.158064     0.000000
    0.125680     0.875590     0.158064     0.000000
    0.625680     0.875590     0.158064     0.000000
    0.125670     0.125670     0.260306     0.000000
    0.625670     0.125670     0.260306     0.000000
    0.375590     0.375590     0.260313     0.000000
    0.875590     0.375590     0.260313     0.000000
    0.125670     0.625670     0.260306     0.000000
    0.625670     0.625670     0.260306     0.000000
    0.375590     0.875590     0.260313     0.000000
    0.875590     0.875590     0.260313     0.000000
    0.375580     0.125690     0.362482     0.000000
    0.875580     0.125690     0.362482     0.000000
    0.125680     0.375590     0.362482     0.000000
    0.625680     0.375590     0.362482     0.000000
    0.375580     0.625690     0.362482     0.000000
    0.875580     0.625690     0.362482     0.000000
    0.125680     0.875590     0.362482     0.000000
    0.625680     0.875590     0.362482     0.000000
EA111   8.593  8.593 21.019 90.08 90.08 90.08 Sym.group:    0
1.0000
    8.593017     0.000000     0.000000
   -0.011983     8.593000     0.000000
   -0.029353    -0.029394    21.018959
   O  Cu
  17   40 
Direct
    0.281871     0.699691     0.485818     1.029274
    0.000610     0.000610     0.004757     0.000000
    0.500610     0.000610     0.004757     0.000000
    0.000610     0.500610     0.004757     0.000000
    0.500610     0.500610     0.004757     0.000000
    0.250790     0.250800     0.107041     0.000000
    0.750790     0.250800     0.107041     0.000000
    0.250790     0.750800     0.107041     0.000000
    0.750790     0.750800     0.107041     0.000000
    0.000610     0.000610     0.209175     0.000000
    0.500610     0.000610     0.209175     0.000000
    0.000610     0.500610     0.209175     0.000000
    0.500610     0.500610     0.209175     0.000000
    0.250790     0.250800     0.311459     0.000000
    0.750790     0.250800     0.311459     0.000000
    0.250790     0.750800     0.311459     0.000000
    0.750790     0.750800     0.311459     0.000000
    0.666404     0.198248     0.436133     1.032318
    0.273554     0.198248     0.436133     1.028548
    0.880704     0.412548     0.436133     1.032541
    0.273554     0.412548     0.436133     1.023539
    0.606884     0.472068     0.459654     1.027696
    0.940224     0.138728     0.459654     1.027719
    0.470971     0.957101     0.419444     1.032420
    0.232441     0.889761     0.385053     1.027996
    0.125670     0.125670     0.055888     0.000000
    0.625670     0.125670     0.055888     0.000000
    0.375590     0.375590     0.055892     0.000000
    0.875590     0.375590     0.055892     0.000000
    0.125670     0.625670     0.055888     0.000000
    0.625670     0.625670     0.055888     0.000000
    0.375590     0.875590     0.055892     0.000000
    0.875590     0.875590     0.055892     0.000000
    0.375580     0.125690     0.158064     0.000000
    0.875580     0.125690     0.158064     0.000000
    0.125680     0.375590     0.158064     0.000000
    0.625680     0.375590     0.158064     0.000000
    0.375580     0.625690     0.158064     0.000000
    0.875580     0.625690     0.158064     0.000000
    0.125680     0.875590     0.158064     0.000000
    0.625680     0.875590     0.158064     0.000000
    0.125670     0.125670     0.260306     0.000000
    0.625670     0.125670     0.260306     0.000000
    0.375590     0.375590     0.260313     0.000000
    0.875590     0.375590     0.260313     0.000000
    0.125670     0.625670     0.260306     0.000000
    0.625670     0.625670     0.260306     0.000000
    0.375590     0.875590     0.260313     0.000000
    0.875590     0.875590     0.260313     0.000000
    0.375580     0.125690     0.362482     0.000000
    0.875580     0.125690     0.362482     0.000000
    0.125680     0.375590     0.362482     0.000000
    0.625680     0.375590     0.362482     0.000000
    0.375580     0.625690     0.362482     0.000000
    0.875580     0.625690     0.362482     0.000000
    0.125680     0.875590     0.362482     0.000000
    0.625680     0.875590     0.362482     0.000000
EA112   8.593  8.593 21.019 90.08 90.08 90.08 Sym.group:    0
1.0000
    8.593017     0.000000     0.000000
   -0.011983     8.593000     0.000000
   -0.029353    -0.029394    21.018959
   O  Cu
  17   40 
Direct
    0.093752     0.041645     0.464003     1.024569
    0.000610     0.000610     0.004757     0.000000
    0.500610     0.000610     0.004757     0.000000
    0.000610     0.500610     0.004757     0.000000
    0.500610     0.500610     0.004757     0.000000
    0.250790     0.250800     0.107041     0.000000
    0.750790     0.250800     0.107041     0.000000
    0.250790     0.750800     0.107041     0.000000
    0.750790     0.750800     0.107041     0.000000
    0.000610     0.000610     0.209175     0.000000
    0.500610     0.000610     0.209175     0.000000
    0.000610     0.500610     0.209175     0.000000
    0.500610     0.500610     0.209175     0.000000
    0.250790     0.250800     0.311459     0.000000
    0.750790     0.250800     0.311459     0.000000
    0.250790     0.750800     0.311459     0.000000
    0.750790     0.750800     0.311459     0.000000
    0.008166     0.395565     0.509971     1.023185
    0.012794     0.793829     0.509971     1.028317
    0.561582     0.904367     0.496124     1.025759
    0.882902     0.169307     0.496124     1.020399
    0.650472     0.608607     0.446251     1.019119
    0.794012     0.465067     0.446251     1.018913
    0.473062     0.287657     0.425034     1.032669
    0.935909     0.877518     0.405013     1.031402
    0.125670     0.125670     0.055888     0.000000
    0.625670     0.125670     0.055888     0.000000
    0.375590     0.375590     0.055892     0.000000
    0.875590     0.375590     0.055892     0.000000
    0.125670     0.625670     0.055888     0.000000
    0.625670     0.625670     0.055888     0.000000
    0.375590     0.875590     0.055892     0.000000
    0.875590     0.875590     0.055892     0.000000
    0.375580     0.125690     0.158064     0.000000
    0.875580     0.125690     0.158064     0.000000
    0.125680     0.375590     0.158064     0.000000
    0.625680     0.375590     0.158064     0.000000
    0.375580     0.625690     0.158064     0.000000
    0.875580     0.625690     0.158064     0.000000
    0.125680     0.875590     0.158064     0.000000
    0.625680     0.875590     0.158064     0.000000
    0.125670     0.125670     0.260306     0.000000
    0.625670     0.125670     0.260306     0.000000
    0.375590     0.375590     0.260313     0.000000
    0.875590     0.375590     0.260313     0.000000
    0.125670     0.625670     0.260306     0.000000
    0.625670     0.625670     0.260306     0.000000
    0.375590     0.875590     0.260313     0.000000
    0.875590     0.875590     0.260313     0.000000
    0.375580     0.125690     0.362482     0.000000
    0.875580     0.125690     0.362482     0.000000
    0.125680     0.375590     0.362482     0.000000
    0.625680     0.375590     0.362482     0.000000
    0.375580     0.625690     0.362482     0.000000
    0.875580     0.625690     0.362482     0.000000
    0.125680     0.875590     0.362482     0.000000
    0.625680     0.875590     0.362482     0.000000
EA113   8.593  8.593 21.019 90.08 90.08 90.08 Sym.group:    0
1.0000
    8.593017     0.000000     0.000000
   -0.011983     8.593000     0.000000
   -0.029353    -0.029394    21.018959
   O  Cu
  17   40 
Direct
    0.000000     0.000000     0.475708     1.033268
    0.000610     0.000610     0.004757     0.000000
    0.500610     0.000610     0.004757     0.000000
    0.000610     0.500610     0.004757     0.000000
    0.500610     0.500610     0.004757     0.000000
    0.250790     0.250800     0.107041     0.000000
    0.750790     0.250800     0.107041     0.000000
    0.250790     0.750800     0.107041     0.000000
    0.750790     0.750800     0.107041     0.000000
    0.000610     0.000610     0.209175     0.000000
    0.500610     0.000610     0.209175     0.000000
    0.000610     0.500610     0.209175     0.000000
    0.500610     0.500610     0.209175     0.000000
    0.250790     0.250800     0.311459     0.000000
    0.750790     0.250800     0.311459     0.000000
    0.250790     0.750800     0.311459     0.000000
    0.750790     0.750800     0.311459     0.000000
    0.291230     0.549940     0.505396     1.027472
    0.741280     0.291230     0.505396     1.028454
    0.450060     0.741280     0.505396     1.032038
    0.708770     0.450060     0.505396     1.027507
    0.258720     0.708770     0.505396     1.028453
    0.549940     0.258720     0.505396     1.032006
    0.333330     0.666670     0.446570     1.031048
    0.666670     0.333330     0.446570     1.031050
    0.125670     0.125670     0.055888     0.000000
    0.625670     0.125670     0.055888     0.000000
    0.375590     0.375590     0.055892     0.000000
    0.875590     0.375590     0.055892     0.000000
    0.125670     0.625670     0.055888     0.000000
    0.625670     0.625670     0.055888     0.000000
    0.375590     0.875590     0.055892     0.000000
    0.875590     0.875590     0.055892     0.000000
    0.375580     0.125690     0.158064     0.000000
    0.875580     0.125690     0.158064     0.000000
    0.125680     0.375590     0.158064     0.000000
    0.625680     0.375590     0.158064     0.000000
    0.375580     0.625690     0.158064     0.000000
    0.875580     0.625690     0.158064     0.000000
    0.125680     0.875590     0.158064     0.000000
    0.625680     0.875590     0.158064     0.000000
    0.125670     0.125670     0.260306     0.000000
    0.625670     0.125670     0.260306     0.000000
    0.375590     0.375590     0.260313     0.000000
    0.875590     0.375590     0.260313     0.000000
    0.125670     0.625670     0.260306     0.000000
    0.625670     0.625670     0.260306     0.000000
    0.375590     0.875590     0.260313     0.000000
    0.875590     0.875590     0.260313     0.000000
    0.375580     0.125690     0.362482     0.000000
    0.875580     0.125690     0.362482     0.000000
    0.125680     0.375590     0.362482     0.000000
    0.625680     0.375590     0.362482     0.000000
    0.375580     0.625690     0.362482     0.000000
    0.875580     0.625690     0.362482     0.000000
    0.125680     0.875590     0.362482     0.000000
    0.625680     0.875590     0.362482     0.000000
EA114   8.593  8.593 21.019 90.08 90.08 90.08 Sym.group:    0
1.0000
    8.593017     0.000000     0.000000
   -0.011983     8.593000     0.000000
   -0.029353    -0.029394    21.018959
   O  Cu
  17   40 
Direct
    0.500000     0.500000     0.446529     1.032516
    0.000610     0.000610     0.004757     0.000000
    0.500610     0.000610     0.004757     0.000000
    0.000610     0.500610     0.004757     0.000000
    0.500610     0.500610     0.004757     0.000000
    0.250790     0.250800     0.107041     0.000000
    0.750790     0.250800     0.107041     0.000000
    0.250790     0.750800     0.107041     0.000000
    0.750790     0.750800     0.107041     0.000000
    0.000610     0.000610     0.209175     0.000000
    0.500610     0.000610     0.209175     0.000000
    0.000610     0.500610     0.209175     0.000000
    0.500610     0.500610     0.209175     0.000000
    0.250790     0.250800     0.311459     0.000000
    0.750790     0.250800     0.311459     0.000000
    0.250790     0.750800     0.311459     0.000000
    0.750790     0.750800     0.311459     0.000000
    0.182200     0.182200     0.383195     1.031837
    0.817800     0.817800     0.383195     1.031839
    0.714480     0.285520     0.456037     1.033026
    0.285520     0.714480     0.456037     1.033026
    0.312310     0.885710     0.411326     1.031047
    0.687690     0.114290     0.411326     1.031048
    0.114290     0.687690     0.411326     1.031048
    0.885710     0.312310     0.411326     1.031047
    0.125670     0.125670     0.055888     0.000000
    0.625670     0.125670     0.055888     0.000000
    0.375590     0.375590     0.055892     0.000000
    0.875590     0.375590     0.055892     0.000000
    0.125670     0.625670     0.055888     0.000000
    0.625670     0.625670     0.055888     0.000000
    0.375590     0.875590     0.055892     0.000000
    0.875590     0.875590     0.055892     0.000000
    0.375580     0.125690     0.158064     0.000000
    0.875580     0.125690     0.158064     0.000000
    0.125680     0.375590     0.158064     0.000000
    0.625680     0.375590     0.158064     0.000000
    0.375580     0.625690     0.158064     0.000000
    0.875580     0.625690     0.158064     0.000000
    0.125680     0.875590     0.158064     0.000000
    0.625680     0.875590     0.158064     0.000000
    0.125670     0.125670     0.260306     0.000000
    0.625670     0.125670     0.260306     0.000000
    0.375590     0.375590     0.260313     0.000000
    0.875590     0.375590     0.260313     0.000000
    0.125670     0.625670     0.260306     0.000000
    0.625670     0.625670     0.260306     0.000000
    0.375590     0.875590     0.260313     0.000000
    0.875590     0.875590     0.260313     0.000000
    0.375580     0.125690     0.362482     0.000000
    0.875580     0.125690     0.362482     0.000000
    0.125680     0.375590     0.362482     0.000000
    0.625680     0.375590     0.362482     0.000000
    0.375580     0.625690     0.362482     0.000000
    0.875580     0.625690     0.362482     0.000000
    0.125680     0.875590     0.362482     0.000000
    0.625680     0.875590     0.362482     0.000000
EA115   8.593  8.593 21.019 90.08 90.08 90.08 Sym.group:    0
1.0000
    8.593017     0.000000     0.000000
   -0.011983     8.593000     0.000000
   -0.029353    -0.029394    21.018959
   O  Cu
  17   40 
Direct
    0.500000     0.500000     0.511079     1.008437
    0.000610     0.000610     0.004757     0.000000
    0.500610     0.000610     0.004757     0.000000
    0.000610     0.500610     0.004757     0.000000
    0.500610     0.500610     0.004757     0.000000
    0.250790     0.250800     0.107041     0.000000
    0.750790     0.250800     0.107041     0.000000
    0.250790     0.750800     0.107041     0.000000
    0.750790     0.750800     0.107041     0.000000
    0.000610     0.000610     0.209175     0.000000
    0.500610     0.000610     0.209175     0.000000
    0.000610     0.500610     0.209175     0.000000
    0.500610     0.500610     0.209175     0.000000
    0.250790     0.250800     0.311459     0.000000
    0.750790     0.250800     0.311459     0.000000
    0.250790     0.750800     0.311459     0.000000
    0.750790     0.750800     0.311459     0.000000
    0.558290     0.917480     0.432367     1.028555
    0.441710     0.082520     0.432367     1.028461
    0.082520     0.558290     0.432367     1.028639
    0.917480     0.441710     0.432367     1.028578
    0.441710     0.917480     0.432367     1.028578
    0.558290     0.082520     0.432367     1.028639
    0.917480     0.558290     0.432367     1.028555
    0.082520     0.441710     0.432367     1.028461
    0.125670     0.125670     0.055888     0.000000
    0.625670     0.125670     0.055888     0.000000
    0.375590     0.375590     0.055892     0.000000
    0.875590     0.375590     0.055892     0.000000
    0.125670     0.625670     0.055888     0.000000
    0.625670     0.625670     0.055888     0.000000
    0.375590     0.875590     0.055892     0.000000
    0.875590     0.875590     0.055892     0.000000
    0.375580     0.125690     0.158064     0.000000
    0.875580     0.125690     0.158064     0.000000
    0.125680     0.375590     0.158064     0.000000
    0.625680     0.375590     0.158064     0.000000
    0.375580     0.625690     0.158064     0.000000
    0.875580     0.625690     0.158064     0.000000
    0.125680     0.875590     0.158064     0.000000
    0.625680     0.875590     0.158064     0.000000
    0.125670     0.125670     0.260306     0.000000
    0.625670     0.125670     0.260306     0.000000
    0.375590     0.375590     0.260313     0.000000
    0.875590     0.375590     0.260313     0.000000
    0.125670     0.625670     0.260306     0.000000
    0.625670     0.625670     0.260306     0.000000
    0.375590     0.875590     0.260313     0.000000
    0.875590     0.875590     0.260313     0.000000
    0.375580     0.125690     0.362482     0.000000
    0.875580     0.125690     0.362482     0.000000
    0.125680     0.375590     0.362482     0.000000
    0.625680     0.375590     0.362482     0.000000
    0.375580     0.625690     0.362482     0.000000
    0.875580     0.625690     0.362482     0.000000
    0.125680     0.875590     0.362482     0.000000
    0.625680     0.875590     0.362482     0.000000
EA116   8.593  8.593 21.019 90.08 90.08 90.08 Sym.group:    0
1.0000
    8.593017     0.000000     0.000000
   -0.011983     8.593000     0.000000
   -0.029353    -0.029394    21.018959
   O  Cu
  17   40 
Direct
    0.000000     0.000000     0.491862     1.031016
    0.000610     0.000610     0.004757     0.000000
    0.500610     0.000610     0.004757     0.000000
    0.000610     0.500610     0.004757     0.000000
    0.500610     0.500610     0.004757     0.000000
    0.250790     0.250800     0.107041     0.000000
    0.750790     0.250800     0.107041     0.000000
    0.250790     0.750800     0.107041     0.000000
    0.750790     0.750800     0.107041     0.000000
    0.000610     0.000610     0.209175     0.000000
    0.500610     0.000610     0.209175     0.000000
    0.000610     0.500610     0.209175     0.000000
    0.500610     0.500610     0.209175     0.000000
    0.250790     0.250800     0.311459     0.000000
    0.750790     0.250800     0.311459     0.000000
    0.250790     0.750800     0.311459     0.000000
    0.750790     0.750800     0.311459     0.000000
    0.209210     0.000000     0.425398     1.022385
    0.209210     0.209210     0.425398     1.032578
    0.000000     0.209210     0.425398     1.022385
    0.790790     0.000000     0.425398     1.022386
    0.790790     0.790790     0.425398     1.032571
    0.000000     0.790790     0.425398     1.022386
    0.333330     0.666670     0.478424     1.032625
    0.666670     0.333330     0.478424     1.032625
    0.125670     0.125670     0.055888     0.000000
    0.625670     0.125670     0.055888     0.000000
    0.375590     0.375590     0.055892     0.000000
    0.875590     0.375590     0.055892     0.000000
    0.125670     0.625670     0.055888     0.000000
    0.625670     0.625670     0.055888     0.000000
    0.375590     0.875590     0.055892     0.000000
    0.875590     0.875590     0.055892     0.000000
    0.375580     0.125690     0.158064     0.000000
    0.875580     0.125690     0.158064     0.000000
    0.125680     0.375590     0.158064     0.000000
    0.625680     0.375590     0.158064     0.000000
    0.375580     0.625690     0.158064     0.000000
    0.875580     0.625690     0.158064     0.000000
    0.125680     0.875590     0.158064     0.000000
    0.625680     0.875590     0.158064     0.000000
    0.125670     0.125670     0.260306     0.000000
    0.625670     0.125670     0.260306     0.000000
    0.375590     0.375590     0.260313     0.000000
    0.875590     0.375590     0.260313     0.000000
    0.125670     0.625670     0.260306     0.000000
    0.625670     0.625670     0.260306     0.000000
    0.375590     0.875590     0.260313     0.000000
    0.875590     0.875590     0.260313     0.000000
    0.375580     0.125690     0.362482     0.000000
    0.875580     0.125690     0.362482     0.000000
    0.125680     0.375590     0.362482     0.000000
    0.625680     0.375590     0.362482     0.000000
    0.375580     0.625690     0.362482     0.000000
    0.875580     0.625690     0.362482     0.000000
    0.125680     0.875590     0.362482     0.000000
    0.625680     0.875590     0.362482     0.000000
EA117   8.593  8.593 21.019 90.08 90.08 90.08 Sym.group:    0
1.0000
    8.593017     0.000000     0.000000
   -0.011983     8.593000     0.000000
   -0.029353    -0.029394    21.018959
   O  Cu
  17   40 
Direct
    0.000000     0.500000     0.466575     1.033146
    0.000610     0.000610     0.004757     0.000000
    0.500610     0.000610     0.004757     0.000000
    0.000610     0.500610     0.004757     0.000000
    0.500610     0.500610     0.004757     0.000000
    0.250790     0.250800     0.107041     0.000000
    0.750790     0.250800     0.107041     0.000000
    0.250790     0.750800     0.107041     0.000000
    0.750790     0.750800     0.107041     0.000000
    0.000610     0.000610     0.209175     0.000000
    0.500610     0.000610     0.209175     0.000000
    0.000610     0.500610     0.209175     0.000000
    0.500610     0.500610     0.209175     0.000000
    0.250790     0.250800     0.311459     0.000000
    0.750790     0.250800     0.311459     0.000000
    0.250790     0.750800     0.311459     0.000000
    0.750790     0.750800     0.311459     0.000000
    0.850560     0.706990     0.397038     1.019944
    0.149440     0.293010     0.397038     1.019945
    0.149440     0.706990     0.397038     1.019924
    0.850560     0.293010     0.397038     1.019931
    1.000000     0.821240     0.384868     1.022177
    1.000000     0.178760     0.384868     1.022188
    0.500000     0.576610     0.413617     1.028288
    0.500000     0.423390     0.413617     1.028288
    0.125670     0.125670     0.055888     0.000000
    0.625670     0.125670     0.055888     0.000000
    0.375590     0.375590     0.055892     0.000000
    0.875590     0.375590     0.055892     0.000000
    0.125670     0.625670     0.055888     0.000000
    0.625670     0.625670     0.055888     0.000000
    0.375590     0.875590     0.055892     0.000000
    0.875590     0.875590     0.055892     0.000000
    0.375580     0.125690     0.158064     0.000000
    0.875580     0.125690     0.158064     0.000000
    0.125680     0.375590     0.158064     0.000000
    0.625680     0.375590     0.158064     0.000000
    0.375580     0.625690     0.158064     0.000000
    0.875580     0.625690     0.158064     0.000000
    0.125680     0.875590     0.158064     0.000000
    0.625680     0.875590     0.158064     0.000000
    0.125670     0.125670     0.260306     0.000000
    0.625670     0.125670     0.260306     0.000000
    0.375590     0.375590     0.260313     0.000000
    0.875590     0.375590     0.260313     0.000000
    0.125670     0.625670     0.260306     0.000000
    0.625670     0.625670     0.260306     0.000000
    0.375590     0.875590     0.260313     0.000000
    0.875590     0.875590     0.260313     0.000000
    0.375580     0.125690     0.362482     0.000000
    0.875580     0.125690     0.362482     0.000000
    0.125680     0.375590     0.362482     0.000000
    0.625680     0.375590     0.362482     0.000000
    0.375580     0.625690     0.362482     0.000000
    0.875580     0.625690     0.362482     0.000000
    0.125680     0.875590     0.362482     0.000000
    0.625680     0.875590     0.362482     0.000000
EA118   8.593  8.593 21.019 90.08 90.08 90.08 Sym.group:    0
1.0000
    8.593017     0.000000     0.000000
   -0.011983     8.593000     0.000000
   -0.029353    -0.029394    21.018959
   O  Cu
  17   40 
Direct
    0.514720     0.182100     0.498249     1.019349
    0.000610     0.000610     0.004757     0.000000
    0.500610     0.000610     0.004757     0.000000
    0.000610     0.500610     0.004757     0.000000
    0.500610     0.500610     0.004757     0.000000
    0.250790     0.250800     0.107041     0.000000
    0.750790     0.250800     0.107041     0.000000
    0.250790     0.750800     0.107041     0.000000
    0.750790     0.750800     0.107041     0.000000
    0.000610     0.000610     0.209175     0.000000
    0.500610     0.000610     0.209175     0.000000
    0.000610     0.500610     0.209175     0.000000
    0.500610     0.500610     0.209175     0.000000
    0.250790     0.250800     0.311459     0.000000
    0.750790     0.250800     0.311459     0.000000
    0.250790     0.750800     0.311459     0.000000
    0.750790     0.750800     0.311459     0.000000
    0.888390     0.776270     0.435295     1.024979
    0.888390     0.623180     0.413445     1.023634
    0.479340     0.619150     0.416091     1.021762
    0.479340     0.757730     0.435870     1.023928
    0.610450     0.606110     0.498525     1.019257
    0.610450     0.180170     0.437731     1.024095
    0.053370     0.936190     0.495863     1.033032
    0.053370     0.198820     0.390619     1.029363
    0.125670     0.125670     0.055888     0.000000
    0.625670     0.125670     0.055888     0.000000
    0.375590     0.375590     0.055892     0.000000
    0.875590     0.375590     0.055892     0.000000
    0.125670     0.625670     0.055888     0.000000
    0.625670     0.625670     0.055888     0.000000
    0.375590     0.875590     0.055892     0.000000
    0.875590     0.875590     0.055892     0.000000
    0.375580     0.125690     0.158064     0.000000
    0.875580     0.125690     0.158064     0.000000
    0.125680     0.375590     0.158064     0.000000
    0.625680     0.375590     0.158064     0.000000
    0.375580     0.625690     0.158064     0.000000
    0.875580     0.625690     0.158064     0.000000
    0.125680     0.875590     0.158064     0.000000
    0.625680     0.875590     0.158064     0.000000
    0.125670     0.125670     0.260306     0.000000
    0.625670     0.125670     0.260306     0.000000
    0.375590     0.375590     0.260313     0.000000
    0.875590     0.375590     0.260313     0.000000
    0.125670     0.625670     0.260306     0.000000
    0.625670     0.625670     0.260306     0.000000
    0.375590     0.875590     0.260313     0.000000
    0.875590     0.875590     0.260313     0.000000
    0.375580     0.125690     0.362482     0.000000
    0.875580     0.125690     0.362482     0.000000
    0.125680     0.375590     0.362482     0.000000
    0.625680     0.375590     0.362482     0.000000
    0.375580     0.625690     0.362482     0.000000
    0.875580     0.625690     0.362482     0.000000
    0.125680     0.875590     0.362482     0.000000
    0.625680     0.875590     0.362482     0.000000
EA119   8.593  8.593 21.019 90.08 90.08 90.08 Sym.group:    0
1.0000
    8.593017     0.000000     0.000000
   -0.011983     8.593000     0.000000
   -0.029353    -0.029394    21.018959
   O  Cu
  17   40 
Direct
    0.000000     0.000000     0.522043     1.033043
    0.000610     0.000610     0.004757     0.000000
    0.500610     0.000610     0.004757     0.000000
    0.000610     0.500610     0.004757     0.000000
    0.500610     0.500610     0.004757     0.000000
    0.250790     0.250800     0.107041     0.000000
    0.750790     0.250800     0.107041     0.000000
    0.250790     0.750800     0.107041     0.000000
    0.750790     0.750800     0.107041     0.000000
    0.000610     0.000610     0.209175     0.000000
    0.500610     0.000610     0.209175     0.000000
    0.000610     0.500610     0.209175     0.000000
    0.500610     0.500610     0.209175     0.000000
    0.250790     0.250800     0.311459     0.000000
    0.750790     0.250800     0.311459     0.000000
    0.250790     0.750800     0.311459     0.000000
    0.750790     0.750800     0.311459     0.000000
    0.243840     0.457160     0.522163     1.031574
    0.542840     0.786680     0.522163     1.028177
    0.213320     0.756160     0.522163     1.029807
    0.756160     0.213320     0.522163     1.029807
    0.786680     0.542840     0.522163     1.028177
    0.457160     0.243840     0.522163     1.031574
    0.333330     0.666670     0.436354     1.023955
    0.666670     0.333330     0.436354     1.023955
    0.125670     0.125670     0.055888     0.000000
    0.625670     0.125670     0.055888     0.000000
    0.375590     0.375590     0.055892     0.000000
    0.875590     0.375590     0.055892     0.000000
    0.125670     0.625670     0.055888     0.000000
    0.625670     0.625670     0.055888     0.000000
    0.375590     0.875590     0.055892     0.000000
    0.875590     0.875590     0.055892     0.000000
    0.375580     0.125690     0.158064     0.000000
    0.875580     0.125690     0.158064     0.000000
    0.125680     0.375590     0.158064     0.000000
    0.625680     0.375590     0.158064     0.000000
    0.375580     0.625690     0.158064     0.000000
    0.875580     0.625690     0.158064     0.000000
    0.125680     0.875590     0.158064     0.000000
    0.625680     0.875590     0.158064     0.000000
    0.125670     0.125670     0.260306     0.000000
    0.625670     0.125670     0.260306     0.000000
    0.375590     0.375590     0.260313     0.000000
    0.875590     0.375590     0.260313     0.000000
    0.125670     0.625670     0.260306     0.000000
    0.625670     0.625670     0.260306     0.000000
    0.375590     0.875590     0.260313     0.000000
    0.875590     0.875590     0.260313     0.000000
    0.375580     0.125690     0.362482     0.000000
    0.875580     0.125690     0.362482     0.000000
    0.125680     0.375590     0.362482     0.000000
    0.625680     0.375590     0.362482     0.000000
    0.375580     0.625690     0.362482     0.000000
    0.875580     0.625690     0.362482     0.000000
    0.125680     0.875590     0.362482     0.000000
    0.625680     0.875590     0.362482     0.000000
EA120   8.593  8.593 21.019 90.08 90.08 90.08 Sym.group:    0
1.0000
    8.593017     0.000000     0.000000
   -0.011983     8.593000     0.000000
   -0.029353    -0.029394    21.018959
   O  Cu
  17   40 
Direct
    0.285540     0.112670     0.508159     1.025425
    0.000610     0.000610     0.004757     0.000000
    0.500610     0.000610     0.004757     0.000000
    0.000610     0.500610     0.004757     0.000000
    0.500610     0.500610     0.004757     0.000000
    0.250790     0.250800     0.107041     0.000000
    0.750790     0.250800     0.107041     0.000000
    0.250790     0.750800     0.107041     0.000000
    0.750790     0.750800     0.107041     0.000000
    0.000610     0.000610     0.209175     0.000000
    0.500610     0.000610     0.209175     0.000000
    0.000610     0.500610     0.209175     0.000000
    0.500610     0.500610     0.209175     0.000000
    0.250790     0.250800     0.311459     0.000000
    0.750790     0.250800     0.311459     0.000000
    0.250790     0.750800     0.311459     0.000000
    0.750790     0.750800     0.311459     0.000000
    0.030080     0.515410     0.498402     1.030924
    0.030080     0.181030     0.450677     1.021767
    0.542990     0.043760     0.502187     1.032460
    0.542990     0.154510     0.517994     1.018620
    0.483600     0.545790     0.446340     1.027205
    0.827640     0.080770     0.403221     1.025743
    0.827640     0.847900     0.512712     1.032450
    0.976560     0.762080     0.415470     1.030071
    0.125670     0.125670     0.055888     0.000000
    0.625670     0.125670     0.055888     0.000000
    0.375590     0.375590     0.055892     0.000000
    0.875590     0.375590     0.055892     0.000000
    0.125670     0.625670     0.055888     0.000000
    0.625670     0.625670     0.055888     0.000000
    0.375590     0.875590     0.055892     0.000000
    0.875590     0.875590     0.055892     0.000000
    0.375580     0.125690     0.158064     0.000000
    0.875580     0.125690     0.158064     0.000000
    0.125680     0.375590     0.158064     0.000000
    0.625680     0.375590     0.158064     0.000000
    0.375580     0.625690     0.158064     0.000000
    0.875580     0.625690     0.158064     0.000000
    0.125680     0.875590     0.158064     0.000000
    0.625680     0.875590     0.158064     0.000000
    0.125670     0.125670     0.260306     0.000000
    0.625670     0.125670     0.260306     0.000000
    0.375590     0.375590     0.260313     0.000000
    0.875590     0.375590     0.260313     0.000000
    0.125670     0.625670     0.260306     0.000000
    0.625670     0.625670     0.260306     0.000000
    0.375590     0.875590     0.260313     0.000000
    0.875590     0.875590     0.260313     0.000000
    0.375580     0.125690     0.362482     0.000000
    0.875580     0.125690     0.362482     0.000000
    0.125680     0.375590     0.362482     0.000000
    0.625680     0.375590     0.362482     0.000000
    0.375580     0.625690     0.362482     0.000000
    0.875580     0.625690     0.362482     0.000000
    0.125680     0.875590     0.362482     0.000000
    0.625680     0.875590     0.362482     0.000000
EA121   8.593  8.593 21.019 90.08 90.08 90.08 Sym.group:    0
1.0000
    8.593017     0.000000     0.000000
   -0.011983     8.593000     0.000000
   -0.029353    -0.029394    21.018959
   O  Cu
  17   40 
Direct
    0.000000     0.000000     0.445912     1.033241
    0.000610     0.000610     0.004757     0.000000
    0.500610     0.000610     0.004757     0.000000
    0.000610     0.500610     0.004757     0.000000
    0.500610     0.500610     0.004757     0.000000
    0.250790     0.250800     0.107041     0.000000
    0.750790     0.250800     0.107041     0.000000
    0.250790     0.750800     0.107041     0.000000
    0.750790     0.750800     0.107041     0.000000
    0.000610     0.000610     0.209175     0.000000
    0.500610     0.000610     0.209175     0.000000
    0.000610     0.500610     0.209175     0.000000
    0.500610     0.500610     0.209175     0.000000
    0.250790     0.250800     0.311459     0.000000
    0.750790     0.250800     0.311459     0.000000
    0.250790     0.750800     0.311459     0.000000
    0.750790     0.750800     0.311459     0.000000
    0.721070     0.296420     0.391697     1.022682
    0.703580     0.424650     0.391697     1.021812
    0.575350     0.278930     0.391697     1.022256
    0.010140     0.724610     0.486421     1.028813
    0.275390     0.285540     0.486421     1.025006
    0.714460     0.989860     0.486421     1.026330
    0.333330     0.666670     0.501883     1.027067
    0.000000     0.000000     0.387372     1.033154
    0.125670     0.125670     0.055888     0.000000
    0.625670     0.125670     0.055888     0.000000
    0.375590     0.375590     0.055892     0.000000
    0.875590     0.375590     0.055892     0.000000
    0.125670     0.625670     0.055888     0.000000
    0.625670     0.625670     0.055888     0.000000
    0.375590     0.875590     0.055892     0.000000
    0.875590     0.875590     0.055892     0.000000
    0.375580     0.125690     0.158064     0.000000
    0.875580     0.125690     0.158064     0.000000
    0.125680     0.375590     0.158064     0.000000
    0.625680     0.375590     0.158064     0.000000
    0.375580     0.625690     0.158064     0.000000
    0.875580     0.625690     0.158064     0.000000
    0.125680     0.875590     0.158064     0.000000
    0.625680     0.875590     0.158064     0.000000
    0.125670     0.125670     0.260306     0.000000
    0.625670     0.125670     0.260306     0.000000
    0.375590     0.375590     0.260313     0.000000
    0.875590     0.375590     0.260313     0.000000
    0.125670     0.625670     0.260306     0.000000
    0.625670     0.625670     0.260306     0.000000
    0.375590     0.875590     0.260313     0.000000
    0.875590     0.875590     0.260313     0.000000
    0.375580     0.125690     0.362482     0.000000
    0.875580     0.125690     0.362482     0.000000
    0.125680     0.375590     0.362482     0.000000
    0.625680     0.375590     0.362482     0.000000
    0.375580     0.625690     0.362482     0.000000
    0.875580     0.625690     0.362482     0.000000
    0.125680     0.875590     0.362482     0.000000
    0.625680     0.875590     0.362482     0.000000
EA122   8.593  8.593 21.019 90.08 90.08 90.08 Sym.group:    0
1.0000
    8.593017     0.000000     0.000000
   -0.011983     8.593000     0.000000
   -0.029353    -0.029394    21.018959
   O  Cu
  17   40 
Direct
    0.703580     0.424650     0.391697     1.021816
    0.000610     0.000610     0.004757     0.000000
    0.500610     0.000610     0.004757     0.000000
    0.000610     0.500610     0.004757     0.000000
    0.500610     0.500610     0.004757     0.000000
    0.250790     0.250800     0.107041     0.000000
    0.750790     0.250800     0.107041     0.000000
    0.250790     0.750800     0.107041     0.000000
    0.750790     0.750800     0.107041     0.000000
    0.000610     0.000610     0.209175     0.000000
    0.500610     0.000610     0.209175     0.000000
    0.000610     0.500610     0.209175     0.000000
    0.500610     0.500610     0.209175     0.000000
    0.250790     0.250800     0.311459     0.000000
    0.750790     0.250800     0.311459     0.000000
    0.250790     0.750800     0.311459     0.000000
    0.750790     0.750800     0.311459     0.000000
    0.721070     0.296420     0.391697     1.022980
    0.000000     0.000000     0.445912     1.033238
    0.575350     0.278930     0.391697     1.024803
    0.010140     0.724610     0.486421     1.028806
    0.275390     0.285540     0.486421     1.025009
    0.714460     0.989860     0.486421     1.028205
    0.333330     0.666670     0.501883     1.027067
    0.000000     0.000000     0.387372     1.033148
    0.125670     0.125670     0.055888     0.000000
    0.625670     0.125670     0.055888     0.000000
    0.375590     0.375590     0.055892     0.000000
    0.875590     0.375590     0.055892     0.000000
    0.125670     0.625670     0.055888     0.000000
    0.625670     0.625670     0.055888     0.000000
    0.375590     0.875590     0.055892     0.000000
    0.875590     0.875590     0.055892     0.000000
    0.375580     0.125690     0.158064     0.000000
    0.875580     0.125690     0.158064     0.000000
    0.125680     0.375590     0.158064     0.000000
    0.625680     0.375590     0.158064     0.000000
    0.375580     0.625690     0.158064     0.000000
    0.875580     0.625690     0.158064     0.000000
    0.125680     0.875590     0.158064     0.000000
    0.625680     0.875590     0.158064     0.000000
    0.125670     0.125670     0.260306     0.000000
    0.625670     0.125670     0.260306     0.000000
    0.375590     0.375590     0.260313     0.000000
    0.875590     0.375590     0.260313     0.000000
    0.125670     0.625670     0.260306     0.000000
    0.625670     0.625670     0.260306     0.000000
    0.375590     0.875590     0.260313     0.000000
    0.875590     0.875590     0.260313     0.000000
    0.375580     0.125690     0.362482     0.000000
    0.875580     0.125690     0.362482     0.000000
    0.125680     0.375590     0.362482     0.000000
    0.625680     0.375590     0.362482     0.000000
    0.375580     0.625690     0.362482     0.000000
    0.875580     0.625690     0.362482     0.000000
    0.125680     0.875590     0.362482     0.000000
    0.625680     0.875590     0.362482     0.000000
EA123   8.593  8.593 21.019 90.08 90.08 90.08 Sym.group:    0
1.0000
    8.593017     0.000000     0.000000
   -0.011983     8.593000     0.000000
   -0.029353    -0.029394    21.018959
   O  Cu
  17   40 
Direct
    0.911832     0.849531     0.495345     1.030580
    0.000610     0.000610     0.004757     0.000000
    0.500610     0.000610     0.004757     0.000000
    0.000610     0.500610     0.004757     0.000000
    0.500610     0.500610     0.004757     0.000000
    0.250790     0.250800     0.107041     0.000000
    0.750790     0.250800     0.107041     0.000000
    0.250790     0.750800     0.107041     0.000000
    0.750790     0.750800     0.107041     0.000000
    0.000610     0.000610     0.209175     0.000000
    0.500610     0.000610     0.209175     0.000000
    0.000610     0.500610     0.209175     0.000000
    0.500610     0.500610     0.209175     0.000000
    0.250790     0.250800     0.311459     0.000000
    0.750790     0.250800     0.311459     0.000000
    0.250790     0.750800     0.311459     0.000000
    0.750790     0.750800     0.311459     0.000000
    0.714832     0.241821     0.500165     1.024135
    0.100932     0.314571     0.458605     1.029772
    0.100932     0.106941     0.428971     1.031632
    0.889562     0.348591     0.389943     1.027990
    0.862402     0.039601     0.394580     1.028640
    0.677753     0.807595     0.504907     1.026197
    0.177753     0.807595     0.490114     1.022786
    0.274673     0.485095     0.411525     1.025671
    0.125670     0.125670     0.055888     0.000000
    0.625670     0.125670     0.055888     0.000000
    0.375590     0.375590     0.055892     0.000000
    0.875590     0.375590     0.055892     0.000000
    0.125670     0.625670     0.055888     0.000000
    0.625670     0.625670     0.055888     0.000000
    0.375590     0.875590     0.055892     0.000000
    0.875590     0.875590     0.055892     0.000000
    0.375580     0.125690     0.158064     0.000000
    0.875580     0.125690     0.158064     0.000000
    0.125680     0.375590     0.158064     0.000000
    0.625680     0.375590     0.158064     0.000000
    0.375580     0.625690     0.158064     0.000000
    0.875580     0.625690     0.158064     0.000000
    0.125680     0.875590     0.158064     0.000000
    0.625680     0.875590     0.158064     0.000000
    0.125670     0.125670     0.260306     0.000000
    0.625670     0.125670     0.260306     0.000000
    0.375590     0.375590     0.260313     0.000000
    0.875590     0.375590     0.260313     0.000000
    0.125670     0.625670     0.260306     0.000000
    0.625670     0.625670     0.260306     0.000000
    0.375590     0.875590     0.260313     0.000000
    0.875590     0.875590     0.260313     0.000000
    0.375580     0.125690     0.362482     0.000000
    0.875580     0.125690     0.362482     0.000000
    0.125680     0.375590     0.362482     0.000000
    0.625680     0.375590     0.362482     0.000000
    0.375580     0.625690     0.362482     0.000000
    0.875580     0.625690     0.362482     0.000000
    0.125680     0.875590     0.362482     0.000000
    0.625680     0.875590     0.362482     0.000000
EA124   8.593  8.593 21.019 90.08 90.08 90.08 Sym.group:    0
1.0000
    8.593017     0.000000     0.000000
   -0.011983     8.593000     0.000000
   -0.029353    -0.029394    21.018959
   O  Cu
  17   40 
Direct
    0.928604     0.443215     0.484478     1.030736
    0.000610     0.000610     0.004757     0.000000
    0.500610     0.000610     0.004757     0.000000
    0.000610     0.500610     0.004757     0.000000
    0.500610     0.500610     0.004757     0.000000
    0.250790     0.250800     0.107041     0.000000
    0.750790     0.250800     0.107041     0.000000
    0.250790     0.750800     0.107041     0.000000
    0.750790     0.750800     0.107041     0.000000
    0.000610     0.000610     0.209175     0.000000
    0.500610     0.000610     0.209175     0.000000
    0.000610     0.500610     0.209175     0.000000
    0.500610     0.500610     0.209175     0.000000
    0.250790     0.250800     0.311459     0.000000
    0.750790     0.250800     0.311459     0.000000
    0.250790     0.750800     0.311459     0.000000
    0.750790     0.750800     0.311459     0.000000
    0.285194     0.319315     0.446218     1.027912
    0.092614     0.898085     0.437724     1.023694
    0.383474     0.607225     0.437724     1.022398
    0.756530     0.022122     0.431647     1.027749
    0.756530     0.414972     0.431647     1.032653
    0.970830     0.022122     0.431647     1.030565
    0.970830     0.629272     0.431647     1.023203
    0.697010     0.688792     0.455168     1.023702
    0.125670     0.125670     0.055888     0.000000
    0.625670     0.125670     0.055888     0.000000
    0.375590     0.375590     0.055892     0.000000
    0.875590     0.375590     0.055892     0.000000
    0.125670     0.625670     0.055888     0.000000
    0.625670     0.625670     0.055888     0.000000
    0.375590     0.875590     0.055892     0.000000
    0.875590     0.875590     0.055892     0.000000
    0.375580     0.125690     0.158064     0.000000
    0.875580     0.125690     0.158064     0.000000
    0.125680     0.375590     0.158064     0.000000
    0.625680     0.375590     0.158064     0.000000
    0.375580     0.625690     0.158064     0.000000
    0.875580     0.625690     0.158064     0.000000
    0.125680     0.875590     0.158064     0.000000
    0.625680     0.875590     0.158064     0.000000
    0.125670     0.125670     0.260306     0.000000
    0.625670     0.125670     0.260306     0.000000
    0.375590     0.375590     0.260313     0.000000
    0.875590     0.375590     0.260313     0.000000
    0.125670     0.625670     0.260306     0.000000
    0.625670     0.625670     0.260306     0.000000
    0.375590     0.875590     0.260313     0.000000
    0.875590     0.875590     0.260313     0.000000
    0.375580     0.125690     0.362482     0.000000
    0.875580     0.125690     0.362482     0.000000
    0.125680     0.375590     0.362482     0.000000
    0.625680     0.375590     0.362482     0.000000
    0.375580     0.625690     0.362482     0.000000
    0.875580     0.625690     0.362482     0.000000
    0.125680     0.875590     0.362482     0.000000
    0.625680     0.875590     0.362482     0.000000
EA125   8.593  8.593 21.019 90.08 90.08 90.08 Sym.group:    0
1.0000
    8.593017     0.000000     0.000000
   -0.011983     8.593000     0.000000
   -0.029353    -0.029394    21.018959
   O  Cu
  17   40 
Direct
    0.910602     0.731001     0.413076     1.025354
    0.000610     0.000610     0.004757     0.000000
    0.500610     0.000610     0.004757     0.000000
    0.000610     0.500610     0.004757     0.000000
    0.500610     0.500610     0.004757     0.000000
    0.250790     0.250800     0.107041     0.000000
    0.750790     0.250800     0.107041     0.000000
    0.250790     0.750800     0.107041     0.000000
    0.750790     0.750800     0.107041     0.000000
    0.000610     0.000610     0.209175     0.000000
    0.500610     0.000610     0.209175     0.000000
    0.000610     0.500610     0.209175     0.000000
    0.500610     0.500610     0.209175     0.000000
    0.250790     0.250800     0.311459     0.000000
    0.750790     0.250800     0.311459     0.000000
    0.250790     0.750800     0.311459     0.000000
    0.750790     0.750800     0.311459     0.000000
    0.177208     0.897820     0.453382     1.024918
    0.524652     0.357380     0.383509     1.023019
    0.374874     0.068293     0.423678     1.025354
    0.191211     0.607340     0.463911     1.027540
    0.228990     0.447291     0.458494     1.023381
    0.863389     0.073028     0.420795     1.028809
    0.567395     0.302602     0.429795     1.032696
    0.619402     0.062929     0.435510     1.025799
    0.125670     0.125670     0.055888     0.000000
    0.625670     0.125670     0.055888     0.000000
    0.375590     0.375590     0.055892     0.000000
    0.875590     0.375590     0.055892     0.000000
    0.125670     0.625670     0.055888     0.000000
    0.625670     0.625670     0.055888     0.000000
    0.375590     0.875590     0.055892     0.000000
    0.875590     0.875590     0.055892     0.000000
    0.375580     0.125690     0.158064     0.000000
    0.875580     0.125690     0.158064     0.000000
    0.125680     0.375590     0.158064     0.000000
    0.625680     0.375590     0.158064     0.000000
    0.375580     0.625690     0.158064     0.000000
    0.875580     0.625690     0.158064     0.000000
    0.125680     0.875590     0.158064     0.000000
    0.625680     0.875590     0.158064     0.000000
    0.125670     0.125670     0.260306     0.000000
    0.625670     0.125670     0.260306     0.000000
    0.375590     0.375590     0.260313     0.000000
    0.875590     0.375590     0.260313     0.000000
    0.125670     0.625670     0.260306     0.000000
    0.625670     0.625670     0.260306     0.000000
    0.375590     0.875590     0.260313     0.000000
    0.875590     0.875590     0.260313     0.000000
    0.375580     0.125690     0.362482     0.000000
    0.875580     0.125690     0.362482     0.000000
    0.125680     0.375590     0.362482     0.000000
    0.625680     0.375590     0.362482     0.000000
    0.375580     0.625690     0.362482     0.000000
    0.875580     0.625690     0.362482     0.000000
    0.125680     0.875590     0.362482     0.000000
    0.625680     0.875590     0.362482     0.000000
EA126   8.593  8.593 21.019 90.08 90.08 90.08 Sym.group:    0
1.0000
    8.593017     0.000000     0.000000
   -0.011983     8.593000     0.000000
   -0.029353    -0.029394    21.018959
   O  Cu
  17   40 
Direct
    0.654430     0.265931     0.448889     1.024275
    0.000610     0.000610     0.004757     0.000000
    0.500610     0.000610     0.004757     0.000000
    0.000610     0.500610     0.004757     0.000000
    0.500610     0.500610     0.004757     0.000000
    0.250790     0.250800     0.107041     0.000000
    0.750790     0.250800     0.107041     0.000000
    0.250790     0.750800     0.107041     0.000000
    0.750790     0.750800     0.107041     0.000000
    0.000610     0.000610     0.209175     0.000000
    0.500610     0.000610     0.209175     0.000000
    0.000610     0.500610     0.209175     0.000000
    0.500610     0.500610     0.209175     0.000000
    0.250790     0.250800     0.311459     0.000000
    0.750790     0.250800     0.311459     0.000000
    0.250790     0.750800     0.311459     0.000000
    0.750790     0.750800     0.311459     0.000000
    0.276625     0.294212     0.446959     1.030119
    0.027075     0.815054     0.434503     1.022607
    0.325512     0.615020     0.433282     1.033035
    0.770237     0.020457     0.431764     1.025819
    0.930853     0.408793     0.507858     1.026297
    0.976319     0.997922     0.432538     1.028996
    0.081888     0.945787     0.397582     1.025365
    0.798677     0.681944     0.454524     1.022220
    0.125670     0.125670     0.055888     0.000000
    0.625670     0.125670     0.055888     0.000000
    0.375590     0.375590     0.055892     0.000000
    0.875590     0.375590     0.055892     0.000000
    0.125670     0.625670     0.055888     0.000000
    0.625670     0.625670     0.055888     0.000000
    0.375590     0.875590     0.055892     0.000000
    0.875590     0.875590     0.055892     0.000000
    0.375580     0.125690     0.158064     0.000000
    0.875580     0.125690     0.158064     0.000000
    0.125680     0.375590     0.158064     0.000000
    0.625680     0.375590     0.158064     0.000000
    0.375580     0.625690     0.158064     0.000000
    0.875580     0.625690     0.158064     0.000000
    0.125680     0.875590     0.158064     0.000000
    0.625680     0.875590     0.158064     0.000000
    0.125670     0.125670     0.260306     0.000000
    0.625670     0.125670     0.260306     0.000000
    0.375590     0.375590     0.260313     0.000000
    0.875590     0.375590     0.260313     0.000000
    0.125670     0.625670     0.260306     0.000000
    0.625670     0.625670     0.260306     0.000000
    0.375590     0.875590     0.260313     0.000000
    0.875590     0.875590     0.260313     0.000000
    0.375580     0.125690     0.362482     0.000000
    0.875580     0.125690     0.362482     0.000000
    0.125680     0.375590     0.362482     0.000000
    0.625680     0.375590     0.362482     0.000000
    0.375580     0.625690     0.362482     0.000000
    0.875580     0.625690     0.362482     0.000000
    0.125680     0.875590     0.362482     0.000000
    0.625680     0.875590     0.362482     0.000000
EA127   8.593  8.593 21.019 90.08 90.08 90.08 Sym.group:    0
1.0000
    8.593017     0.000000     0.000000
   -0.011983     8.593000     0.000000
   -0.029353    -0.029394    21.018959
   O  Cu
  17   40 
Direct
    0.712295     0.222888     0.493734     1.033169
    0.000610     0.000610     0.004757     0.000000
    0.500610     0.000610     0.004757     0.000000
    0.000610     0.500610     0.004757     0.000000
    0.500610     0.500610     0.004757     0.000000
    0.250790     0.250800     0.107041     0.000000
    0.750790     0.250800     0.107041     0.000000
    0.250790     0.750800     0.107041     0.000000
    0.750790     0.750800     0.107041     0.000000
    0.000610     0.000610     0.209175     0.000000
    0.500610     0.000610     0.209175     0.000000
    0.000610     0.500610     0.209175     0.000000
    0.500610     0.500610     0.209175     0.000000
    0.250790     0.250800     0.311459     0.000000
    0.750790     0.250800     0.311459     0.000000
    0.250790     0.750800     0.311459     0.000000
    0.750790     0.750800     0.311459     0.000000
    0.948757     0.177043     0.494493     1.029065
    0.028957     0.432933     0.481273     1.025262
    0.752926     0.509207     0.501592     1.025222
    0.447895     0.230780     0.494897     1.031688
    0.320647     0.548898     0.399765     1.021226
    0.104213     0.971950     0.445826     1.024626
    0.989829     0.817897     0.435722     1.021028
    0.454707     0.894166     0.405959     1.029824
    0.125670     0.125670     0.055888     0.000000
    0.625670     0.125670     0.055888     0.000000
    0.375590     0.375590     0.055892     0.000000
    0.875590     0.375590     0.055892     0.000000
    0.125670     0.625670     0.055888     0.000000
    0.625670     0.625670     0.055888     0.000000
    0.375590     0.875590     0.055892     0.000000
    0.875590     0.875590     0.055892     0.000000
    0.375580     0.125690     0.158064     0.000000
    0.875580     0.125690     0.158064     0.000000
    0.125680     0.375590     0.158064     0.000000
    0.625680     0.375590     0.158064     0.000000
    0.375580     0.625690     0.158064     0.000000
    0.875580     0.625690     0.158064     0.000000
    0.125680     0.875590     0.158064     0.000000
    0.625680     0.875590     0.158064     0.000000
    0.125670     0.125670     0.260306     0.000000
    0.625670     0.125670     0.260306     0.000000
    0.375590     0.375590     0.260313     0.000000
    0.875590     0.375590     0.260313     0.000000
    0.125670     0.625670     0.260306     0.000000
    0.625670     0.625670     0.260306     0.000000
    0.375590     0.875590     0.260313     0.000000
    0.875590     0.875590     0.260313     0.000000
    0.375580     0.125690     0.362482     0.000000
    0.875580     0.125690     0.362482     0.000000
    0.125680     0.375590     0.362482     0.000000
    0.625680     0.375590     0.362482     0.000000
    0.375580     0.625690     0.362482     0.000000
    0.875580     0.625690     0.362482     0.000000
    0.125680     0.875590     0.362482     0.000000
    0.625680     0.875590     0.362482     0.000000
EA128   8.593  8.593 21.019 90.08 90.08 90.08 Sym.group:    0
1.0000
    8.593017     0.000000     0.000000
   -0.011983     8.593000     0.000000
   -0.029353    -0.029394    21.018959
   O  Cu
  17   40 
Direct
    0.500000     0.500000     0.414862     1.016999
    0.000610     0.000610     0.004757     0.000000
    0.500610     0.000610     0.004757     0.000000
    0.000610     0.500610     0.004757     0.000000
    0.500610     0.500610     0.004757     0.000000
    0.250790     0.250800     0.107041     0.000000
    0.750790     0.250800     0.107041     0.000000
    0.250790     0.750800     0.107041     0.000000
    0.750790     0.750800     0.107041     0.000000
    0.000610     0.000610     0.209175     0.000000
    0.500610     0.000610     0.209175     0.000000
    0.000610     0.500610     0.209175     0.000000
    0.500610     0.500610     0.209175     0.000000
    0.250790     0.250800     0.311459     0.000000
    0.750790     0.250800     0.311459     0.000000
    0.250790     0.750800     0.311459     0.000000
    0.750790     0.750800     0.311459     0.000000
    0.471036     0.856014     0.460830     1.025335
    0.804096     0.583034     0.460830     1.029383
    0.017357     0.322853     0.460830     1.024313
    0.290337     0.655913     0.460830     1.023273
    0.655761     0.290029     0.460830     1.023203
    0.322701     0.017049     0.460830     1.024443
    0.855847     0.471024     0.460830     1.025333
    0.582867     0.804084     0.460830     1.029406
    0.125670     0.125670     0.055888     0.000000
    0.625670     0.125670     0.055888     0.000000
    0.375590     0.375590     0.055892     0.000000
    0.875590     0.375590     0.055892     0.000000
    0.125670     0.625670     0.055888     0.000000
    0.625670     0.625670     0.055888     0.000000
    0.375590     0.875590     0.055892     0.000000
    0.875590     0.875590     0.055892     0.000000
    0.375580     0.125690     0.158064     0.000000
    0.875580     0.125690     0.158064     0.000000
    0.125680     0.375590     0.158064     0.000000
    0.625680     0.375590     0.158064     0.000000
    0.375580     0.625690     0.158064     0.000000
    0.875580     0.625690     0.158064     0.000000
    0.125680     0.875590     0.158064     0.000000
    0.625680     0.875590     0.158064     0.000000
    0.125670     0.125670     0.260306     0.000000
    0.625670     0.125670     0.260306     0.000000
    0.375590     0.375590     0.260313     0.000000
    0.875590     0.375590     0.260313     0.000000
    0.125670     0.625670     0.260306     0.000000
    0.625670     0.625670     0.260306     0.000000
    0.375590     0.875590     0.260313     0.000000
    0.875590     0.875590     0.260313     0.000000
    0.375580     0.125690     0.362482     0.000000
    0.875580     0.125690     0.362482     0.000000
    0.125680     0.375590     0.362482     0.000000
    0.625680     0.375590     0.362482     0.000000
    0.375580     0.625690     0.362482     0.000000
    0.875580     0.625690     0.362482     0.000000
    0.125680     0.875590     0.362482     0.000000
    0.625680     0.875590     0.362482     0.000000
EA129   8.593  8.593 21.019 90.08 90.08 90.08 Sym.group:    0
1.0000
    8.593017     0.000000     0.000000
   -0.011983     8.593000     0.000000
   -0.029353    -0.029394    21.018959
   O  Cu
  17   40 
Direct
    0.221172     0.905798     0.485762     1.014814
    0.000610     0.000610     0.004757     0.000000
    0.500610     0.000610     0.004757     0.000000
    0.000610     0.500610     0.004757     0.000000
    0.500610     0.500610     0.004757     0.000000
    0.250790     0.250800     0.107041     0.000000
    0.750790     0.250800     0.107041     0.000000
    0.250790     0.750800     0.107041     0.000000
    0.750790     0.750800     0.107041     0.000000
    0.000610     0.000610     0.209175     0.000000
    0.500610     0.000610     0.209175     0.000000
    0.000610     0.500610     0.209175     0.000000
    0.500610     0.500610     0.209175     0.000000
    0.250790     0.250800     0.311459     0.000000
    0.750790     0.250800     0.311459     0.000000
    0.250790     0.750800     0.311459     0.000000
    0.750790     0.750800     0.311459     0.000000
    0.170114     0.034869     0.482360     1.032271
    0.036487     0.416678     0.401964     1.026186
    0.591449     0.622982     0.402059     1.027000
    0.817811     0.842542     0.484207     1.031074
    0.247847     0.226926     0.467987     1.025747
    0.902011     0.999358     0.398168     1.033921
    0.678704     0.323562     0.417818     1.023354
    0.334405     0.627286     0.437642     1.027264
    0.125670     0.125670     0.055888     0.000000
    0.625670     0.125670     0.055888     0.000000
    0.375590     0.375590     0.055892     0.000000
    0.875590     0.375590     0.055892     0.000000
    0.125670     0.625670     0.055888     0.000000
    0.625670     0.625670     0.055888     0.000000
    0.375590     0.875590     0.055892     0.000000
    0.875590     0.875590     0.055892     0.000000
    0.375580     0.125690     0.158064     0.000000
    0.875580     0.125690     0.158064     0.000000
    0.125680     0.375590     0.158064     0.000000
    0.625680     0.375590     0.158064     0.000000
    0.375580     0.625690     0.158064     0.000000
    0.875580     0.625690     0.158064     0.000000
    0.125680     0.875590     0.158064     0.000000
    0.625680     0.875590     0.158064     0.000000
    0.125670     0.125670     0.260306     0.000000
    0.625670     0.125670     0.260306     0.000000
    0.375590     0.375590     0.260313     0.000000
    0.875590     0.375590     0.260313     0.000000
    0.125670     0.625670     0.260306     0.000000
    0.625670     0.625670     0.260306     0.000000
    0.375590     0.875590     0.260313     0.000000
    0.875590     0.875590     0.260313     0.000000
    0.375580     0.125690     0.362482     0.000000
    0.875580     0.125690     0.362482     0.000000
    0.125680     0.375590     0.362482     0.000000
    0.625680     0.375590     0.362482     0.000000
    0.375580     0.625690     0.362482     0.000000
    0.875580     0.625690     0.362482     0.000000
    0.125680     0.875590     0.362482     0.000000
    0.625680     0.875590     0.362482     0.000000
EA130   8.593  8.593 21.019 90.08 90.08 90.08 Sym.group:    0
1.0000
    8.593017     0.000000     0.000000
   -0.011983     8.593000     0.000000
   -0.029353    -0.029394    21.018959
   O  Cu
  17   40 
Direct
    0.500000     0.500000     0.409918     1.023169
    0.000610     0.000610     0.004757     0.000000
    0.500610     0.000610     0.004757     0.000000
    0.000610     0.500610     0.004757     0.000000
    0.500610     0.500610     0.004757     0.000000
    0.250790     0.250800     0.107041     0.000000
    0.750790     0.250800     0.107041     0.000000
    0.250790     0.750800     0.107041     0.000000
    0.750790     0.750800     0.107041     0.000000
    0.000610     0.000610     0.209175     0.000000
    0.500610     0.000610     0.209175     0.000000
    0.000610     0.500610     0.209175     0.000000
    0.500610     0.500610     0.209175     0.000000
    0.250790     0.250800     0.311459     0.000000
    0.750790     0.250800     0.311459     0.000000
    0.250790     0.750800     0.311459     0.000000
    0.750790     0.750800     0.311459     0.000000
    0.365795     0.178501     0.463154     1.020793
    0.800132     0.396014     0.455302     1.023423
    0.861468     0.048738     0.449504     1.022496
    0.640322     0.480893     0.468907     1.023662
    0.117766     0.060241     0.462564     1.024962
    0.779199     0.697220     0.446710     1.026085
    0.035181     0.238580     0.466327     1.021374
    0.400136     0.899812     0.443010     1.032898
    0.125670     0.125670     0.055888     0.000000
    0.625670     0.125670     0.055888     0.000000
    0.375590     0.375590     0.055892     0.000000
    0.875590     0.375590     0.055892     0.000000
    0.125670     0.625670     0.055888     0.000000
    0.625670     0.625670     0.055888     0.000000
    0.375590     0.875590     0.055892     0.000000
    0.875590     0.875590     0.055892     0.000000
    0.375580     0.125690     0.158064     0.000000
    0.875580     0.125690     0.158064     0.000000
    0.125680     0.375590     0.158064     0.000000
    0.625680     0.375590     0.158064     0.000000
    0.375580     0.625690     0.158064     0.000000
    0.875580     0.625690     0.158064     0.000000
    0.125680     0.875590     0.158064     0.000000
    0.625680     0.875590     0.158064     0.000000
    0.125670     0.125670     0.260306     0.000000
    0.625670     0.125670     0.260306     0.000000
    0.375590     0.375590     0.260313     0.000000
    0.875590     0.375590     0.260313     0.000000
    0.125670     0.625670     0.260306     0.000000
    0.625670     0.625670     0.260306     0.000000
    0.375590     0.875590     0.260313     0.000000
    0.875590     0.875590     0.260313     0.000000
    0.375580     0.125690     0.362482     0.000000
    0.875580     0.125690     0.362482     0.000000
    0.125680     0.375590     0.362482     0.000000
    0.625680     0.375590     0.362482     0.000000
    0.375580     0.625690     0.362482     0.000000
    0.875580     0.625690     0.362482     0.000000
    0.125680     0.875590     0.362482     0.000000
    0.625680     0.875590     0.362482     0.000000
EA131   8.593  8.593 21.019 90.08 90.08 90.08 Sym.group:    0
1.0000
    8.593017     0.000000     0.000000
   -0.011983     8.593000     0.000000
   -0.029353    -0.029394    21.018959
   O  Cu
  17   40 
Direct
    0.517145     0.516758     0.414973     1.030729
    0.000610     0.000610     0.004757     0.000000
    0.500610     0.000610     0.004757     0.000000
    0.000610     0.500610     0.004757     0.000000
    0.500610     0.500610     0.004757     0.000000
    0.250790     0.250800     0.107041     0.000000
    0.750790     0.250800     0.107041     0.000000
    0.250790     0.750800     0.107041     0.000000
    0.750790     0.750800     0.107041     0.000000
    0.000610     0.000610     0.209175     0.000000
    0.500610     0.000610     0.209175     0.000000
    0.000610     0.500610     0.209175     0.000000
    0.500610     0.500610     0.209175     0.000000
    0.250790     0.250800     0.311459     0.000000
    0.750790     0.250800     0.311459     0.000000
    0.250790     0.750800     0.311459     0.000000
    0.750790     0.750800     0.311459     0.000000
    0.540945     0.623150     0.460830     1.023254
    0.689228     0.521305     0.458403     1.027641
    0.938180     0.476272     0.460830     1.032051
    0.245179     0.192790     0.460830     1.031801
    0.121996     0.248252     0.460830     1.031540
    0.167657     0.010932     0.460830     1.029705
    0.359939     0.195456     0.463146     1.029285
    0.919731     0.715084     0.460830     1.027554
    0.125670     0.125670     0.055888     0.000000
    0.625670     0.125670     0.055888     0.000000
    0.375590     0.375590     0.055892     0.000000
    0.875590     0.375590     0.055892     0.000000
    0.125670     0.625670     0.055888     0.000000
    0.625670     0.625670     0.055888     0.000000
    0.375590     0.875590     0.055892     0.000000
    0.875590     0.875590     0.055892     0.000000
    0.375580     0.125690     0.158064     0.000000
    0.875580     0.125690     0.158064     0.000000
    0.125680     0.375590     0.158064     0.000000
    0.625680     0.375590     0.158064     0.000000
    0.375580     0.625690     0.158064     0.000000
    0.875580     0.625690     0.158064     0.000000
    0.125680     0.875590     0.158064     0.000000
    0.625680     0.875590     0.158064     0.000000
    0.125670     0.125670     0.260306     0.000000
    0.625670     0.125670     0.260306     0.000000
    0.375590     0.375590     0.260313     0.000000
    0.875590     0.375590     0.260313     0.000000
    0.125670     0.625670     0.260306     0.000000
    0.625670     0.625670     0.260306     0.000000
    0.375590     0.875590     0.260313     0.000000
    0.875590     0.875590     0.260313     0.000000
    0.375580     0.125690     0.362482     0.000000
    0.875580     0.125690     0.362482     0.000000
    0.125680     0.375590     0.362482     0.000000
    0.625680     0.375590     0.362482     0.000000
    0.375580     0.625690     0.362482     0.000000
    0.875580     0.625690     0.362482     0.000000
    0.125680     0.875590     0.362482     0.000000
    0.625680     0.875590     0.362482     0.000000
EA132   8.593  8.593 21.019 90.08 90.08 90.08 Sym.group:    0
1.0000
    8.593017     0.000000     0.000000
   -0.011983     8.593000     0.000000
   -0.029353    -0.029394    21.018959
   O  Cu
  17   40 
Direct
    0.500000     0.500000     0.416988     1.030017
    0.000610     0.000610     0.004757     0.000000
    0.500610     0.000610     0.004757     0.000000
    0.000610     0.500610     0.004757     0.000000
    0.500610     0.500610     0.004757     0.000000
    0.250790     0.250800     0.107041     0.000000
    0.750790     0.250800     0.107041     0.000000
    0.250790     0.750800     0.107041     0.000000
    0.750790     0.750800     0.107041     0.000000
    0.000610     0.000610     0.209175     0.000000
    0.500610     0.000610     0.209175     0.000000
    0.000610     0.500610     0.209175     0.000000
    0.500610     0.500610     0.209175     0.000000
    0.250790     0.250800     0.311459     0.000000
    0.750790     0.250800     0.311459     0.000000
    0.250790     0.750800     0.311459     0.000000
    0.750790     0.750800     0.311459     0.000000
    0.101256     0.541935     0.425250     1.031004
    0.043274     0.744175     0.430708     1.029339
    0.219635     0.449648     0.385436     1.026798
    0.821009     0.521160     0.527996     1.027601
    0.539110     0.853950     0.495576     1.028899
    0.460890     0.146050     0.495576     1.028910
    0.156173     0.532118     0.497025     1.029282
    0.658653     0.210964     0.450757     1.032690
    0.125670     0.125670     0.055888     0.000000
    0.625670     0.125670     0.055888     0.000000
    0.375590     0.375590     0.055892     0.000000
    0.875590     0.375590     0.055892     0.000000
    0.125670     0.625670     0.055888     0.000000
    0.625670     0.625670     0.055888     0.000000
    0.375590     0.875590     0.055892     0.000000
    0.875590     0.875590     0.055892     0.000000
    0.375580     0.125690     0.158064     0.000000
    0.875580     0.125690     0.158064     0.000000
    0.125680     0.375590     0.158064     0.000000
    0.625680     0.375590     0.158064     0.000000
    0.375580     0.625690     0.158064     0.000000
    0.875580     0.625690     0.158064     0.000000
    0.125680     0.875590     0.158064     0.000000
    0.625680     0.875590     0.158064     0.000000
    0.125670     0.125670     0.260306     0.000000
    0.625670     0.125670     0.260306     0.000000
    0.375590     0.375590     0.260313     0.000000
    0.875590     0.375590     0.260313     0.000000
    0.125670     0.625670     0.260306     0.000000
    0.625670     0.625670     0.260306     0.000000
    0.375590     0.875590     0.260313     0.000000
    0.875590     0.875590     0.260313     0.000000
    0.375580     0.125690     0.362482     0.000000
    0.875580     0.125690     0.362482     0.000000
    0.125680     0.375590     0.362482     0.000000
    0.625680     0.375590     0.362482     0.000000
    0.375580     0.625690     0.362482     0.000000
    0.875580     0.625690     0.362482     0.000000
    0.125680     0.875590     0.362482     0.000000
    0.625680     0.875590     0.362482     0.000000
EA133   8.593  8.593 21.019 90.08 90.08 90.08 Sym.group:    0
1.0000
    8.593017     0.000000     0.000000
   -0.011983     8.593000     0.000000
   -0.029353    -0.029394    21.018959
   O  Cu
  17   40 
Direct
    0.100000     0.200000     0.429088     1.033150
    0.000610     0.000610     0.004757     0.000000
    0.500610     0.000610     0.004757     0.000000
    0.000610     0.500610     0.004757     0.000000
    0.500610     0.500610     0.004757     0.000000
    0.250790     0.250800     0.107041     0.000000
    0.750790     0.250800     0.107041     0.000000
    0.250790     0.750800     0.107041     0.000000
    0.750790     0.750800     0.107041     0.000000
    0.000610     0.000610     0.209175     0.000000
    0.500610     0.000610     0.209175     0.000000
    0.000610     0.500610     0.209175     0.000000
    0.500610     0.500610     0.209175     0.000000
    0.250790     0.250800     0.311459     0.000000
    0.750790     0.250800     0.311459     0.000000
    0.250790     0.750800     0.311459     0.000000
    0.750790     0.750800     0.311459     0.000000
    0.800000     0.000000     0.429088     1.028155
    0.710150     0.655815     0.397405     1.028964
    0.000000     0.800000     0.429088     1.025683
    0.500000     0.500000     0.534167     1.031723
    0.543620     0.292305     0.443373     1.033145
    0.073660     0.489285     0.443373     1.026798
    0.346640     0.822345     0.443373     1.031249
    0.543620     0.019325     0.443373     1.031102
    0.125670     0.125670     0.055888     0.000000
    0.625670     0.125670     0.055888     0.000000
    0.375590     0.375590     0.055892     0.000000
    0.875590     0.375590     0.055892     0.000000
    0.125670     0.625670     0.055888     0.000000
    0.625670     0.625670     0.055888     0.000000
    0.375590     0.875590     0.055892     0.000000
    0.875590     0.875590     0.055892     0.000000
    0.375580     0.125690     0.158064     0.000000
    0.875580     0.125690     0.158064     0.000000
    0.125680     0.375590     0.158064     0.000000
    0.625680     0.375590     0.158064     0.000000
    0.375580     0.625690     0.158064     0.000000
    0.875580     0.625690     0.158064     0.000000
    0.125680     0.875590     0.158064     0.000000
    0.625680     0.875590     0.158064     0.000000
    0.125670     0.125670     0.260306     0.000000
    0.625670     0.125670     0.260306     0.000000
    0.375590     0.375590     0.260313     0.000000
    0.875590     0.375590     0.260313     0.000000
    0.125670     0.625670     0.260306     0.000000
    0.625670     0.625670     0.260306     0.000000
    0.375590     0.875590     0.260313     0.000000
    0.875590     0.875590     0.260313     0.000000
    0.375580     0.125690     0.362482     0.000000
    0.875580     0.125690     0.362482     0.000000
    0.125680     0.375590     0.362482     0.000000
    0.625680     0.375590     0.362482     0.000000
    0.375580     0.625690     0.362482     0.000000
    0.875580     0.625690     0.362482     0.000000
    0.125680     0.875590     0.362482     0.000000
    0.625680     0.875590     0.362482     0.000000
EA134   8.593  8.593 21.019 90.08 90.08 90.08 Sym.group:    0
1.0000
    8.593017     0.000000     0.000000
   -0.011983     8.593000     0.000000
   -0.029353    -0.029394    21.018959
   O  Cu
  17   40 
Direct
    0.200000     0.300000     0.429088     1.029177
    0.000610     0.000610     0.004757     0.000000
    0.500610     0.000610     0.004757     0.000000
    0.000610     0.500610     0.004757     0.000000
    0.500610     0.500610     0.004757     0.000000
    0.250790     0.250800     0.107041     0.000000
    0.750790     0.250800     0.107041     0.000000
    0.250790     0.750800     0.107041     0.000000
    0.750790     0.750800     0.107041     0.000000
    0.000610     0.000610     0.209175     0.000000
    0.500610     0.000610     0.209175     0.000000
    0.000610     0.500610     0.209175     0.000000
    0.500610     0.500610     0.209175     0.000000
    0.250790     0.250800     0.311459     0.000000
    0.750790     0.250800     0.311459     0.000000
    0.250790     0.750800     0.311459     0.000000
    0.750790     0.750800     0.311459     0.000000
    0.400000     0.300000     0.429088     1.021584
    0.500000     0.500000     0.414862     1.023807
    0.700000     0.200000     0.429088     1.026649
    0.200000     0.600000     0.429088     1.016752
    0.414414     0.853920     0.460830     1.021890
    0.747474     0.580940     0.460830     1.024236
    0.845043     0.678580     0.460830     1.029756
    0.118023     0.011640     0.460830     1.026457
    0.125670     0.125670     0.055888     0.000000
    0.625670     0.125670     0.055888     0.000000
    0.375590     0.375590     0.055892     0.000000
    0.875590     0.375590     0.055892     0.000000
    0.125670     0.625670     0.055888     0.000000
    0.625670     0.625670     0.055888     0.000000
    0.375590     0.875590     0.055892     0.000000
    0.875590     0.875590     0.055892     0.000000
    0.375580     0.125690     0.158064     0.000000
    0.875580     0.125690     0.158064     0.000000
    0.125680     0.375590     0.158064     0.000000
    0.625680     0.375590     0.158064     0.000000
    0.375580     0.625690     0.158064     0.000000
    0.875580     0.625690     0.158064     0.000000
    0.125680     0.875590     0.158064     0.000000
    0.625680     0.875590     0.158064     0.000000
    0.125670     0.125670     0.260306     0.000000
    0.625670     0.125670     0.260306     0.000000
    0.375590     0.375590     0.260313     0.000000
    0.875590     0.375590     0.260313     0.000000
    0.125670     0.625670     0.260306     0.000000
    0.625670     0.625670     0.260306     0.000000
    0.375590     0.875590     0.260313     0.000000
    0.875590     0.875590     0.260313     0.000000
    0.375580     0.125690     0.362482     0.000000
    0.875580     0.125690     0.362482     0.000000
    0.125680     0.375590     0.362482     0.000000
    0.625680     0.375590     0.362482     0.000000
    0.375580     0.625690     0.362482     0.000000
    0.875580     0.625690     0.362482     0.000000
    0.125680     0.875590     0.362482     0.000000
    0.625680     0.875590     0.362482     0.000000
EA135   8.593  8.593 21.019 90.08 90.08 90.08 Sym.group:    0
1.0000
    8.593017     0.000000     0.000000
   -0.011983     8.593000     0.000000
   -0.029353    -0.029394    21.018959
   O  Cu
  17   40 
Direct
    0.600000     0.100000     0.450171     1.023818
    0.000610     0.000610     0.004757     0.000000
    0.500610     0.000610     0.004757     0.000000
    0.000610     0.500610     0.004757     0.000000
    0.500610     0.500610     0.004757     0.000000
    0.250790     0.250800     0.107041     0.000000
    0.750790     0.250800     0.107041     0.000000
    0.250790     0.750800     0.107041     0.000000
    0.750790     0.750800     0.107041     0.000000
    0.000610     0.000610     0.209175     0.000000
    0.500610     0.000610     0.209175     0.000000
    0.000610     0.500610     0.209175     0.000000
    0.500610     0.500610     0.209175     0.000000
    0.250790     0.250800     0.311459     0.000000
    0.750790     0.250800     0.311459     0.000000
    0.250790     0.750800     0.311459     0.000000
    0.750790     0.750800     0.311459     0.000000
    0.900000     0.700000     0.429088     1.024977
    0.000000     0.000000     0.445912     1.030903
    0.200000     0.700000     0.429088     1.033147
    0.600000     0.800000     0.429088     1.022512
    0.721070     0.296420     0.391697     1.027191
    0.703580     0.424650     0.391697     1.022853
    0.575350     0.278930     0.391697     1.018600
    0.000000     0.000000     0.387372     1.030350
    0.125670     0.125670     0.055888     0.000000
    0.625670     0.125670     0.055888     0.000000
    0.375590     0.375590     0.055892     0.000000
    0.875590     0.375590     0.055892     0.000000
    0.125670     0.625670     0.055888     0.000000
    0.625670     0.625670     0.055888     0.000000
    0.375590     0.875590     0.055892     0.000000
    0.875590     0.875590     0.055892     0.000000
    0.375580     0.125690     0.158064     0.000000
    0.875580     0.125690     0.158064     0.000000
    0.125680     0.375590     0.158064     0.000000
    0.625680     0.375590     0.158064     0.000000
    0.375580     0.625690     0.158064     0.000000
    0.875580     0.625690     0.158064     0.000000
    0.125680     0.875590     0.158064     0.000000
    0.625680     0.875590     0.158064     0.000000
    0.125670     0.125670     0.260306     0.000000
    0.625670     0.125670     0.260306     0.000000
    0.375590     0.375590     0.260313     0.000000
    0.875590     0.375590     0.260313     0.000000
    0.125670     0.625670     0.260306     0.000000
    0.625670     0.625670     0.260306     0.000000
    0.375590     0.875590     0.260313     0.000000
    0.875590     0.875590     0.260313     0.000000
    0.375580     0.125690     0.362482     0.000000
    0.875580     0.125690     0.362482     0.000000
    0.125680     0.375590     0.362482     0.000000
    0.625680     0.375590     0.362482     0.000000
    0.375580     0.625690     0.362482     0.000000
    0.875580     0.625690     0.362482     0.000000
    0.125680     0.875590     0.362482     0.000000
    0.625680     0.875590     0.362482     0.000000
EA136   8.593  8.593 21.019 90.08 90.08 90.08 Sym.group:    0
1.0000
    8.593017     0.000000     0.000000
   -0.011983     8.593000     0.000000
   -0.029353    -0.029394    21.018959
   O  Cu
  17   40 
Direct
    0.800000     0.100000     0.429088     1.025362
    0.000610     0.000610     0.004757     0.000000
    0.500610     0.000610     0.004757     0.000000
    0.000610     0.500610     0.004757     0.000000
    0.500610     0.500610     0.004757     0.000000
    0.250790     0.250800     0.107041     0.000000
    0.750790     0.250800     0.107041     0.000000
    0.250790     0.750800     0.107041     0.000000
    0.750790     0.750800     0.107041     0.000000
    0.000610     0.000610     0.209175     0.000000
    0.500610     0.000610     0.209175     0.000000
    0.000610     0.500610     0.209175     0.000000
    0.500610     0.500610     0.209175     0.000000
    0.250790     0.250800     0.311459     0.000000
    0.750790     0.250800     0.311459     0.000000
    0.250790     0.750800     0.311459     0.000000
    0.750790     0.750800     0.311459     0.000000
    0.700000     0.900000     0.429088     1.014727
    0.000000     0.000000     0.445912     1.028477
    0.100000     0.400000     0.429088     1.028336
    0.600000     0.600000     0.485691     1.022570
    0.721070     0.296420     0.391697     1.021799
    0.703580     0.424650     0.391697     1.015184
    0.575350     0.278930     0.391697     1.023045
    0.000000     0.000000     0.387372     1.027447
    0.125670     0.125670     0.055888     0.000000
    0.625670     0.125670     0.055888     0.000000
    0.375590     0.375590     0.055892     0.000000
    0.875590     0.375590     0.055892     0.000000
    0.125670     0.625670     0.055888     0.000000
    0.625670     0.625670     0.055888     0.000000
    0.375590     0.875590     0.055892     0.000000
    0.875590     0.875590     0.055892     0.000000
    0.375580     0.125690     0.158064     0.000000
    0.875580     0.125690     0.158064     0.000000
    0.125680     0.375590     0.158064     0.000000
    0.625680     0.375590     0.158064     0.000000
    0.375580     0.625690     0.158064     0.000000
    0.875580     0.625690     0.158064     0.000000
    0.125680     0.875590     0.158064     0.000000
    0.625680     0.875590     0.158064     0.000000
    0.125670     0.125670     0.260306     0.000000
    0.625670     0.125670     0.260306     0.000000
    0.375590     0.375590     0.260313     0.000000
    0.875590     0.375590     0.260313     0.000000
    0.125670     0.625670     0.260306     0.000000
    0.625670     0.625670     0.260306     0.000000
    0.375590     0.875590     0.260313     0.000000
    0.875590     0.875590     0.260313     0.000000
    0.375580     0.125690     0.362482     0.000000
    0.875580     0.125690     0.362482     0.000000
    0.125680     0.375590     0.362482     0.000000
    0.625680     0.375590     0.362482     0.000000
    0.375580     0.625690     0.362482     0.000000
    0.875580     0.625690     0.362482     0.000000
    0.125680     0.875590     0.362482     0.000000
    0.625680     0.875590     0.362482     0.000000
EA137   8.593  8.593 21.019 90.08 90.08 90.08 Sym.group:    0
1.0000
    8.593017     0.000000     0.000000
   -0.011983     8.593000     0.000000
   -0.029353    -0.029394    21.018959
   O  Cu
  17   40 
Direct
    0.000000     0.000000     0.405997     1.033009
    0.000610     0.000610     0.004757     0.000000
    0.500610     0.000610     0.004757     0.000000
    0.000610     0.500610     0.004757     0.000000
    0.500610     0.500610     0.004757     0.000000
    0.250790     0.250800     0.107041     0.000000
    0.750790     0.250800     0.107041     0.000000
    0.250790     0.750800     0.107041     0.000000
    0.750790     0.750800     0.107041     0.000000
    0.000610     0.000610     0.209175     0.000000
    0.500610     0.000610     0.209175     0.000000
    0.000610     0.500610     0.209175     0.000000
    0.500610     0.500610     0.209175     0.000000
    0.250790     0.250800     0.311459     0.000000
    0.750790     0.250800     0.311459     0.000000
    0.250790     0.750800     0.311459     0.000000
    0.750790     0.750800     0.311459     0.000000
    0.136503     0.656226     0.386219     1.031036
    0.863515     0.343769     0.386213     1.031035
    0.343769     0.863514     0.386214     1.031034
    0.656226     0.136504     0.386219     1.031036
    0.425505     0.574958     0.455314     1.020942
    0.574948     0.425495     0.455314     1.020942
    0.457686     0.457683     0.473427     1.031730
    0.541848     0.541851     0.473467     1.031793
    0.125670     0.125670     0.055888     0.000000
    0.625670     0.125670     0.055888     0.000000
    0.375590     0.375590     0.055892     0.000000
    0.875590     0.375590     0.055892     0.000000
    0.125670     0.625670     0.055888     0.000000
    0.625670     0.625670     0.055888     0.000000
    0.375590     0.875590     0.055892     0.000000
    0.875590     0.875590     0.055892     0.000000
    0.375580     0.125690     0.158064     0.000000
    0.875580     0.125690     0.158064     0.000000
    0.125680     0.375590     0.158064     0.000000
    0.625680     0.375590     0.158064     0.000000
    0.375580     0.625690     0.158064     0.000000
    0.875580     0.625690     0.158064     0.000000
    0.125680     0.875590     0.158064     0.000000
    0.625680     0.875590     0.158064     0.000000
    0.125670     0.125670     0.260306     0.000000
    0.625670     0.125670     0.260306     0.000000
    0.375590     0.375590     0.260313     0.000000
    0.875590     0.375590     0.260313     0.000000
    0.125670     0.625670     0.260306     0.000000
    0.625670     0.625670     0.260306     0.000000
    0.375590     0.875590     0.260313     0.000000
    0.875590     0.875590     0.260313     0.000000
    0.375580     0.125690     0.362482     0.000000
    0.875580     0.125690     0.362482     0.000000
    0.125680     0.375590     0.362482     0.000000
    0.625680     0.375590     0.362482     0.000000
    0.375580     0.625690     0.362482     0.000000
    0.875580     0.625690     0.362482     0.000000
    0.125680     0.875590     0.362482     0.000000
    0.625680     0.875590     0.362482     0.000000
EA138   8.269  8.269 20.236 90.00 90.00 90.00 Sym.group:    0
1.0000
    8.268542     0.000000     0.000000
    0.000000     8.268542     0.000000
    0.000000     0.000000    20.236213
   O  Cu
  17   40 
Direct
    0.800615     0.032478     0.241168     1.024655
    0.597334     0.813830     0.783805     0.000000
    0.237954     0.012881     0.710314     0.000000
    0.190095     0.837984     0.284099     0.000000
    0.805000     0.441496     0.311452     0.000000
    0.724857     0.340733     0.644493     0.000000
    0.324618     0.246880     0.325377     0.000000
    0.710955     0.767782     0.367629     0.000000
    0.388219     0.411639     0.768865     0.000000
    0.341918     0.193564     0.555454     0.000000
    0.036878     0.796191     0.494473     0.000000
    0.997661     0.218516     0.452338     0.000000
    0.580165     0.038991     0.467439     0.000000
    0.969411     0.481595     0.538028     0.000000
    0.508873     0.564039     0.222128     0.000000
    0.986325     0.612216     0.744596     0.000000
    0.857648     0.917859     0.619878     0.000000
    0.874511     0.708838     0.569062     1.028885
    0.803553     0.230021     0.282065     1.027245
    0.628080     0.542471     0.595767     1.026841
    0.384359     0.684939     0.643480     1.021936
    0.353831     0.451261     0.400248     1.026620
    0.570030     0.644601     0.426887     1.030173
    0.144310     0.306205     0.531672     1.021326
    0.225154     0.810131     0.552240     1.024591
    0.562248     0.372870     0.707245     0.000000
    0.195607     0.530613     0.732411     0.000000
    0.873641     0.478952     0.687524     0.000000
    0.596572     0.941621     0.258019     0.000000
    0.299988     0.031394     0.302409     0.000000
    0.000212     0.509505     0.352748     0.000000
    0.426231     0.905349     0.737281     0.000000
    0.488089     0.618210     0.773162     0.000000
    0.371489     0.731257     0.247238     0.000000
    0.775608     0.149751     0.455197     0.000000
    0.793522     0.723777     0.757811     0.000000
    0.357033     0.374290     0.617530     0.000000
    0.542158     0.948826     0.378668     0.000000
    0.991948     0.940125     0.266205     0.000000
    0.056311     0.945357     0.662507     0.000000
    0.889482     0.752996     0.422549     0.000000
    0.140795     0.243064     0.380476     0.000000
    0.781966     0.126636     0.631274     0.000000
    0.377271     0.015393     0.618143     0.000000
    0.394606     0.568169     0.519094     0.000000
    0.503302     0.281128     0.487848     0.000000
    0.533443     0.856009     0.527862     0.000000
    0.122110     0.562921     0.462030     0.000000
    0.766593     0.466157     0.487854     0.000000
    0.644443     0.641822     0.291751     0.000000
    0.642632     0.832134     0.644797     0.000000
    0.222588     0.709134     0.365680     0.000000
    0.652359     0.374756     0.381233     0.000000
    0.040702     0.008892     0.472856     0.000000
    0.125257     0.554454     0.608700     0.000000
    0.304130     0.219901     0.732541     0.000000
    0.415299     0.407384     0.274223     0.000000
EA139   8.593  8.593 21.019 90.08 90.08 90.08 Sym.group:    0
1.0000
    8.593017     0.000000     0.000000
   -0.011983     8.593000     0.000000
   -0.029353    -0.029394    21.018959
   O  Cu
  17   40 
Direct
    0.000000     0.000000     0.445912     1.033241
    0.000610     0.000610     0.004757     0.000000
    0.500610     0.000610     0.004757     0.000000
    0.000610     0.500610     0.004757     0.000000
    0.500610     0.500610     0.004757     0.000000
    0.250790     0.250800     0.107041     0.000000
    0.750790     0.250800     0.107041     0.000000
    0.250790     0.750800     0.107041     0.000000
    0.750790     0.750800     0.107041     0.000000
    0.000610     0.000610     0.209175     0.000000
    0.500610     0.000610     0.209175     0.000000
    0.000610     0.500610     0.209175     0.000000
    0.500610     0.500610     0.209175     0.000000
    0.250790     0.250800     0.311459     0.000000
    0.750790     0.250800     0.311459     0.000000
    0.250790     0.750800     0.311459     0.000000
    0.750790     0.750800     0.311459     0.000000
    0.721070     0.296420     0.391697     1.022682
    0.703580     0.424650     0.391697     1.021812
    0.575350     0.278930     0.391697     1.022256
    0.010140     0.724610     0.486421     1.028813
    0.275390     0.285540     0.486421     1.025006
    0.714460     0.989860     0.486421     1.026330
    0.333330     0.666670     0.501883     1.027067
    0.000000     0.000000     0.387372     1.033154
    0.125670     0.125670     0.055888     0.000000
    0.625670     0.125670     0.055888     0.000000
    0.375590     0.375590     0.055892     0.000000
    0.875590     0.375590     0.055892     0.000000
    0.125670     0.625670     0.055888     0.000000
    0.625670     0.625670     0.055888     0.000000
    0.375590     0.875590     0.055892     0.000000
    0.875590     0.875590     0.055892     0.000000
    0.375580     0.125690     0.158064     0.000000
    0.875580     0.125690     0.158064     0.000000
    0.125680     0.375590     0.158064     0.000000
    0.625680     0.375590     0.158064     0.000000
    0.375580     0.625690     0.158064     0.000000
    0.875580     0.625690     0.158064     0.000000
    0.125680     0.875590     0.158064     0.000000
    0.625680     0.875590     0.158064     0.000000
    0.125670     0.125670     0.260306     0.000000
    0.625670     0.125670     0.260306     0.000000
    0.375590     0.375590     0.260313     0.000000
    0.875590     0.375590     0.260313     0.000000
    0.125670     0.625670     0.260306     0.000000
    0.625670     0.625670     0.260306     0.000000
    0.375590     0.875590     0.260313     0.000000
    0.875590     0.875590     0.260313     0.000000
    0.375580     0.125690     0.362482     0.000000
    0.875580     0.125690     0.362482     0.000000
    0.125680     0.375590     0.362482     0.000000
    0.625680     0.375590     0.362482     0.000000
    0.375580     0.625690     0.362482     0.000000
    0.875580     0.625690     0.362482     0.000000
    0.125680     0.875590     0.362482     0.000000
    0.625680     0.875590     0.362482     0.000000
EA140   8.593  8.593 21.019 90.08 90.08 90.08 Sym.group:    0
1.0000
    8.593017     0.000000     0.000000
   -0.011983     8.593000     0.000000
   -0.029353    -0.029394    21.018959
   O  Cu
  17   40 
Direct
    0.500000     0.500000     0.414862     1.033226
    0.000610     0.000610     0.004757     0.000000
    0.500610     0.000610     0.004757     0.000000
    0.000610     0.500610     0.004757     0.000000
    0.500610     0.500610     0.004757     0.000000
    0.250790     0.250800     0.107041     0.000000
    0.750790     0.250800     0.107041     0.000000
    0.250790     0.750800     0.107041     0.000000
    0.750790     0.750800     0.107041     0.000000
    0.000610     0.000610     0.209175     0.000000
    0.500610     0.000610     0.209175     0.000000
    0.000610     0.500610     0.209175     0.000000
    0.500610     0.500610     0.209175     0.000000
    0.250790     0.250800     0.311459     0.000000
    0.750790     0.250800     0.311459     0.000000
    0.250790     0.750800     0.311459     0.000000
    0.750790     0.750800     0.311459     0.000000
    0.333470     0.136490     0.460830     1.031441
    0.666530     0.863510     0.460830     1.031440
    0.863510     0.333470     0.460830     1.031609
    0.136490     0.666530     0.460830     1.031609
    0.666530     0.136490     0.460830     1.031609
    0.333470     0.863510     0.460830     1.031609
    0.136490     0.333470     0.460830     1.031441
    0.863510     0.666530     0.460830     1.031440
    0.125670     0.125670     0.055888     0.000000
    0.625670     0.125670     0.055888     0.000000
    0.375590     0.375590     0.055892     0.000000
    0.875590     0.375590     0.055892     0.000000
    0.125670     0.625670     0.055888     0.000000
    0.625670     0.625670     0.055888     0.000000
    0.375590     0.875590     0.055892     0.000000
    0.875590     0.875590     0.055892     0.000000
    0.375580     0.125690     0.158064     0.000000
    0.875580     0.125690     0.158064     0.000000
    0.125680     0.375590     0.158064     0.000000
    0.625680     0.375590     0.158064     0.000000
    0.375580     0.625690     0.158064     0.000000
    0.875580     0.625690     0.158064     0.000000
    0.125680     0.875590     0.158064     0.000000
    0.625680     0.875590     0.158064     0.000000
    0.125670     0.125670     0.260306     0.000000
    0.625670     0.125670     0.260306     0.000000
    0.375590     0.375590     0.260313     0.000000
    0.875590     0.375590     0.260313     0.000000
    0.125670     0.625670     0.260306     0.000000
    0.625670     0.625670     0.260306     0.000000
    0.375590     0.875590     0.260313     0.000000
    0.875590     0.875590     0.260313     0.000000
    0.375580     0.125690     0.362482     0.000000
    0.875580     0.125690     0.362482     0.000000
    0.125680     0.375590     0.362482     0.000000
    0.625680     0.375590     0.362482     0.000000
    0.375580     0.625690     0.362482     0.000000
    0.875580     0.625690     0.362482     0.000000
    0.125680     0.875590     0.362482     0.000000
    0.625680     0.875590     0.362482     0.000000
