Generation:1
EA1
 1.0000000000000000
     6.7787826749740567    0.0000000000000000    0.0000000000000000
     0.0000000000000000   10.2673784944232285    0.0000000000000000
     0.0000000000000000    0.0000000000000000   21.0672484962044955
 O   Cu 
  17  40
Direct
  0.3780793000000000  0.9694386900000000  0.6184902000000000
  0.9294387100000000  0.5360884000000000  0.5437795300000000
  0.6950881200000000  0.1847677600000000  0.2459718400000000
  0.1073150300000000  0.1943698100000000  0.5728780700000000
  0.7955575700000000  0.3805554800000000  0.7325611200000000
  0.4319844800000000  0.2472174600000000  0.4310078000000000
  0.8283975400000000  0.3825008000000000  0.3782527600000000
  0.0490267900000000  0.0532307300000000  0.4255526500000000
  0.9407388900000000  0.0434405000000000  0.6772852400000000
  0.8875178800000000  0.6783122600000000  0.2334806000000000
  0.1647217200000000  0.3434944400000000  0.2796462400000000
  0.5303038200000000  0.6094670100000000  0.4498588600000001
  0.0030464300000000  0.6155967300000000  0.3988753500000000
  0.5246140000000000  0.9191311599999999  0.3560935300000000
  0.4773930700000000  0.6152724400000000  0.6335672200000000
  0.9789153000000002  0.7300052200000000  0.6990694600000000
  0.0731481800000000  0.0172797900000000  0.2521678300000000
  0.5248189800000000  0.0302318800000000  0.5439050100000000
  0.1580416900000000  0.8956099999999999  0.6711202100000000
  0.3161718200000000  0.4628170100000000  0.6159820400000000
  0.4798784400000000  0.7989529399999999  0.6276558600000000
  0.0187268700000000  0.7715821500000000  0.3512249000000000
  0.2608211300000000  0.6182941800000000  0.4279982200000000
  0.5653353700000000  0.7863632700000001  0.4185118300000000
  0.9954028300000000  0.6435522299999999  0.6160159800000000
  0.5846349300000000  0.2877342900000000  0.5975914700000000
  0.4713912600000000  0.0636462900000000  0.4117769900000000
  0.8482089500000000  0.4695521899999999  0.4592179400000000
  0.4753479600000000  0.4450854500000000  0.5016432900000000
  0.9443428699999999  0.2209990100000000  0.4043620900000001
  0.6831452300000000  0.2347591700000000  0.4912768700000000
  0.8038808200000001  0.0144077800000000  0.4675031800000000
  0.9983188700000001  0.3617326000000000  0.5632707000000000
  0.5477769300000001  0.5622367600000000  0.3544444900000000
  0.6805106700000001  0.5412684200000000  0.5868691800000000
  0.1695156200000000  0.6514004400000000  0.2417030800000000
  0.8606127300000000  0.2099915700000000  0.7048962500000000
  0.1463474700000000  0.3940397099999999  0.7224093100000000
  0.3063750500000000  0.2967606000000000  0.3546050500000000
  0.0574483600000000  0.0138781400000000  0.3398328000000000
  0.0626054000000000  0.4865404700000001  0.3336956100000000
  0.2603924900000000  0.2326610000000000  0.6486810400000000
  0.7769569900000000  0.8965572500000001  0.6996513100000000
  0.8754599800000001  0.5562725100000000  0.7204954600000000
  0.6729483900000001  0.3072436000000000  0.3114485800000000
  0.6256217200000000  0.0464697000000000  0.2980008900000000
  0.9810653300000000  0.1996129400000000  0.2563037000000000
  0.5129573500000000  0.3575346500000000  0.7148792700000000
  0.5515422100000000  0.0822252200000000  0.6703848700000000
  0.8451490300000000  0.1101183600000000  0.5848680900000000
  0.6117573100000000  0.6508930800000000  0.2438444400000000
  0.9551242800000000  0.8558376800000000  0.2439269400000000
  0.3860520800000001  0.4637008300000000  0.2626607400000000
  0.4725606300000000  0.8201220500000002  0.7471785800000000
  0.2578169000000000  0.6412525300000000  0.7031973200000000
  0.3783599200000000  0.7760980600000000  0.3120222700000000
  0.2826240300000000  0.2277446600000000  0.5063625899999999
EA2
 1.0000000000000000
     8.5358322003397262    0.0000000000000000    0.0000000000000000
     0.0000000000000000    8.5358322003397262    0.0000000000000000
     0.0000000000000000    0.0000000000000000   18.3161163439953114
 O   Cu 
  17  40
Direct
  0.4896112899999999  0.2297295100000000  0.7342879800000000
  0.4870524300000000  0.4903293899999999  0.2703158700000000
  0.8346259200000000  0.5540936500000000  0.4036142100000000
  0.2515406600000000  0.3984629700000000  0.4281893500000000
  0.5652789499999999  0.2090184800000000  0.3989724900000000
  0.3235454400000000  0.9705916200000001  0.2573645200000000
  0.6672439999999999  0.1159722200000000  0.2362869900000000
  0.9310473100000000  0.6917399600000000  0.2454345800000000
  0.4142610900000000  0.8024157600000000  0.3999404200000000
  0.3226613900000000  0.1423558200000000  0.2638913700000000
  0.6466636600000000  0.9421109500000001  0.2374661400000000
  0.0951781100000000  0.6927690900000000  0.2723731800000000
  0.9178604900000000  0.3787303700000000  0.2592507300000000
  0.0941258300000000  0.3521460700000000  0.7019874400000000
  0.8302024600000000  0.6915803900000000  0.7015219400000000
  0.2762205500000000  0.8592991200000000  0.7362616200000000
  0.0746000800000000  0.3961675600000000  0.2972863800000000
  0.6856820500000000  0.1438524800000000  0.7303325899999999
  0.5973935000000000  0.0902416500000000  0.5763890699999999
  0.3499415200000000  0.7483470300000000  0.6540909300000000
  0.9450801100000000  0.7501226800000000  0.6064336100000000
  0.1177110900000000  0.2399186600000000  0.6112459000000000
  0.8617147100000000  0.0792280000000000  0.6251965400000000
  0.1186981300000000  0.9488553299999999  0.6729026800000000
  0.9689024899999999  0.1829303200000000  0.7366829499999999
  0.9545812200000000  0.0163632000000000  0.4029341200000000
  0.5261536200000000  0.2698998100000000  0.2782286700000000
  0.5073463100000000  0.8713594800000000  0.3121570400000000
  0.7193604300000001  0.4990419400000000  0.2801924200000000
  0.2663172900000000  0.5276591000000000  0.2637211500000000
  0.9671081500000002  0.7302678300000000  0.4600335400000000
  0.1656719400000000  0.2105965000000000  0.4751777700000001
  0.2327768600000000  0.9189172200000000  0.4369930500000000
  0.7659201700000000  0.8981285500000000  0.5203777000000001
  0.8493378499999999  0.9071504300000000  0.7314606299999999
  0.3212147700000000  0.0375142000000000  0.5648851600000000
  0.1303326300000000  0.1784164100000000  0.3202326000000000
  0.1992707600000000  0.7118657300000000  0.5418079500000000
  0.0434921600000000  0.9771197100000000  0.5335295500000000
  0.0375681900000000  0.4620536900000000  0.4148860000000000
  0.5440746000000000  0.0053762900000000  0.4436434000000000
  0.4244780000000000  0.2818650600000000  0.6362932200000000
  0.6628944200000000  0.6652408200000000  0.6279054500000000
  0.6859354500000000  0.3699260100000000  0.5820165600000000
  0.4344508200000000  0.5309351900000000  0.5676524500000000
  0.4571654100000000  0.2826691500000000  0.4946624800000000
  0.7024097200000000  0.6050464000000000  0.4964147200000000
  0.7127304900000000  0.3653194900000000  0.4113014600000000
  0.3445309300000000  0.5968978800000000  0.4260049500000000
  0.9504394500000000  0.5074202799999999  0.6955879300000000
  0.8479528000000000  0.8839993200000000  0.2831793700000000
  0.8585899400000000  0.1631389900000000  0.2897745100000000
  0.1235699500000000  0.9072285700000000  0.2990517000000000
  0.9672605400000001  0.4763450000000000  0.5506655600000000
  0.4881306500000001  0.8027833200000000  0.5376352400000000
  0.8663882800000000  0.2075445100000000  0.5054539500000000
  0.3866346500000000  0.0418325300000000  0.7285036700000000
EA3
 1.0000000000000000
     6.6161140409031693    0.0000000000000000    0.0000000000000000
     0.0000000000000000    9.0052817956878197    0.0000000000000000
     0.0000000000000000    0.0000000000000000   23.3876660934207479
 O   Cu 
  17  40
Direct
  0.3906919500000000  0.7044083100000000  0.6140838600000000
  0.9749696099999999  0.5193006999999999  0.3915005900000000
  0.8215423100000000  0.5840508500000000  0.6468844800000000
  0.1570458300000000  0.2164598200000000  0.5708225200000000
  0.9279060400000000  0.6781068299999999  0.8199478900000000
  0.4216583900000000  0.5942867400000000  0.7515810400000000
  0.2255978300000000  0.9844277000000000  0.2479821800000000
  0.8558146200000000  0.0237613400000000  0.4160985200000000
  0.9700658300000000  0.9745401200000000  0.6296379900000000
  0.7653357900000000  0.3314790200000000  0.8212484000000001
  0.3544186300000001  0.1990004300000000  0.7076344100000000
  0.7910828000000000  0.5291717300000000  0.5892705100000000
  0.2090561400000000  0.5714599500000000  0.2600231400000000
  0.5832235800000000  0.8078316600000000  0.3583530900000000
  0.2979701000000000  0.2618331400000000  0.3685889900000000
  0.6549570400000000  0.3318950600000000  0.5099604400000000
  0.7952923399999999  0.1843734300000000  0.3011289900000000
  0.1653175800000000  0.5674693700000000  0.4552421300000001
  0.3621535100000000  0.3917330500000000  0.7330893400000000
  0.4777397000000000  0.4466046800000000  0.3914713200000000
  0.6970070199999999  0.9959938000000000  0.3359042500000000
  0.7704463900000000  0.6509797400000000  0.3622874200000000
  0.0804714900000000  0.1490992600000000  0.4016000500000000
  0.4611365300000000  0.7159624400000000  0.4236211100000000
  0.9138541300000002  0.6718414900000000  0.5307830200000000
  0.5272384300000000  0.9772209599999999  0.2412319000000000
  0.9869326800000000  0.3806919600000000  0.5687800400000000
  0.9021756399999999  0.9885916000000001  0.7081315099999999
  0.9444786300000000  0.8802203500000000  0.7991322000000001
  0.4765998600000000  0.3259337500000000  0.8263371800000000
  0.2853052900000000  0.1224752600000000  0.3068470800000000
  0.8654948900000000  0.3456415300000000  0.3502082600000000
  0.5152529300000001  0.5847002000000000  0.2734004800000000
  0.1755087300000000  0.1318118400000000  0.6494332200000000
  0.8078050500000000  0.9405719900000001  0.5656825000000000
  0.5721562600000000  0.6222393200000000  0.6821982300000000
  0.1695585000000000  0.8309441000000000  0.6173198500000000
  0.0668041000000000  0.3494422100000000  0.8186293499999999
  0.6892970500000000  0.5972438500000000  0.7884613000000000
  0.1687229800000000  0.1214574600000000  0.7616459100000000
  0.1725894300000000  0.6134005900000000  0.7914894800000000
  0.6310716800000000  0.3275795800000000  0.2624204400000000
  0.9198475400000000  0.0101163800000000  0.2463450500000000
  0.9158046500000001  0.5393714800000000  0.2637321300000000
  0.8198876299999999  0.4393534100000000  0.4536446100000000
  0.3955367900000001  0.2783532600000000  0.5390912400000000
  0.7313490499999999  0.1662373000000000  0.4643410600000000
  0.2471966700000000  0.5681882700000001  0.5655466400000000
  0.5481999400000001  0.7574291800000000  0.5474260800000000
  0.7641621199999999  0.7718145100000000  0.2329966900000000
  0.1575519600000000  0.7788690600000000  0.2592851600000000
  0.8225781599999999  0.1371006000000000  0.7945883200000000
  0.4665578900000000  0.0130107700000000  0.5249958600000000
  0.7456924899999998  0.8737366500000000  0.4677473400000000
  0.4988703400000000  0.5223490600000000  0.4934370300000000
  0.2402367600000000  0.4091258200000000  0.3102053300000000
  0.6841394800000000  0.5217573200000000  0.1850634300000000
EA4
 1.0000000000000000
     8.2685424925968363    0.0000000000000000    0.0000000000000000
     0.0000000000000000    8.2685424925968363    0.0000000000000000
     0.0000000000000000    0.0000000000000000   20.2362125110143651
 O   Cu 
  17  40
Direct
  0.8006145600000000  0.0324776000000000  0.2411678100000000
  0.5973335500000000  0.8138301200000000  0.7838047299999999
  0.2379535000000000  0.0128806600000000  0.7103135100000000
  0.1900946000000000  0.8379839300000000  0.2840991700000000
  0.8049997900000000  0.4414961600000000  0.3114517500000000
  0.7248565300000001  0.3407330800000000  0.6444932500000000
  0.3246176300000000  0.2468798500000000  0.3253773900000000
  0.7109553400000000  0.7677820400000001  0.3676289100000000
  0.3882185100000000  0.4116392400000000  0.7688652100000000
  0.3419177100000000  0.1935644400000000  0.5554542000000000
  0.0368784900000000  0.7961906400000001  0.4944729800000001
  0.9976614100000000  0.2185156500000000  0.4523377700000000
  0.5801653000000000  0.0389912700000000  0.4674386099999999
  0.9694110499999998  0.4815954800000000  0.5380281099999999
  0.5088732200000000  0.5640392000000000  0.2221284700000000
  0.9863248500000001  0.6122156999999999  0.7445955100000000
  0.8576483300000000  0.9178594500000000  0.6198778500000000
  0.8745110300000000  0.7088378600000000  0.5690621500000000
  0.8035534200000000  0.2300211900000000  0.2820647600000000
  0.6280799300000000  0.5424713300000000  0.5957669000000000
  0.3843588000000000  0.6849387400000000  0.6434803700000000
  0.3538313600000000  0.4512611200000000  0.4002484100000000
  0.5700304100000000  0.6446009100000000  0.4268869600000000
  0.1443097200000000  0.3062045500000000  0.5316716500000001
  0.2251535400000000  0.8101305700000000  0.5522404100000000
  0.5622475300000001  0.3728702200000000  0.7072450100000000
  0.1956069800000000  0.5306131300000000  0.7324105400000001
  0.8736405700000001  0.4789522900000000  0.6875244600000000
  0.5965719800000000  0.9416214600000000  0.2580192900000000
  0.2999876300000000  0.0313944000000000  0.3024095000000000
  0.0002120600000000  0.5095049000000000  0.3527482000000000
  0.4262305400000000  0.9053487400000000  0.7372810300000000
  0.4880891900000000  0.6182097100000000  0.7731620500000000
  0.3714886800000000  0.7312568800000000  0.2472377800000000
  0.7756080200000000  0.1497512700000000  0.4551971299999999
  0.7935220100000000  0.7237767899999999  0.7578111800000000
  0.3570334800000000  0.3742896100000000  0.6175296400000000
  0.5421582800000000  0.9488259400000000  0.3786684700000000
  0.9919483600000000  0.9401247800000000  0.2662052100000000
  0.0563109200000000  0.9453572200000000  0.6625074399999999
  0.8894818600000000  0.7529959000000001  0.4225488000000000
  0.1407951800000000  0.2430641400000000  0.3804764500000000
  0.7819660700000000  0.1266360400000000  0.6312738000000000
  0.3772712100000000  0.0153929600000000  0.6181434900000000
  0.3946060700000000  0.5681686700000000  0.5190937500000000
  0.5033023700000000  0.2811278900000000  0.4878478500000000
  0.5334427000000000  0.8560091800000000  0.5278620400000000
  0.1221100700000000  0.5629212900000000  0.4620299500000000
  0.7665929800000000  0.4661565800000000  0.4878538900000001
  0.6444434000000000  0.6418218600000000  0.2917514700000000
  0.6426317800000000  0.8321342800000000  0.6447972100000000
  0.2225880400000000  0.7091339500000000  0.3656798300000000
  0.6523587600000000  0.3747555400000000  0.3812327300000000
  0.0407021400000000  0.0088921500000000  0.4728556400000000
  0.1252573400000000  0.5544538300000000  0.6087001100000000
  0.3041302100000000  0.2199013400000000  0.7325413800000000
  0.4152987100000000  0.4073839600000000  0.2742225400000000
Generation:2
Generation:3
