EA1
 1.0000000000000000
     4.2326969972731279    0.0000000000000000    0.0000000000000000
     0.0000000000000000    4.2326969972731279    0.0000000000000000
     0.0000000000000000    0.0000000000000000   22.6671314443167482
 O   Cu 
   8  24
Direct
  0.7629230062716802  0.6071965156732279  0.2205837122479666
  0.2370769937283198  0.6071965156732279  0.2205837122479666
  0.2370769937283198  0.3928034843267722  0.2205837122479666
  0.3928034843267723  0.2370769937283198  0.2205837122479666
  0.6071965156732279  0.7629230062716802  0.2205837122479666
  0.3928034843267723  0.7629230062716802  0.2205837122479666
  0.6071965156732279  0.2370769937283198  0.2205837122479666
  0.7629230062716802  0.3928034843267723  0.2205837122479666
  0.5000000000000000  0.5000000000000000  0.5650254859099101
  0.6707189585634181  0.3292810414365818  0.6111973518744044
  0.6707189585634181  0.6707189585634181  0.6111973518744044
  0.3292810414365818  0.3292810414365818  0.6111973518744044
  0.3292810414365818  0.6707189585634181  0.6111973518744044
  0.5000000000000000  0.5000000000000000  0.6974398282815694
  0.5000000000000000  0.5000000000000000  0.3137711462318846
  0.8540018497712782  0.1459981502287217  0.4277133084398396
  0.8540018497712782  0.8540018497712782  0.4277133084398396
  0.1459981502287217  0.1459981502287217  0.4277133084398396
  0.1459981502287217  0.8540018497712782  0.4277133084398396
  0.7115966123076390  0.2884033876923610  0.3496501605541208
  0.7115966123076390  0.7115966123076390  0.3496501605541209
  0.2884033876923610  0.2884033876923610  0.3496501605541208
  0.2884033876923610  0.7115966123076390  0.3496501605541208
  0.6993388151772796  1.0000000000000000  0.7586200147884519
  0.3006611848227205  1.0000000000000000  0.7586200147884519
  0.3006611848227205  0.0000000000000000  0.7586200147884519
  0.0000000000000000  0.3006611848227204  0.7586200147884519
  1.0000000000000000  0.6993388151772796  0.7586200147884519
  0.0000000000000000  0.6993388151772795  0.7586200147884519
  1.0000000000000000  0.3006611848227205  0.7586200147884519
  0.6993388151772796  0.0000000000000000  0.7586200147884519
  0.5000000000000000  0.5000000000000000  0.7794162877520334
EA2
 1.0000000000000000
     9.0567351207356790    0.0000000000000000    0.0000000000000000
     0.0000000000000000    9.0567351207356790    0.0000000000000000
     0.0000000000000000    0.0000000000000000   13.2503998483031360
 O   Cu 
   8  24
Direct
  0.5000000000000000  0.5000000000000000  0.3773471032755518
  0.6490802669853828  1.0000000000000000  0.5773697305979419
  0.3509197330146172  0.0000000000000000  0.5773697305979417
  1.0000000000000000  0.3509197330146172  0.5773697305979418
  0.0000000000000000  0.6490802669853828  0.5773697305979417
  0.5000000000000000  0.5000000000000000  0.5724074525912773
  0.5000000000000000  0.5000000000000000  0.5185720430968214
  0.5000000000000000  0.5000000000000000  0.4499440580511328
  0.8623666926736322  0.8729645492048554  0.4901256860870264
  0.1376333073263678  0.1270354507951446  0.4901256860870263
  0.8729645492048554  0.1376333073263678  0.4901256860870263
  0.1270354507951446  0.8623666926736322  0.4901256860870263
  0.6291572900260484  0.7137024322496746  0.4075334147983097
  0.3708427099739516  0.2862975677503254  0.4075334147983097
  0.7137024322496746  0.3708427099739516  0.4075334147983097
  0.2862975677503254  0.6291572900260484  0.4075334147983097
  0.7735545152026779  0.8194048704607755  0.4118634371401276
  0.2264454847973220  0.1805951295392245  0.4118634371401276
  0.8194048704607755  0.2264454847973220  0.4118634371401276
  0.1805951295392245  0.7735545152026779  0.4118634371401276
  0.7845965169325015  0.9887019430983381  0.6226528967244481
  0.2154034830674984  0.0112980569016619  0.6226528967244481
  0.9887019430983381  0.2154034830674985  0.6226528967244481
  0.0112980569016619  0.7845965169325015  0.6226528967244481
  0.5370273046784274  0.7719773500049926  0.5425779645758416
  0.4629726953215726  0.2280226499950075  0.5425779645758416
  0.7719773500049926  0.4629726953215726  0.5425779645758416
  0.2280226499950075  0.5370273046784274  0.5425779645758416
  0.7188701836362518  0.7618355822369667  0.5537110570396265
  0.2811298163637483  0.2381644177630333  0.5537110570396264
  0.7618355822369667  0.2811298163637483  0.5537110570396265
  0.2381644177630333  0.7188701836362518  0.5537110570396265
EA3
 1.0000000000000000
     9.6759803476725068    0.0000000000000000    0.0000000000000000
     0.0000000000000000    9.4675664027162068    0.0000000000000000
     0.0000000000000000    0.0000000000000000   12.2751130115677363
 O   Cu 
   8  24
Direct
  0.7583670387229351  0.7751516519022382  0.4401182373312326
  0.5627378813274966  0.2428134973415953  0.4401182373312326
  0.2094641124804976  0.6821319119850661  0.4401182373312326
  0.8403840588207654  0.9175366492606287  0.4627346089873338
  0.6423824047372957  0.0990285851821661  0.4627346089873338
  0.0478025689728682  0.6835318267861047  0.4627346089873338
  0.5101896775103097  0.5666990204096332  0.5314773479221320
  0.5101896775103097  0.5666990204096332  0.4143766461267522
  1.0000000000000000  0.6488611942408349  0.5206816924728730
  0.3349064265243443  0.0920918993288519  0.5206816924728730
  0.1956626060065850  0.9591439676592128  0.5206816924728730
  0.5720835578255900  0.8618111548774988  0.5493880219331868
  0.7293124419887654  0.3643613219193633  0.5493880219331868
  0.2291730327165741  0.4739245844320372  0.5493880219331868
  0.6514035886767809  1.0000000000000000  0.4073282254336995
  0.8067497588910950  0.2250615630761270  0.4073282254336995
  0.0724156849630534  0.4750354981527724  0.4073282254336995
  0.9604095535206316  0.9031271796756080  0.5926717745663004
  0.5701594790102977  0.0000000000000000  0.5926717745663004
  0.0000000000000000  0.7969698815532917  0.5926717745663004
  0.9152692590151642  0.6048280573984255  0.4263230967625801
  0.3399593579866378  0.1891027674298192  0.4263230967625801
  0.2753404155291274  0.9061662364006549  0.4263230967625801
  0.6511965237688757  0.6949858171193415  0.4998662807653613
  0.5483928699858176  0.3777519255179383  0.4998662807653613
  0.3309796387762362  0.6273593185916198  0.4998662807653613
  0.8465950039946942  0.7792246676832707  0.5685317701280895
  0.5220752574613184  0.1626873328421494  0.5685317701280895
  0.1618987710749167  0.7581850607034794  0.5685317701280895
  0.7352015562123322  0.9380904486879305  0.5476122842470972
  0.7123903663411510  0.1818476271539065  0.5476122842470972
  0.0829771099774462  0.5801589853870627  0.5476122842470972
EA4
 1.0000000000000000
     6.1227147162298756    0.0000000000000000    0.0000000000000000
     0.0000000000000000    6.1227147162298756    0.0000000000000000
     0.0000000000000000    0.0000000000000000   22.6260791835496562
 O   Cu 
   8  24
Direct
  1.0000000000000000  0.9749902020881942  0.5000000000000000
  0.0250097979118059  1.0000000000000000  0.5000000000000000
  0.0000000000000000  0.0250097979118059  0.5000000000000000
  0.9749902020881942  0.0000000000000000  0.5000000000000000
  0.7931663342316204  0.9578636444463441  0.5000000000000000
  0.0421363555536560  0.7931663342316202  0.5000000000000000
  0.2068336657683797  0.0421363555536560  0.5000000000000000
  0.9578636444463441  0.2068336657683797  0.5000000000000000
  0.5036873844081051  0.7626206659705264  0.6281610132529176
  0.5036873844081051  0.7626206659705264  0.3718389867470824
  0.4963126155918948  0.2373793340294736  0.6281610132529176
  0.2373793340294736  0.5036873844081051  0.3718389867470824
  0.2373793340294736  0.5036873844081051  0.6281610132529176
  0.7626206659705264  0.4963126155918948  0.6281610132529176
  0.4963126155918948  0.2373793340294736  0.3718389867470824
  0.7626206659705264  0.4963126155918948  0.3718389867470824
  0.8477075629284651  0.7560678183137262  0.5000000000000000
  0.2439321816862739  0.8477075629284651  0.5000000000000000
  0.1522924370715350  0.2439321816862738  0.5000000000000000
  0.7560678183137262  0.1522924370715350  0.5000000000000000
  0.9404615373032983  0.9079813700645669  0.7790160655127883
  0.9404615373032983  0.9079813700645669  0.2209839344872116
  0.0595384626967017  0.0920186299354331  0.7790160655127883
  0.0920186299354331  0.9404615373032983  0.2209839344872116
  0.0920186299354331  0.9404615373032983  0.7790160655127883
  0.9079813700645669  0.0595384626967017  0.7790160655127883
  0.0595384626967017  0.0920186299354331  0.2209839344872116
  0.9079813700645669  0.0595384626967017  0.2209839344872116
  0.5391416430046327  0.8722270115977487  0.5000000000000000
  0.1277729884022512  0.5391416430046327  0.5000000000000000
  0.4608583569953672  0.1277729884022512  0.5000000000000000
  0.8722270115977487  0.4608583569953672  0.5000000000000000
EA5
 1.0000000000000000
     4.9061074596274237    0.0000000000000000    0.0000000000000000
     0.0000000000000000    4.9061074596274237    0.0000000000000000
     0.0000000000000000    0.0000000000000000   22.9174619482789552
 O   Cu 
   8  24
Direct
  0.5900997052096837  0.8307530672337035  0.7818257531621869
  0.5900997052096837  0.1692469327662966  0.2181742468378130
  0.4099002947903163  0.1692469327662966  0.7818257531621869
  0.8307530672337035  0.5900997052096837  0.2181742468378130
  0.1692469327662966  0.4099002947903163  0.2181742468378130
  0.1692469327662966  0.5900997052096837  0.7818257531621869
  0.8307530672337035  0.4099002947903163  0.7818257531621869
  0.4099002947903163  0.8307530672337035  0.2181742468378130
  0.5244506873346724  0.7102283199778102  0.6366565984929133
  0.5244506873346724  0.2897716800221898  0.3633434015070866
  0.4755493126653277  0.2897716800221898  0.6366565984929133
  0.7102283199778102  0.5244506873346724  0.3633434015070866
  0.2897716800221898  0.4755493126653276  0.3633434015070866
  0.2897716800221898  0.5244506873346724  0.6366565984929133
  0.7102283199778102  0.4755493126653277  0.6366565984929133
  0.4755493126653277  0.7102283199778102  0.3633434015070866
  0.5920044004711890  1.0000000000000000  0.7260895319669360
  0.5920044004711890  0.0000000000000000  0.2739104680330640
  0.4079955995288110  0.0000000000000000  0.7260895319669360
  1.0000000000000000  0.5920044004711890  0.2739104680330640
  0.0000000000000000  0.4079955995288110  0.2739104680330640
  0.0000000000000000  0.5920044004711890  0.7260895319669360
  1.0000000000000000  0.4079955995288110  0.7260895319669360
  0.4079955995288110  1.0000000000000000  0.2739104680330640
  0.6451366233456541  0.3548633766543458  0.5000000000000000
  0.3548633766543458  0.6451366233456541  0.5000000000000000
  0.6451366233456541  0.6451366233456541  0.5000000000000000
  0.3548633766543458  0.3548633766543458  0.5000000000000000
  0.5000000000000000  0.5000000000000000  0.6917225582265145
  0.5000000000000000  0.5000000000000000  0.3082774417734855
  0.5000000000000000  0.5000000000000000  0.5859568754980754
  0.5000000000000000  0.5000000000000000  0.4140431245019245
