EA1
 1.0000000000000000
     5.5337383255088444    0.0000000000000000    0.0000000000000000
     0.0000000000000000    8.0725189725711672    0.0000000000000000
     0.0000000000000000    0.0000000000000000   21.2570901381993806
 O   Cu 
  19  40
Direct
  0.6843332000000000  0.5202561700000000  0.4234618300000000
  0.3747815700000000  0.7230184600000000  0.2786054200000000
  0.7350894200000000  0.5026421700000000  0.1440215600000000
  0.0726599300000000  0.1070239900000000  0.1695575200000000
  0.0834018900000000  0.6725983300000000  0.8586746600000000
  0.0324322500000000  0.3248291100000000  0.8205989700000000
  0.4032582500000000  0.0372249400000000  0.9196380199999999
  0.8513482800000001  0.9851866600000000  0.6168165600000000
  0.6739947300000000  0.6972346800000000  0.7153354700000000
  0.3343703700000000  0.6885688100000000  0.1473140200000000
  0.8443802400000000  0.1054690700000000  0.4355671300000000
  0.7415919900000001  0.5328938400000000  0.2858048400000000
  0.5347332000000000  0.0738089600000000  0.2791707800000000
  0.8205485700000000  0.9589235900000000  0.7862550600000001
  0.1594789000000000  0.2440145600000000  0.5952079000000000
  0.7663476000000000  0.4534714200000000  0.6255217800000000
  0.9693748400000000  0.8401001400000000  0.3350584500000000
  0.2306296000000000  0.3812358500000000  0.3050385900000000
  0.5188502000000000  0.2191338400000000  0.7007279400000000
  0.0384437500000000  0.5884482400000000  0.1514352200000000
  0.4450002100000000  0.1496486700000000  0.1684585700000000
  0.1097453700000000  0.8025294400000000  0.4184408900000000
  0.5821418000000000  0.9786266700000000  0.7103528300000000
  0.5944046300000000  0.4563824700000000  0.7098549500000000
  0.5511970500000000  0.6106236900000001  0.2120810100000000
  0.9387774500000000  0.7440065700000000  0.6508415300000000
  0.6055634100000000  0.0268267900000000  0.8479133900000000
  0.1078059700000000  0.2241390100000000  0.2509612600000000
  0.6818004600000001  0.3329675400000000  0.8194129800000000
  0.1962405100000000  0.8902577000000000  0.1608779000000000
  0.7885348100000001  0.0169900500000000  0.2200723000000000
  0.2443273200000000  0.8534391099999999  0.8879309899999999
  0.8804779699999999  0.7118491300000001  0.7887794000000000
  0.2147151300000000  0.1839652100000000  0.8728897800000001
  0.7735234600000001  0.2205446200000000  0.6097837200000000
  0.7260415699999999  0.0500662200000000  0.3548656100000000
  0.2852578000000000  0.5260000000000000  0.8123295699999998
  0.6060298000000000  0.3196312900000000  0.2871286800000000
  0.1740684100000000  0.4129153700000000  0.3955332000000000
  0.2753151200000000  0.2571691300000000  0.7588940300000000
  0.1342778400000000  0.4820243400000000  0.6240492000000000
  0.5233416300000000  0.5405868800000000  0.5719099600000001
  0.4075440900000000  0.1206050300000000  0.5392548100000000
  0.8841254900000000  0.6114225500000000  0.4908003000000000
  0.3879503300000000  0.6053842500000000  0.4627988700000000
  0.2034584000000000  0.1126973200000000  0.4313737100000001
  0.5849095900000000  0.8511101500000000  0.5795007599999999
  0.1773255400000000  0.3673850500000000  0.5102678700000000
  0.2264911700000000  0.9950829400000000  0.6353761100000000
  0.5121901599999999  0.9081568600000000  0.4583911200000000
  0.5657565200000000  0.2861145300000000  0.4464099600000000
  0.9043221600000000  0.0134410600000000  0.5199234600000000
  0.1892651900000000  0.7555309000000000  0.5496463400000000
  0.2776878000000000  0.9433702500000000  0.3187534000000000
  0.0710212700000000  0.6042611400000000  0.2938598600000000
  0.5435821700000000  0.6452445700000000  0.3542418200000000
  0.1788518900000000  0.9614928500000000  0.7758512100000000
  0.3181455000000000  0.7120064699999999  0.7045419700000000
  0.8511424200000000  0.2916916000000000  0.1518889800000000
EA2
 1.0000000000000000
     7.5556201370277210    0.0000000000000000    0.0000000000000000
     0.0000000000000000   11.3335623389769591    0.0000000000000000
     0.0000000000000000    0.0000000000000000   22.5816162035582408
 O   Cu 
  19  40
Direct
  0.0527979000000000  0.4593436500000000  0.3320420600000000
  0.4747465800000000  0.3363403300000000  0.4920702700000000
  0.7838752200000000  0.0621444800000000  0.6464682000000000
  0.2442155900000000  0.0480953000000000  0.4930109300000000
  0.1292133400000000  0.8164098800000000  0.3875663100000000
  0.7758864800000000  0.0749213600000000  0.4491580900000000
  0.2504500000000000  0.1497485800000000  0.6077434600000000
  0.0769717200000000  0.7502499400000000  0.6924567800000000
  0.7231740300000000  0.2904512400000000  0.3120878100000000
  0.4974266100000000  0.8855059000000000  0.5431750100000000
  0.0327222800000000  0.4297550000000000  0.6623760900000000
  0.9362958500000000  0.7729523800000000  0.5401212000000000
  0.0395430300000000  0.3100714000000000  0.4416459400000000
  0.4132222700000000  0.9621493499999999  0.7381697599999999
  0.0284744500000000  0.0475600100000000  0.2780489600000000
  0.4654498700000000  0.1472678000000000  0.2392167600000000
  0.4655620100000000  0.1710849800000000  0.3958611800000000
  0.5355589500000000  0.6042618300000000  0.5093499200000000
  0.0227323300000000  0.5851580300000000  0.3545703400000000
  0.2492733500000000  0.2317680200000000  0.4161495399999999
  0.6700220099999999  0.8890485099999998  0.6126275400000000
  0.8669394499999999  0.1617182700000000  0.2948293900000000
  0.6001635099999999  0.4259826000000000  0.3395299000000000
  0.2194704500000000  0.8797314200000000  0.7111314600000002
  0.6252220500000000  0.6728631100000000  0.6408062400000000
  0.3056484200000000  0.6916068900000000  0.6634102800000000
  0.2866251700000000  0.4340691400000000  0.3621550800000000
  0.6214844500000000  0.2047665900000000  0.4660416500000000
  0.2499607300000000  0.1038795200000000  0.2590894200000000
  0.8913847400000000  0.3254826300000000  0.3737175400000000
  0.9472652000000000  0.7626759000000000  0.6243507100000000
  0.3621615800000000  0.0197830700000000  0.5712097000000000
  0.2485797200000000  0.9261896200000000  0.4376864400000000
  0.7029631600000000  0.1494711000000000  0.5779298300000000
  0.0740099400000000  0.9381679699999999  0.3356762900000000
  0.6444282300000000  0.9804889100000000  0.4981896400000000
  0.5362973599999999  0.8239154499999999  0.7085254400000000
  0.3341120500000000  0.2548445700000000  0.5506695000000000
  0.5929865900000000  0.4493060099999999  0.6533761300000001
  0.0994634600000000  0.6273243300000000  0.5310563800000000
  0.4981895500000000  0.4986051100000001  0.4398220900000000
  0.4006250900000000  0.5463204900000000  0.5779662700000000
  0.4957969900000000  0.1924471200000000  0.3149848100000000
  0.5787746400000000  0.0388362400000000  0.6913688200000000
  0.8742624900000000  0.5399743200000000  0.6151580700000000
  0.2757171800000000  0.4781044800000001  0.6738834400000000
  0.7816949600000000  0.5867866400000000  0.3804968200000000
  0.1903058400000000  0.6413554600000000  0.4173380800000000
  0.8660106400000002  0.3186660500000000  0.6275861300000000
  0.4712066900000000  0.6249047100000000  0.3539405700000000
  0.6422043500000000  0.3613836900000000  0.5555784000000000
  0.1668236500000000  0.4480679600000000  0.4741010300000000
  0.7486534500000001  0.6704980200000000  0.5285651800000000
  0.0047862400000000  0.0640387900000000  0.4761010600000000
  0.0164953700000000  0.1134964800000000  0.6242616100000000
  0.9957050200000001  0.8025200100000001  0.4604621600000000
  0.1305916100000000  0.4229418200000000  0.5792047299999999
  0.9380240000000000  0.2728133000000000  0.5204372000000000
  0.3812907800000000  0.7479281300000001  0.4988059500000000
EA3
 1.0000000000000000
     7.1711898150734541    0.0000000000000000    0.0000000000000000
     0.0000000000000000   10.2047075204053765    0.0000000000000000
     0.0000000000000000    0.0000000000000000   21.4068062628270432
 O   Cu 
  19  40
Direct
  0.3554979000000000  0.2553420800000000  0.5461360600000000
  0.3952112000000000  0.3683470800000000  0.4179937200000000
  0.8759502300000001  0.5449966500000000  0.4363395000000000
  0.7621044600000000  0.2421986800000000  0.4090882499999999
  0.6365420900000001  0.6788773100000000  0.5823195600000000
  0.1754306700000000  0.5176075200000000  0.5609156600000000
  0.3937946800000000  0.9762972300000000  0.5869966700000000
  0.4348949600000000  0.0743956600000000  0.7840670699999999
  0.9165774900000000  0.6129587200000000  0.7240239200000000
  0.0221739400000000  0.2305570600000000  0.2588718400000000
  0.6276794999999999  0.8757269100000000  0.2614756600000000
  0.3649201600000000  0.4643719900000000  0.2497555100000000
  0.8255027699999999  0.8861339300000001  0.2333097400000000
  0.0944754900000000  0.7481459000000000  0.3116311800000000
  0.1521251300000000  0.8594549000000000  0.4464268900000000
  0.5295483400000000  0.7299827700000000  0.4166282300000000
  0.7579427500000000  0.3740861700000000  0.6314324800000000
  0.7626913400000001  0.0782307900000000  0.6483208100000000
  0.3623425800000000  0.2068299400000000  0.8000858199999999
  0.4048835900000000  0.5968995000000000  0.5792231000000000
  0.9176755200000000  0.8871442400000001  0.4827036900000001
  0.2785413900000000  0.7429097800000000  0.3770017199999999
  0.4832547200000000  0.5480366800000001  0.4210895800000000
  0.5706517000000001  0.3191055700000000  0.5822866900000000
  0.4680831100000000  0.1060629400000000  0.5052263200000000
  0.5900668400000000  0.8894371599999999  0.4652815500000000
  0.7123854400000000  0.9826059199999999  0.5677656800000001
  0.7911533000000001  0.5339057200000000  0.3496686600000000
  0.9449866500000000  0.2472077300000000  0.6603883100000000
  0.1691784100000000  0.9265973299999999  0.3017776100000000
  0.5741094100000000  0.0851955800000000  0.7089222900000000
  0.3647630800000000  0.4021358400000000  0.3318964500000000
  0.4950889500000000  0.1878128700000000  0.3883591000000000
  0.2455480400000000  0.3736047000000000  0.6320483300000000
  0.7782225200000001  0.6435714700000000  0.6521956300000000
  0.7615251500000000  0.6160983100000000  0.5107511700000000
  0.8895454000000000  0.2416285800000000  0.3345487500000000
  0.9431112800000000  0.4520251500000000  0.5856201700000000
  0.2880294600000000  0.0040267000000000  0.4046709900000000
  0.2712726900000000  0.4148631400000000  0.4942695600000000
  0.2356140100000000  0.9667456700000000  0.7488970599999999
  0.2230875800000000  0.2388869200000000  0.7278821100000000
  0.0454479200000000  0.7709249900000000  0.7174668100000000
  0.9257841000000000  0.0558936400000000  0.2463557300000000
  0.9532136500000000  0.4324913100000000  0.2577289100000000
  0.2300697400000000  0.1605139200000000  0.3089224900000000
  0.2503403800000000  0.1299409000000000  0.6239109600000000
  0.9722966600000000  0.9931538900000000  0.6780574300000000
  0.0555075500000000  0.4582443500000000  0.7166696000000000
  0.6128072400000000  0.7719942600000000  0.3348451300000000
  0.2587234300000000  0.8767392700000000  0.6464109900000000
  0.2202053800000000  0.6020601799999999  0.2783001200000000
  0.5022266900000000  0.0067552400000000  0.3129332500000000
  0.8744111800000001  0.6822898200000000  0.2599995100000000
  0.6221019100000000  0.5084821100000000  0.2530271000000000
  0.7794975300000000  0.0935802600000000  0.4607104300000001
  0.1187209400000000  0.5197424800000000  0.4004947200000000
  0.2713173500000000  0.9028605700000001  0.5197665299999999
  0.7782921300000000  0.3770613200000000  0.4763252900000000
EA4
 1.0000000000000000
     7.5938731449633483    0.0000000000000000    0.0000000000000000
     0.0000000000000000   11.2643123801544860    0.0000000000000000
     0.0000000000000000    0.0000000000000000   16.6515788696191152
 O   Cu 
  19  40
Direct
  0.5263930700000000  0.5854263199999999  0.7900652600000000
  0.3212411300000000  0.4993435899999999  0.5965488799999999
  0.0626577000000000  0.9309959200000000  0.5561981300000000
  0.4914110900000000  0.0807835400000000  0.5124773200000000
  0.6726341600000000  0.5635037600000000  0.5303404800000000
  0.8375185700000000  0.1723245900000000  0.5112470200000000
  0.7541489400000000  0.2762417300000000  0.2940680400000000
  0.0093947000000000  0.4719398000000000  0.4887909999999999
  0.1577312300000000  0.0501145000000000  0.3475601200000000
  0.6921730800000000  0.8471232100000001  0.5289581600000000
  0.1274708500000000  0.5772943300000000  0.3332962300000000
  0.6901626000000000  0.9548520000000001  0.3183648400000000
  0.2996709900000000  0.3187953600000000  0.4593920100000000
  0.0273205900000000  0.4974571799999999  0.7977717300000000
  0.7782492400000000  0.9744641099999999  0.8203362400000000
  0.2512770500000000  0.2401640400000000  0.6878612600000000
  0.9610625000000000  0.3809317600000000  0.6380229200000000
  0.3759279700000000  0.9040923899999999  0.7061561600000000
  0.6681542499999999  0.6224706600000000  0.2688601600000000
  0.2884386100000000  0.2972200200000000  0.5766432600000000
  0.9376898800000000  0.3220314700000000  0.5263092200000000
  0.7895105100000001  0.2866033300000000  0.6884694000000000
  0.8084103400000000  0.7012118800000000  0.5647400100000000
  0.0926972400000000  0.5818993800000000  0.5826519700000000
  0.8229781900000001  0.9992198000000000  0.5187424500000000
  0.2779353700000000  0.0084798400000000  0.5363489500000000
  0.6635753900000000  0.7889123400000000  0.3001226600000000
  0.8982812900000000  0.6027408700000000  0.3077744200000000
  0.1960153600000000  0.4599900700000000  0.4083668700000000
  0.2194664200000000  0.1809928300000000  0.4091223000000000
  0.6803077900000001  0.1197091500000000  0.2862397100000000
  0.3107305000000000  0.0705593100000000  0.6909837500000000
  0.7213482900000001  0.1104751600000000  0.7575550900000000
  0.9954398100000000  0.6411209400000000  0.7280756300000000
  0.6790585099999999  0.7077039500000000  0.7162424800000000
  0.6169759400000000  0.1460115200000000  0.6055741000000000
  0.9298718100000000  0.9990895200000000  0.3433485700000000
  0.7700106200000000  0.5060479500000000  0.6365501000000000
  0.7871303900000000  0.4924388200000000  0.4351384400000000
  0.5398689400000000  0.8697590200000000  0.6186874300000000
  0.2548451100000000  0.6971216900000000  0.3850639800000000
  0.6866541800000000  0.4343517600000000  0.2923859100000000
  0.4927248500000000  0.2574740800000000  0.7175569300000000
  0.2676069200000000  0.5621721000000000  0.8081598200000000
  0.5773225799999999  0.9179548000000000  0.7719633200000000
  0.2262839500000000  0.7837388500000000  0.7477307399999999
  0.7618128800000000  0.5168335900000000  0.7940493000000000
  0.5794562900000000  0.0169472600000000  0.4157221100000000
  0.2610219400000000  0.9134301900000001  0.3902507800000000
  0.5452493400000000  0.6059645500000000  0.3714665900000000
  0.9061466499999999  0.8488737699999999  0.7758026400000000
  0.5144660200000000  0.3833243200000000  0.4166476300000000
  0.7964797500000000  0.2306214800000000  0.4047045600000000
  0.4149004500000000  0.5963431000000000  0.5089411000000000
  0.4960502500000000  0.8000060800000000  0.4569613000000000
  0.1837465800000000  0.7829741300000000  0.5141685900000000
  0.4473592500000000  0.5353740800000000  0.6883913000000000
  0.0126540800000000  0.8200459600000001  0.6411674800000000
  0.1174379200000000  0.3663951900000000  0.7366068400000000
