EA163  19.582 20.450 14.459 90.00 90.00 90.00 Sym.group:    0
1.0000
   19.582260     0.000000     0.000000
    0.000000    20.449523     0.000000
    0.000000     0.000000    14.459481
   O  Cu
  12   24 
Direct
    0.640077     0.431312     0.437848
    0.509175     0.352131     0.440334
    0.371732     0.421374     0.446821
    0.359923     0.568688     0.437848
    0.490825     0.647869     0.440334
    0.628268     0.578626     0.446821
    0.602878     0.614314     0.563681
    0.449572     0.637955     0.555599
    0.348232     0.525763     0.555716
    0.397122     0.385686     0.563681
    0.550428     0.362045     0.555599
    0.651768     0.474237     0.555716
    0.637041     0.434040     0.554495
    0.506746     0.354003     0.556990
    0.367269     0.417270     0.563512
    0.362959     0.565960     0.554495
    0.493254     0.645997     0.556990
    0.632731     0.582730     0.563512
    0.598413     0.610212     0.447044
    0.447142     0.639833     0.438923
    0.345202     0.528491     0.439037
    0.401587     0.389788     0.447044
    0.552858     0.360167     0.438923
    0.654798     0.471509     0.439037
    0.629937     0.458129     0.497784
    0.526596     0.373012     0.498600
    0.397000     0.414395     0.503617
    0.370063     0.541871     0.497784
    0.473404     0.626988     0.498600
    0.603000     0.585605     0.503617
    0.689722     0.438039     0.494015
    0.538548     0.313427     0.496218
    0.350028     0.373667     0.509767
    0.310278     0.561961     0.494015
    0.461452     0.686573     0.496218
    0.649972     0.626333     0.509767
