===== USPEX WARNING @ 18:53:28 28-Feb-2025 ===== 
The structure after relaxation cannot satisfy distance constraint
1.00
19.304            0            0
0       19.304            0
0            0       19.304
 O  Cu 
12  24
Direct
0.51253         0.5     0.53515
0.53104     0.51962     0.50666
0.50411     0.46825     0.48082
0.53104     0.48038     0.50666
0.46896     0.48038     0.49334
0.50411     0.53175     0.48082
0.49589     0.46825     0.51918
0.49589     0.53175     0.51918
0.46896     0.51962     0.49334
0.48747         0.5     0.46485
0.47416         0.5     0.52693
0.52584         0.5     0.47307
0.53324         0.5     0.59326
0.58235     0.55205     0.51766
0.51091     0.41578     0.44911
0.58235     0.44795     0.51766
0.41765     0.44795     0.48234
0.51091     0.58422     0.44911
0.48909     0.41578     0.55089
0.48909     0.58422     0.55089
0.41765     0.55205     0.48234
0.46676         0.5     0.40674
0.43145         0.5     0.57143
0.56855         0.5     0.42857
0.56812         0.5     0.69114
0.66877     0.60668     0.53619
0.52237     0.32739     0.39569
0.66877     0.39332     0.53619
0.33123     0.39332     0.46381
0.52237     0.67261     0.39569
0.47763     0.32739     0.60431
0.47763     0.67261     0.60431
0.33123     0.60668     0.46381
0.43188         0.5     0.30886
0.35951         0.5      0.6464
0.6405         0.5      0.3536


Struture before relaxation, for checking
1.00
19.304            0            0
0       19.304            0
0            0       19.304
 O  Cu 
12  24
Direct
0.51253         0.5     0.53515
0.53104     0.51962     0.50666
0.50411     0.46825     0.48082
0.53104     0.48038     0.50666
0.46896     0.48038     0.49334
0.50411     0.53175     0.48082
0.49589     0.46825     0.51918
0.49589     0.53175     0.51918
0.46896     0.51962     0.49334
0.48747         0.5     0.46485
0.47416         0.5     0.52693
0.52584         0.5     0.47307
0.53324         0.5     0.59326
0.58235     0.55205     0.51766
0.51091     0.41578     0.44911
0.58235     0.44795     0.51766
0.41765     0.44795     0.48234
0.51091     0.58422     0.44911
0.48909     0.41578     0.55089
0.48909     0.58422     0.55089
0.41765     0.55205     0.48234
0.46676         0.5     0.40674
0.43145         0.5     0.57143
0.56855         0.5     0.42857
0.56812         0.5     0.69114
0.66877     0.60668     0.53619
0.52237     0.32739     0.39569
0.66877     0.39332     0.53619
0.33123     0.39332     0.46381
0.52237     0.67261     0.39569
0.47763     0.32739     0.60431
0.47763     0.67261     0.60431
0.33123     0.60668     0.46381
0.43188         0.5     0.30886
0.3595         0.5      0.6464
0.6405         0.5      0.3536


