Generation:1
EA1
 1.0000000000000000
     6.5246017161133656    0.0000000000000000    0.0000000000000000
     0.0000000000000000    8.7225183812534990    0.0000000000000000
     0.0000000000000000    0.0000000000000000   22.9449020373693280
 O   Cu 
  20  40
Direct
  0.7470213700000000  0.8692798300000000  0.5306615000000000
  0.8165554200000000  0.8295937600000000  0.1945666400000000
  0.1760529900000000  0.5115343200000000  0.1898700900000000
  0.8523847000000000  0.4000727300000000  0.7753709000000000
  0.0286387000000000  0.3940807800000000  0.4095389400000000
  0.5752665600000000  0.5417588300000000  0.6368901200000000
  0.4310614500000000  0.6369721100000000  0.3892047800000000
  0.2891185800000000  0.4417272800000000  0.2384671700000000
  0.2841414100000000  0.2042507100000000  0.7017535600000000
  0.2579901100000000  0.0006027500000000  0.4591241099999999
  0.3915719600000000  0.1607706500000000  0.3173660700000000
  0.2783605700000000  0.9136871900000000  0.6146160300000000
  0.2112852700000000  0.7562271400000000  0.2774505700000000
  0.6076538100000000  0.7663316200000000  0.7530804000000000
  0.6698919399999999  0.5002734800000000  0.2864072900000000
  0.7502673200000000  0.2525516100000000  0.7952345799999999
  0.8778404299999999  0.2365918100000000  0.2248790600000000
  0.2843311900000000  0.3480967400000000  0.5608477300000000
  0.6267226299999999  0.2694620700000000  0.4717616700000001
  0.7684416400000000  0.8898787600000000  0.3765497500000000
  0.1354437200000000  0.6280083500000000  0.4164475900000000
  0.6359912400000000  0.2224497000000000  0.2748423700000000
  0.9767170099999999  0.7811205500000000  0.3270168700000000
  0.7105270300000001  0.6884114500000000  0.2474099000000000
  0.1063310600000000  0.5849122600000000  0.6842530900000000
  0.2658516600000000  0.1954285700000000  0.5014265400000000
  0.3148776500000000  0.7535311500000000  0.7488744400000000
  0.6990081000000000  0.0664460900000000  0.4966520300000000
  0.2675258000000000  0.9030993100000000  0.5334025999999999
  0.8601330700000001  0.4420741800000000  0.4834957800000000
  0.0155253700000000  0.9321399900000000  0.4222859600000000
  0.9596496000000000  0.7311629500000000  0.5047500700000001
  0.8463716800000001  0.4375313800000000  0.3481720100000000
  0.0640009500000000  0.3161434300000000  0.7299706400000000
  0.9053637000000000  0.7423194900000000  0.7547878700000000
  0.0525500100000000  0.7071474300000000  0.2025293700000000
  0.2892925500000000  0.9550635300000000  0.3029973500000000
  0.6099517900000000  0.3786552100000000  0.5683056900000000
  0.6844736899999999  0.9415594300000000  0.7071840300000000
  0.7451018200000000  0.6660244000000000  0.4131431200000000
  0.5262184100000000  0.2129152000000000  0.7489727400000000
  0.3856239500000000  0.5775323999999999  0.3043019700000000
  0.7423216200000000  0.4851417700000001  0.7036501800000000
  0.9938728900000000  0.3636985400000000  0.5869640200000000
  0.2253272900000000  0.5424944000000000  0.5216076900000000
  0.8887923300000000  0.4572383300000000  0.2143420000000000
  0.8481305400000000  0.0272178600000000  0.2154037600000000
  0.3958579800000000  0.3875142000000000  0.6671133000000000
  0.4942819600000000  0.4517090900000000  0.4323132900000001
  0.4131567500000000  0.7203737600000000  0.6280234400000000
  0.5869755400000000  0.1913596200000000  0.3905144100000000
  0.4883314900000000  0.9094354000000000  0.4142135200000000
  0.7821001000000001  0.9688720599999999  0.6052638800000000
  0.5644286400000000  0.6818962100000000  0.5194455900000000
  0.0661073600000000  0.8717856200000000  0.6738101200000000
  0.9022591900000000  0.0768604400000000  0.3305197700000000
  0.7874345200000000  0.2087937800000000  0.6619595100000000
  0.2107436900000000  0.2668540200000000  0.3723218400000001
  0.1361465800000000  0.2316183000000000  0.2662305200000000
  0.4554567200000000  0.0870742900000000  0.6397966200000000
EA2
 1.0000000000000000
     7.3638749018120340    0.0000000000000000    0.0000000000000000
     0.0000000000000000    9.7355365171212398    0.0000000000000000
     0.0000000000000000    0.0000000000000000   16.3321347586795689
 O   Cu 
  20  40
Direct
  0.1109443900000000  0.1385812000000000  0.2089543600000000
  0.7877466400000001  0.1883733600000000  0.3041179200000000
  0.8973662800000000  0.3075854800000000  0.8846766800000000
  0.5037776500000000  0.0028518800000000  0.4936195600000001
  0.4572294600000000  0.7363967000000000  0.5982750600000000
  0.3741516300000000  0.7131187500000000  0.4142369400000000
  0.8171800400000000  0.5316922200000000  0.3823258500000000
  0.3604742800000000  0.3075587300000000  0.3728351500000000
  0.7297818600000000  0.1120868100000000  0.3807496400000000
  0.3770062100000000  0.4213675199999999  0.2126689600000000
  0.4170575800000000  0.4528965800000000  0.5371733700000000
  0.9575319199999999  0.6109602700000000  0.1687513400000000
  0.5886458700000000  0.5579015100000000  0.7975716500000000
  0.1826391600000000  0.9332993300000000  0.7535502700000000
  0.6470946900000000  0.0748522500000000  0.7110124600000000
  0.3168754100000000  0.2374706100000000  0.7859840400000000
  0.8639828700000000  0.4689104700000000  0.6420684500000000
  0.0239732600000000  0.0478689600000000  0.5739254900000000
  0.0091703900000000  0.2901384800000000  0.4547744700000000
  0.6594177600000000  0.9486859400000001  0.2049950700000000
  0.7004814800000000  0.7945321900000000  0.2769731900000000
  0.1730822900000000  0.5228485100000000  0.1953003600000000
  0.9174666499999999  0.0927915700000000  0.4685804800000000
  0.3002262900000000  0.9187557199999999  0.4053923900000000
  0.9863508300000000  0.8475400499999999  0.3597836900000000
  0.0104476000000000  0.8617105200000000  0.5258062700000000
  0.1938830100000000  0.9816723800000000  0.2620051300000000
  0.2455277500000000  0.3606893500000000  0.4735164900000000
  0.3943436300000000  0.0617530200000000  0.7444492300000000
  0.2682849200000000  0.0381264800000000  0.5433829600000000
  0.7228461200000000  0.7666785300000000  0.5885727400000000
  0.9133956000000000  0.6531874900000000  0.4686471400000000
  0.8120579999999999  0.6687147700000000  0.7587291300000000
  0.0629743400000000  0.4923938000000000  0.7536962800000000
  0.8712514400000000  0.3482416800000000  0.3548874100000000
  0.0954632900000000  0.2724197400000000  0.8305920700000000
  0.8841868900000001  0.0458253500000000  0.2107947400000000
  0.7057663199999999  0.8783663500000000  0.4433327300000000
  0.8682131900000000  0.5754925500000000  0.2720018900000000
  0.5134948100000000  0.5758130600000000  0.2365782700000000
  0.9638274300000000  0.9104729900000000  0.6783411900000000
  0.5028594100000000  0.6423457700000000  0.6999799200000000
  0.6490356200000000  0.8834109300000000  0.7275128800000000
  0.1270432500000000  0.7359932400000000  0.7725499500000000
  0.6419805000000000  0.4580043700000000  0.5869425500000000
  0.5966278900000000  0.0457927200000000  0.6002083800000000
  0.3130952200000000  0.8509445299999999  0.6641225800000000
  0.5948653800000000  0.6293334400000000  0.3900545800000000
  0.2701291900000000  0.7242583600000000  0.3043875200000000
  0.4543866899999999  0.1576595900000000  0.4241879000000000
  0.4275302000000001  0.8309225600000000  0.1922934800000000
  0.0336058200000000  0.7888185800000000  0.2046347800000000
  0.5140810400000000  0.0310480600000000  0.2925325300000000
  0.2767102000000000  0.4674129600000000  0.6369226099999999
  0.9499114700000000  0.3803186900000000  0.5507466900000000
  0.0134383300000000  0.6508806600000000  0.6276366400000000
  0.7668220000000000  0.4408223900000001  0.8367831999999999
  0.4232145200000000  0.4093000900000000  0.7744044100000000
  0.2668159900000000  0.2609020200000000  0.2621504700000000
  0.2580287600000000  0.6759319300000000  0.5197877800000000
EA3
 1.0000000000000000
     8.2169072695457146    0.0000000000000000    0.0000000000000000
     0.0000000000000000    8.2169072695457146    0.0000000000000000
     0.0000000000000000    0.0000000000000000   18.2169072695457146
 O   Cu 
  20  40
Direct
  0.0810995000000000  0.6630226700000000  0.4295391700000000
  0.4861771600000000  0.0674594500000000  0.2329413500000000
  0.0595619100000000  0.4109636900000000  0.7857718200000000
  0.4725320500000000  0.5520670400000000  0.5307055100000000
  0.7532879900000000  0.3239918400000000  0.6273041000000000
  0.7696751800000000  0.7552564500000000  0.3016193400000000
  0.3107684100000000  0.7339960200000000  0.7016173800000000
  0.1933157700000000  0.1304514500000000  0.4051194000000000
  0.8883168100000000  0.6417562500000000  0.6139989100000000
  0.0466310200000000  0.0599549500000000  0.7631330200000001
  0.0522877000000000  0.0267112800000000  0.5476865400000001
  0.5726588100000000  0.3955668000000000  0.2260163500000000
  0.6963026200000000  0.6607050600000000  0.8017360600000000
  0.1387433500000000  0.8332340700000000  0.1909897600000000
  0.7707731400000000  0.3342315300000000  0.4161683800000000
  0.3115877900000000  0.2266411600000000  0.6070907000000000
  0.6428623500000000  0.8937069700000000  0.5290488400000000
  0.9110011300000000  0.2247429300000000  0.1977083400000000
  0.4854828200000000  0.2624352200000000  0.8088140800000000
  0.3608392200000000  0.8373117100000000  0.3735476200000000
  0.8503052400000000  0.9708697200000000  0.3472776100000000
  0.3763639800000000  0.6412795800000000  0.6125714500000000
  0.6192327500000000  0.3676714000000000  0.3356194400000000
  0.1759778300000000  0.1565492400000000  0.6871927600000000
  0.8089272199999999  0.6738577400000000  0.7132630400000000
  0.6336206599999999  0.9380771100000000  0.6357581800000000
  0.1269446800000000  0.5430719899999999  0.3387991300000000
  0.2506981200000000  0.1662791200000000  0.5087004300000000
  0.4328137600000000  0.6148661900000000  0.3529245800000000
  0.1617694900000000  0.8799665400000000  0.7357344900000000
  0.6660288599999999  0.5899660300000000  0.2519465400000000
  0.3507703400000000  0.1113376000000000  0.3153140000000000
  0.9126016900000000  0.3614072800000000  0.7086627000000000
  0.9898063699999999  0.8530829800000000  0.6086478600000000
  0.0265215200000000  0.0327205000000000  0.1975213600000000
  0.5107925900000000  0.8827500600000000  0.4469529600000000
  0.2657984900000000  0.8199617700000000  0.2751385100000000
  0.7624644400000000  0.3636030900000000  0.5199809600000000
  0.9628085800000000  0.7625457200000000  0.2468906400000000
  0.1772142000000000  0.5675226799999999  0.7373643500000000
  0.5348001300000000  0.2498675200000000  0.6255610200000000
  0.6758425300000001  0.6418703000000000  0.5641651300000000
  0.0611179500000000  0.3291782500000000  0.2565957300000000
  0.5601576200000000  0.0922565000000000  0.7470608200000000
  0.1182754500000000  0.8967734000000001  0.4116495200000000
  0.8406857500000000  0.9935459400000000  0.7263486000000000
  0.6320561200000000  0.1398782800000000  0.4231881400000000
  0.1546060300000000  0.4174628800000000  0.5997104500000000
  0.3486633300000000  0.4076799600000000  0.2620483300000000
  0.3294601600000000  0.3453108200000000  0.3975435500000000
  0.9785559899999999  0.6156091000000000  0.5189888300000000
  0.6136389100000000  0.8991302400000000  0.2636612700000000
  0.9111238300000000  0.1668624000000000  0.5983894500000000
  0.2678565100000000  0.3172313300000000  0.8003105100000000
  0.2794279800000000  0.5887687500000000  0.4781299100000000
  0.8491784600000000  0.9708059500000000  0.4854277500000000
  0.6920735700000000  0.1756756700000000  0.2212357700000000
  0.9759572800000000  0.2253474600000000  0.4028958800000000
  0.5164263500000000  0.7379693500000000  0.7500318900000000
  0.5947305400000000  0.4571830200000000  0.8002397600000000
EA4
 1.0000000000000000
     6.1993455523712351    0.0000000000000000    0.0000000000000000
     0.0000000000000000    6.1368418340891724    0.0000000000000000
     0.0000000000000000    0.0000000000000000   27.0323867726411713
 O   Cu 
  20  40
Direct
  0.1117175800000000  0.2643886500000000  0.6136422499999999
  0.7522715300000000  0.2189430600000000  0.2913001500000000
  0.0274922400000000  0.8249735500000001  0.1407405200000000
  0.4208348700000000  0.7936586700000001  0.7792962400000000
  0.5873259100000000  0.8326109200000000  0.4763322400000000
  0.0726489000000000  0.8014961800000000  0.6684109800000000
  0.5797002100000000  0.2218461300000000  0.5913830100000000
  0.8061509300000000  0.2852817900000000  0.4339126800000000
  0.3666886300000000  0.3316968400000000  0.7065705799999999
  0.0798340700000000  0.5874455500000000  0.2844469700000000
  0.6443440700000000  0.5083030100000000  0.8440872800000000
  0.3613353800000000  0.4918535900000000  0.1407741800000000
  0.7224226399999999  0.6655873200000000  0.3590757200000000
  0.7527177000000000  0.0826631800000000  0.7159320300000001
  0.6942510500000000  0.1581455600000000  0.1404519200000000
  0.9382719600000000  0.9826510200000000  0.5398434100000000
  0.1200391700000000  0.8709884200000001  0.4092115400000000
  0.4241440000000000  0.8992116500000000  0.2836750600000000
  0.1412327500000000  0.2242345200000000  0.8101280699999999
  0.1035456700000000  0.4558267600000000  0.5177144700000000
  0.1132358200000000  0.3380581400000000  0.4418009500000000
  0.5833161200000000  0.5450083500000000  0.6124895500000000
  0.0454838800000000  0.5096482900000000  0.1409909400000000
  0.4383753000000000  0.2170984000000000  0.2873625400000000
  0.3745441500000000  0.7161078499999999  0.6947868000000000
  0.1334429900000000  0.7293443100000000  0.7989349100000002
  0.0621351900000000  0.2734762700000000  0.2870266300000000
  0.0767192200000000  0.4330168800000000  0.7392666100000000
  0.1067727800000000  0.8943934400000000  0.2873487800000000
  0.8855514600000000  0.7957020100000000  0.5947900900000000
  0.6768881200000000  0.4734164600000000  0.1407554700000000
  0.5279800100000001  0.9331914800000000  0.6239866600000000
  0.7231926100000000  0.7175300400000000  0.7917307400000000
  0.5034551800000000  0.2880962300000000  0.4447044000000000
  0.6743633000000000  0.8995700600000001  0.4065689700000000
  0.9380890700000000  0.0456398400000000  0.7712019700000000
  0.6062207900000000  0.5531062600000000  0.5117139400000000
  0.4401739500000000  0.4993108300000000  0.3659784500000000
  0.7617889500000000  0.7760641900000000  0.6954901600000000
  0.4142658600000000  0.0762909000000000  0.7485092899999999
  0.5765845300000000  0.0133352900000000  0.5331872900000000
  0.6988574099999999  0.3873223500000000  0.7057448500000000
  0.0518123500000000  0.6099473700000000  0.3645784500000000
  0.3432539800000000  0.8071625599999999  0.1406945200000000
  0.3233032800000000  0.3164878600000000  0.5553625500000000
  0.4083025300000001  0.5914003100000000  0.2788545000000000
  0.0187861300000000  0.4998324800000000  0.6500899400000001
  0.3969981600000000  0.3632754100000000  0.8267349900000001
  0.0055976600000000  0.9392404700000000  0.4726957500000000
  0.2610907300000000  0.1227631800000000  0.3749801500000000
  0.3786602900000000  0.1764636700000000  0.1405921400000000
  0.8703887200000001  0.3278705600000000  0.5588466400000000
  0.7120992100000000  0.8428536000000000  0.1405133700000000
  0.1935474800000000  0.0945335900000000  0.6712272900000000
  0.7324281199999999  0.8975641000000001  0.3023827300000000
  0.3340597000000000  0.6859904299999999  0.4440569600000000
  0.9061158200000000  0.3851381700000000  0.8319235600000000
  0.0099507000000000  0.1402445600000000  0.1405712900000000
  0.7773092300000000  0.2589751300000000  0.3638562300000000
  0.2191455200000000  0.7530440500000000  0.5374952600000000
Generation:2
Generation:3
