EA23   20.872 21.059 13.740 90.00 90.00 90.00 Sym.group:    0
1.0000
   20.872366     0.000000     0.000000
    0.000000    21.059215     0.000000
    0.000000     0.000000    13.740235
   O  Cu
  12   24 
Direct
    0.438423     0.306183     0.500000     0.033479
    0.638564     0.350239     0.500000     0.033483
    0.700141     0.544055     0.500000     0.033481
    0.561577     0.693817     0.500000     0.033479
    0.361436     0.649761     0.500000     0.033483
    0.299859     0.455945     0.500000     0.033481
    0.362924     0.348899     0.500000     0.033480
    0.299433     0.542107     0.500000     0.033480
    0.436509     0.693208     0.500000     0.033481
    0.637076     0.651101     0.500000     0.033480
    0.700567     0.457893     0.500000     0.033480
    0.563491     0.306792     0.500000     0.033481
    0.672021     0.567217     0.459963     0.029688
    0.527277     0.681261     0.459963     0.029687
    0.355257     0.614044     0.459963     0.029689
    0.327979     0.432783     0.459963     0.029688
    0.472723     0.318739     0.459963     0.029687
    0.644743     0.385956     0.459963     0.029689
    0.470931     0.680987     0.540037     0.029688
    0.643608     0.615444     0.540037     0.029687
    0.672677     0.434458     0.540037     0.029688
    0.529069     0.319013     0.540037     0.029688
    0.356392     0.384556     0.540037     0.029687
    0.327323     0.565542     0.540037     0.029688
    0.672021     0.567217     0.540037     0.029688
    0.527277     0.681261     0.540037     0.029687
    0.355257     0.614044     0.540037     0.029689
    0.327979     0.432783     0.540037     0.029688
    0.472723     0.318739     0.540037     0.029687
    0.644743     0.385956     0.540037     0.029689
    0.470931     0.680987     0.459963     0.029688
    0.643608     0.615444     0.459963     0.029687
    0.672677     0.434458     0.459963     0.029688
    0.529069     0.319013     0.459963     0.029688
    0.356392     0.384556     0.459963     0.029687
    0.327323     0.565542     0.459963     0.029688
EA101  21.038 20.796 13.740 90.00 90.00 90.00 Sym.group:    0
1.0000
   21.037669     0.000000     0.000000
    0.000000    20.796090     0.000000
    0.000000     0.000000    13.740262
   O  Cu
  12   24 
Direct
    0.388207     0.331070     0.500000     0.035051
    0.587933     0.314540     0.500000     0.035640
    0.703524     0.487362     0.500000     0.038063
    0.611793     0.668930     0.500000     0.035051
    0.412067     0.685460     0.500000     0.035640
    0.296476     0.512638     0.500000     0.038063
    0.326944     0.393969     0.500000     0.032591
    0.323602     0.595571     0.500000     0.029744
    0.492716     0.705349     0.500000     0.029312
    0.673056     0.606031     0.500000     0.032591
    0.676398     0.404429     0.500000     0.029744
    0.507284     0.294651     0.500000     0.029312
    0.683499     0.515801     0.459963     0.033476
    0.575949     0.666167     0.459964     0.030578
    0.397995     0.652116     0.459962     0.030648
    0.316501     0.484199     0.459963     0.033476
    0.424051     0.333833     0.459964     0.030578
    0.602005     0.347884     0.459962     0.030648
    0.522523     0.682875     0.540037     0.027463
    0.670182     0.569299     0.540036     0.030181
    0.642054     0.387962     0.540038     0.027072
    0.477477     0.317125     0.540037     0.027463
    0.329818     0.430701     0.540036     0.030181
    0.357946     0.612038     0.540038     0.027072
    0.683499     0.515801     0.540037     0.033476
    0.575949     0.666167     0.540036     0.030578
    0.397995     0.652116     0.540038     0.030648
    0.316501     0.484199     0.540037     0.033476
    0.424051     0.333833     0.540036     0.030578
    0.602005     0.347884     0.540038     0.030648
    0.522523     0.682875     0.459963     0.027463
    0.670182     0.569299     0.459964     0.030181
    0.642054     0.387962     0.459962     0.027072
    0.477477     0.317125     0.459963     0.027463
    0.329818     0.430701     0.459964     0.030181
    0.357946     0.612038     0.459962     0.027072
EA163  21.038 20.796 13.740 90.00 90.00 90.00 Sym.group:    0
1.0000
   21.037669     0.000000     0.000000
    0.000000    20.796090     0.000000
    0.000000     0.000000    13.740262
   O  Cu
  12   24 
Direct
    0.388207     0.331070     0.500000     0.035051
    0.587933     0.314540     0.500000     0.035640
    0.703524     0.487362     0.500000     0.038063
    0.611793     0.668930     0.500000     0.035051
    0.412067     0.685460     0.500000     0.035640
    0.296476     0.512638     0.500000     0.038063
    0.326944     0.393969     0.500000     0.032591
    0.323602     0.595571     0.500000     0.029744
    0.492716     0.705349     0.500000     0.029312
    0.673056     0.606031     0.500000     0.032591
    0.676398     0.404429     0.500000     0.029744
    0.507284     0.294651     0.500000     0.029312
    0.683499     0.515801     0.459963     0.033476
    0.575949     0.666167     0.459964     0.030578
    0.397995     0.652116     0.459962     0.030648
    0.316501     0.484199     0.459963     0.033476
    0.424051     0.333833     0.459964     0.030578
    0.602005     0.347884     0.459962     0.030648
    0.522523     0.682875     0.540037     0.027463
    0.670182     0.569299     0.540036     0.030181
    0.642054     0.387962     0.540038     0.027072
    0.477477     0.317125     0.540037     0.027463
    0.329818     0.430701     0.540036     0.030181
    0.357946     0.612038     0.540038     0.027072
    0.683499     0.515801     0.540037     0.033476
    0.575949     0.666167     0.540036     0.030578
    0.397995     0.652116     0.540038     0.030648
    0.316501     0.484199     0.540037     0.033476
    0.424051     0.333833     0.540036     0.030578
    0.602005     0.347884     0.540038     0.030648
    0.522523     0.682875     0.459963     0.027463
    0.670182     0.569299     0.459964     0.030181
    0.642054     0.387962     0.459962     0.027072
    0.477477     0.317125     0.459963     0.027463
    0.329818     0.430701     0.459964     0.030181
    0.357946     0.612038     0.459962     0.027072
