EA101  21.038 20.796 13.740 90.00 90.00 90.00 Sym.group:    0
1.0000
   21.037669     0.000000     0.000000
    0.000000    20.796090     0.000000
    0.000000     0.000000    13.740262
   O  Cu
  12   24 
Direct
    0.388207     0.331070     0.500000
    0.587933     0.314540     0.500000
    0.703524     0.487362     0.500000
    0.611793     0.668930     0.500000
    0.412067     0.685460     0.500000
    0.296476     0.512638     0.500000
    0.326944     0.393969     0.500000
    0.323602     0.595571     0.500000
    0.492716     0.705349     0.500000
    0.673056     0.606031     0.500000
    0.676398     0.404429     0.500000
    0.507284     0.294651     0.500000
    0.683499     0.515801     0.459963
    0.575949     0.666167     0.459964
    0.397995     0.652116     0.459962
    0.316501     0.484199     0.459963
    0.424051     0.333833     0.459964
    0.602005     0.347884     0.459962
    0.522523     0.682875     0.540037
    0.670182     0.569299     0.540036
    0.642054     0.387962     0.540038
    0.477477     0.317125     0.540037
    0.329818     0.430701     0.540036
    0.357946     0.612038     0.540038
    0.683499     0.515801     0.540037
    0.575949     0.666167     0.540036
    0.397995     0.652116     0.540038
    0.316501     0.484199     0.540037
    0.424051     0.333833     0.540036
    0.602005     0.347884     0.540038
    0.522523     0.682875     0.459963
    0.670182     0.569299     0.459964
    0.642054     0.387962     0.459962
    0.477477     0.317125     0.459963
    0.329818     0.430701     0.459964
    0.357946     0.612038     0.459962
EA121  18.999 18.788 18.794 90.00 90.00 90.00 Sym.group:    0
1.0000
   18.998594     0.000000     0.000000
    0.000000    18.787926     0.000000
    0.000000     0.000000    18.793560
   O  Cu
  12   24 
Direct
    0.660284     0.403242     0.389695
    0.594124     0.539817     0.603505
    0.428944     0.341189     0.570881
    0.664870     0.394243     0.496644
    0.640859     0.348465     0.437986
    0.684296     0.449019     0.448352
    0.677757     0.574288     0.468710
    0.487388     0.675193     0.486727
    0.305003     0.559975     0.471544
    0.288062     0.434019     0.452488
    0.364581     0.627352     0.481057
    0.574775     0.659735     0.483181
    0.491763     0.529722     0.630728
    0.454816     0.285087     0.482104
    0.393209     0.320473     0.505228
    0.551438     0.484802     0.634455
    0.490551     0.305802     0.547757
    0.534449     0.584737     0.599778
    0.619148     0.416729     0.446129
    0.531645     0.516223     0.573359
    0.457724     0.354115     0.507075
    0.679710     0.391646     0.442002
    0.547401     0.542087     0.634379
    0.435629     0.296972     0.534153
    0.641444     0.591858     0.443256
    0.460432     0.654369     0.455267
    0.313607     0.529280     0.438094
    0.595146     0.620716     0.505567
    0.305318     0.462845     0.485302
    0.404841     0.623466     0.508554
    0.641205     0.582028     0.499021
    0.460193     0.644538     0.511034
    0.313368     0.519449     0.493861
    0.595385     0.630546     0.449800
    0.305557     0.472675     0.429537
    0.405080     0.633297     0.452787
EA129  20.299 18.000 20.025 90.00 90.00 90.00 Sym.group:    0
1.0000
   20.299465     0.000000     0.000000
    0.000000    17.999581     0.000000
    0.000000     0.000000    20.025089
   O  Cu
  12   24 
Direct
    0.402130     0.705369     0.521414
    0.357720     0.664035     0.566790
    0.656606     0.644052     0.540792
    0.480331     0.478399     0.360447
    0.480114     0.568047     0.368943
    0.616813     0.683118     0.494031
    0.686752     0.468679     0.519072
    0.548875     0.305623     0.518934
    0.353503     0.373218     0.518638
    0.300939     0.501232     0.518521
    0.426204     0.319724     0.518757
    0.621382     0.347876     0.519021
    0.352928     0.660417     0.521896
    0.406921     0.708987     0.566307
    0.521130     0.515675     0.360048
    0.439314     0.530770     0.369342
    0.622592     0.687481     0.548169
    0.650827     0.639688     0.486655
    0.556444     0.591113     0.467331
    0.426047     0.471978     0.468608
    0.488498     0.647231     0.530119
    0.450513     0.579016     0.455393
    0.396136     0.562847     0.531023
    0.527512     0.480702     0.438694
    0.657622     0.451007     0.486660
    0.516536     0.331281     0.486501
    0.349602     0.419850     0.486239
    0.630037     0.383474     0.551399
    0.667747     0.594029     0.551380
    0.327106     0.464246     0.550947
    0.462905     0.324113     0.551186
    0.659133     0.438002     0.551420
    0.518049     0.318276     0.551265
    0.351114     0.406846     0.551001
    0.628525     0.396479     0.486637
    0.461392     0.337118     0.486422
EA69   18.146 19.042 19.892 90.00 90.00 90.00 Sym.group:    0
1.0000
   18.146335     0.000000     0.000000
    0.000000    19.042022     0.000000
    0.000000     0.000000    19.892171
   O  Cu
  12   24 
Direct
    0.314345     0.430359     0.493786
    0.497430     0.301260     0.498214
    0.697571     0.378476     0.482567
    0.292616     0.517549     0.486517
    0.629146     0.322248     0.490715
    0.407277     0.332221     0.499093
    0.384254     0.623792     0.430776
    0.710866     0.570104     0.403599
    0.643349     0.660502     0.407670
    0.684459     0.514163     0.508272
    0.462693     0.644994     0.524883
    0.574875     0.660888     0.514879
    0.336501     0.600153     0.504245
    0.352508     0.412140     0.521214
    0.533286     0.320220     0.522250
    0.587042     0.328359     0.464588
    0.388790     0.366610     0.469322
    0.313441     0.545167     0.455730
    0.330915     0.598837     0.449961
    0.346922     0.410823     0.466931
    0.527700     0.318903     0.467967
    0.592628     0.329676     0.518872
    0.394376     0.367926     0.523605
    0.319027     0.546484     0.510014
    0.663935     0.605964     0.411470
    0.662000     0.612997     0.534163
    0.388604     0.574260     0.558544
    0.421759     0.556777     0.521120
    0.487637     0.600325     0.590841
    0.629514     0.525962     0.580032
    0.565713     0.611387     0.583879
    0.595983     0.455257     0.584309
    0.515256     0.701581     0.529248
    0.705631     0.446682     0.517771
    0.475594     0.597046     0.490523
    0.566355     0.609905     0.482429
EA139  19.433 18.750 19.158 90.00 90.00 90.00 Sym.group:    0
1.0000
   19.432925     0.000000     0.000000
    0.000000    18.749915     0.000000
    0.000000     0.000000    19.157994
   O  Cu
  12   24 
Direct
    0.586495     0.685847     0.511444
    0.687236     0.512894     0.466921
    0.648264     0.387830     0.451836
    0.669546     0.598241     0.483992
    0.645510     0.410709     0.553159
    0.483295     0.324541     0.431049
    0.389628     0.670624     0.453060
    0.369074     0.465281     0.618381
    0.392995     0.652355     0.552461
    0.317477     0.445523     0.443960
    0.435611     0.688465     0.499538
    0.347011     0.634515     0.505984
    0.594509     0.656882     0.475204
    0.659182     0.485909     0.436534
    0.652652     0.420601     0.486820
    0.642953     0.608451     0.519918
    0.605537     0.647919     0.532287
    0.670210     0.476946     0.493616
    0.641624     0.429564     0.429738
    0.631926     0.617413     0.462837
    0.533470     0.324855     0.539122
    0.557303     0.476578     0.595976
    0.569140     0.354497     0.434596
    0.569296     0.372681     0.567654
    0.453789     0.401100     0.623621
    0.378834     0.435657     0.356782
    0.335178     0.492462     0.386331
    0.432751     0.473136     0.644378
    0.361134     0.388718     0.414410
    0.390112     0.393245     0.597624
    0.414827     0.619085     0.494547
    0.429543     0.452101     0.581031
    0.383262     0.457513     0.419655
    0.382034     0.678219     0.506001
    0.404286     0.425730     0.636770
    0.334306     0.433914     0.392762
EA153  21.092 21.051 14.333 90.00 90.00 90.00 Sym.group:    0
1.0000
   21.092389     0.000000     0.000000
    0.000000    21.050635     0.000000
    0.000000     0.000000    14.332729
   O  Cu
  12   24 
Direct
    0.638053     0.638000     0.488708
    0.699046     0.449457     0.486412
    0.558740     0.306742     0.491751
    0.639812     0.353499     0.490503
    0.698470     0.542452     0.485882
    0.556310     0.684001     0.489268
    0.376063     0.661296     0.504821
    0.298366     0.466419     0.500050
    0.425048     0.300681     0.508272
    0.352761     0.350990     0.503543
    0.304909     0.555252     0.500640
    0.455140     0.700132     0.509387
    0.561138     0.595401     0.434849
    0.628333     0.495661     0.445702
    0.562250     0.395518     0.435731
    0.441499     0.390869     0.438349
    0.440357     0.598407     0.437009
    0.592602     0.653520     0.497213
    0.689010     0.495920     0.496094
    0.594589     0.337555     0.499173
    0.695161     0.573867     0.530087
    0.666900     0.367342     0.534423
    0.696111     0.418049     0.530978
    0.665299     0.624329     0.532849
    0.366974     0.624831     0.465623
    0.324676     0.440193     0.463117
    0.334841     0.577340     0.540998
    0.488729     0.684951     0.549881
    0.517452     0.306444     0.552952
    0.349350     0.388395     0.541945
    0.545449     0.680868     0.552901
    0.366892     0.625117     0.542882
    0.324875     0.440439     0.540370
    0.460741     0.310860     0.549201
    0.334914     0.577059     0.463741
    0.349140     0.388144     0.464693
EA161  21.136 21.049 14.425 90.00 90.00 90.00 Sym.group:    0
1.0000
   21.136494     0.000000     0.000000
    0.000000    21.048935     0.000000
    0.000000     0.000000    14.424920
   O  Cu
  12   24 
Direct
    0.360437     0.637151     0.484274
    0.303554     0.447366     0.492049
    0.443596     0.304821     0.485919
    0.360838     0.348530     0.493773
    0.305502     0.540261     0.483326
    0.440148     0.686559     0.490899
    0.621305     0.661492     0.502358
    0.704333     0.467419     0.503367
    0.574279     0.304274     0.506961
    0.648226     0.351731     0.507518
    0.691182     0.555700     0.496910
    0.543567     0.703399     0.514752
    0.437157     0.598290     0.437956
    0.377597     0.494153     0.438762
    0.437234     0.390390     0.442302
    0.557838     0.396771     0.431398
    0.557626     0.601495     0.441533
    0.405404     0.654641     0.496632
    0.313988     0.493315     0.496065
    0.406414     0.334738     0.498894
    0.307487     0.570219     0.524875
    0.332383     0.363491     0.540163
    0.303014     0.414073     0.539179
    0.335930     0.621496     0.526077
    0.630681     0.625410     0.464048
    0.677734     0.440821     0.465505
    0.658913     0.575658     0.538322
    0.509547     0.689240     0.555112
    0.483838     0.310494     0.545736
    0.654796     0.388071     0.544092
    0.453142     0.683650     0.554975
    0.628327     0.624425     0.540766
    0.680835     0.439369     0.542306
    0.540420     0.314605     0.544311
    0.661440     0.576767     0.461604
    0.651288     0.389717     0.467280
EA115  20.820 18.813 19.172 90.00 90.00 90.00 Sym.group:    0
1.0000
   20.819990     0.000000     0.000000
    0.000000    18.812689     0.000000
    0.000000     0.000000    19.171924
   O  Cu
  12   24 
Direct
    0.540839     0.706644     0.505060
    0.335782     0.639989     0.498516
    0.276461     0.517345     0.498100
    0.411495     0.694200     0.500509
    0.620847     0.667413     0.508546
    0.627584     0.331360     0.495800
    0.696872     0.535687     0.488511
    0.691080     0.434855     0.492657
    0.542514     0.284094     0.496151
    0.361383     0.317652     0.507292
    0.439102     0.272956     0.512244
    0.655341     0.517189     0.474532
    0.659796     0.577559     0.480731
    0.504972     0.687657     0.473496
    0.330038     0.598518     0.468374
    0.630149     0.631478     0.539924
    0.305212     0.547534     0.529243
    0.448598     0.686320     0.532502
    0.661697     0.581829     0.541788
    0.506872     0.691926     0.534553
    0.331937     0.602789     0.529431
    0.628250     0.627208     0.478868
    0.303313     0.543264     0.468188
    0.446699     0.682050     0.471446
    0.552899     0.376700     0.456100
    0.620355     0.486651     0.452761
    0.430885     0.381376     0.453543
    0.580694     0.316615     0.502201
    0.684551     0.485897     0.497060
    0.688170     0.402139     0.527232
    0.655201     0.348401     0.528863
    0.354817     0.356208     0.476333
    0.323760     0.411340     0.530663
    0.473259     0.289609     0.541787
    0.353507     0.358480     0.534156
    0.325069     0.409068     0.472840
EA127  19.753 18.279 20.159 90.00 90.00 90.00 Sym.group:    0
1.0000
   19.753407     0.000000     0.000000
    0.000000    18.278534     0.000000
    0.000000     0.000000    20.158914
   O  Cu
  12   24 
Direct
    0.714499     0.443042     0.477659
    0.656629     0.664400     0.482782
    0.453538     0.723469     0.487115
    0.540952     0.729274     0.485844
    0.707156     0.581721     0.480412
    0.669581     0.355970     0.476713
    0.292106     0.456361     0.491927
    0.437132     0.288434     0.491809
    0.633202     0.328910     0.480735
    0.287248     0.550037     0.488339
    0.561041     0.284464     0.486016
    0.360115     0.337663     0.493502
    0.700002     0.480174     0.451636
    0.619430     0.669916     0.456518
    0.432620     0.690417     0.459859
    0.566775     0.696811     0.511776
    0.696295     0.539986     0.506747
    0.699172     0.477551     0.505515
    0.618601     0.667293     0.510395
    0.431790     0.687793     0.513739
    0.324287     0.429646     0.518768
    0.473597     0.300316     0.516868
    0.523180     0.299518     0.459924
    0.348685     0.377161     0.465143
    0.310559     0.574974     0.458904
    0.335745     0.626662     0.455585
    0.318045     0.430637     0.464434
    0.529422     0.298527     0.514259
    0.354926     0.376169     0.519477
    0.316801     0.573983     0.513239
    0.386026     0.587764     0.563359
    0.412673     0.564273     0.525397
    0.481607     0.594434     0.597360
    0.598208     0.490927     0.584159
    0.555366     0.424955     0.585148
    0.652989     0.396369     0.518938
EA126  19.040 20.172 19.899 90.00 90.00 90.00 Sym.group:    0
1.0000
   19.039790     0.000000     0.000000
    0.000000    20.172372     0.000000
    0.000000     0.000000    19.899473
   O  Cu
  12   24 
Direct
    0.319230     0.629158     0.493503
    0.303589     0.421241     0.517755
    0.398649     0.328938     0.520361
    0.280846     0.507219     0.510063
    0.403226     0.361675     0.426058
    0.580341     0.353713     0.536007
    0.567188     0.697522     0.504398
    0.723566     0.550233     0.513745
    0.673445     0.635552     0.507714
    0.465255     0.700879     0.505684
    0.724966     0.411567     0.508927
    0.669095     0.339343     0.516779
    0.321134     0.595607     0.525109
    0.338885     0.408193     0.544421
    0.383182     0.359477     0.490172
    0.305311     0.533540     0.477147
    0.322605     0.588476     0.469686
    0.340355     0.401062     0.488998
    0.381712     0.366608     0.545595
    0.303841     0.540669     0.532570
    0.547446     0.340732     0.432408
    0.486298     0.337393     0.534503
    0.494553     0.368037     0.409455
    0.517544     0.626058     0.545913
    0.630428     0.560223     0.549435
    0.629173     0.436034     0.559346
    0.515741     0.689279     0.499388
    0.689544     0.587918     0.504812
    0.428899     0.699406     0.474273
    0.654891     0.661601     0.473839
    0.599721     0.693778     0.472117
    0.373112     0.670885     0.477395
    0.717988     0.504425     0.471984
    0.626488     0.335109     0.489820
    0.712576     0.446392     0.477720
    0.569177     0.312059     0.492899
EA156  20.511 20.119 16.965 90.00 90.00 90.00 Sym.group:    0
1.0000
   20.510677     0.000000     0.000000
    0.000000    20.118848     0.000000
    0.000000     0.000000    16.965301
   O  Cu
  12   24 
Direct
    0.323030     0.388885     0.496863
    0.337074     0.596897     0.486800
    0.522046     0.681964     0.477982
    0.638660     0.631078     0.475667
    0.435705     0.672379     0.481009
    0.304806     0.515686     0.490853
    0.582418     0.343008     0.580435
    0.605679     0.614238     0.582720
    0.512681     0.321512     0.381040
    0.663019     0.398653     0.497068
    0.687299     0.466219     0.440565
    0.418580     0.339862     0.465912
    0.327630     0.425443     0.462338
    0.369711     0.607576     0.452705
    0.547336     0.656075     0.445161
    0.324740     0.481923     0.525071
    0.604048     0.633469     0.509488
    0.418427     0.641358     0.515443
    0.333166     0.424840     0.527848
    0.374099     0.607224     0.518111
    0.551441     0.656306     0.510533
    0.319595     0.482587     0.459595
    0.599917     0.633179     0.444115
    0.414259     0.641416     0.450062
    0.446382     0.336322     0.586491
    0.675325     0.496417     0.565585
    0.637657     0.380895     0.375867
    0.477324     0.468046     0.612890
    0.551095     0.456020     0.603978
    0.526275     0.527793     0.608028
    0.596381     0.338156     0.497115
    0.501410     0.313476     0.464136
    0.662004     0.552095     0.451435
    0.580027     0.376075     0.357941
    0.499900     0.360561     0.604879
    0.630853     0.532365     0.594272
EA136  19.740 20.842 17.899 90.00 90.00 90.00 Sym.group:    0
1.0000
   19.740197     0.000000     0.000000
    0.000000    20.841787     0.000000
    0.000000     0.000000    17.898612
   O  Cu
  12   24 
Direct
    0.296905     0.449843     0.505248
    0.452409     0.304640     0.496662
    0.289429     0.535364     0.508372
    0.581678     0.308369     0.493821
    0.370855     0.345155     0.499935
    0.397793     0.626064     0.556705
    0.708917     0.439829     0.507207
    0.651582     0.631671     0.500941
    0.450163     0.683706     0.520507
    0.547232     0.683896     0.507901
    0.704684     0.553131     0.502747
    0.660442     0.359358     0.511451
    0.341165     0.607779     0.478603
    0.327761     0.427163     0.472677
    0.486737     0.317570     0.465242
    0.545200     0.320029     0.526141
    0.361301     0.380777     0.532463
    0.341389     0.608558     0.540784
    0.327985     0.427942     0.534856
    0.486961     0.318349     0.527421
    0.544977     0.319251     0.463961
    0.361078     0.379998     0.470284
    0.316241     0.558936     0.477490
    0.381365     0.575436     0.415071
    0.414406     0.555668     0.456484
    0.620542     0.437505     0.554981
    0.615441     0.556693     0.548660
    0.503014     0.611509     0.552629
    0.676299     0.403877     0.503636
    0.669918     0.587095     0.496029
    0.498209     0.674208     0.506800
    0.577504     0.682895     0.469293
    0.721280     0.524035     0.468376
    0.723263     0.465732     0.470630
    0.414022     0.682756     0.490467
    0.631854     0.655213     0.465525
EA31   19.169 19.169 19.750 90.00 90.00 90.00 Sym.group:    0
1.0000
   19.168923     0.000000     0.000000
    0.000000    19.168923     0.000000
    0.000000     0.000000    19.749754
   O  Cu
  12   24 
Direct
    0.332317     0.545030     0.522276
    0.332317     0.477049     0.543705
    0.332317     0.454970     0.477724
    0.332317     0.522951     0.456295
    0.455997     0.428112     0.350997
    0.667683     0.496422     0.451069
    0.544003     0.613340     0.622348
    0.475138     0.384516     0.625494
    0.667683     0.503578     0.548931
    0.524862     0.664090     0.445713
    0.667683     0.449586     0.503473
    0.667683     0.550414     0.496527
    0.544003     0.386660     0.377652
    0.455997     0.571888     0.649003
    0.475138     0.615484     0.374506
    0.524862     0.335910     0.554287
    0.544003     0.626056     0.389994
    0.475138     0.370704     0.387912
    0.455997     0.346482     0.569774
    0.524862     0.555932     0.659264
    0.544003     0.373944     0.610006
    0.524862     0.444068     0.340736
    0.455997     0.653518     0.430226
    0.475138     0.629296     0.612088
    0.377352     0.500000     0.500000
    0.622648     0.500000     0.500000
    0.500000     0.432259     0.400763
    0.500000     0.567741     0.599237
    0.500000     0.602244     0.434251
    0.500000     0.397756     0.565749
    0.685450     0.500000     0.500000
    0.314550     0.500000     0.500000
    0.500000     0.602427     0.650051
    0.500000     0.397573     0.349949
    0.500000     0.345402     0.599415
    0.500000     0.654598     0.400585
EA114  18.564 19.580 20.078 90.00 90.00 90.00 Sym.group:    0
1.0000
   18.563912     0.000000     0.000000
    0.000000    19.580383     0.000000
    0.000000     0.000000    20.077949
   O  Cu
  12   24 
Direct
    0.675156     0.394364     0.492321
    0.470106     0.308654     0.491606
    0.717384     0.473656     0.491794
    0.350936     0.356502     0.490120
    0.562956     0.319497     0.492236
    0.658052     0.597068     0.448023
    0.263277     0.594300     0.493237
    0.317892     0.388978     0.475543
    0.267377     0.464892     0.482643
    0.536382     0.675807     0.569530
    0.451359     0.704522     0.401583
    0.353561     0.664910     0.468936
    0.696007     0.561023     0.517996
    0.634081     0.383562     0.519439
    0.440466     0.333125     0.518429
    0.392718     0.354832     0.463144
    0.589474     0.349983     0.464785
    0.705089     0.505886     0.464010
    0.640022     0.383712     0.464824
    0.446407     0.333274     0.463814
    0.386777     0.354682     0.517760
    0.583533     0.349832     0.519400
    0.699148     0.505736     0.518626
    0.639371     0.544501     0.571797
    0.604391     0.536435     0.533916
    0.551624     0.588524     0.609521
    0.480690     0.615686     0.606004
    0.413467     0.472498     0.594076
    0.564020     0.587634     0.508462
    0.275710     0.561300     0.462818
    0.282578     0.499034     0.512647
    0.280730     0.557336     0.517421
    0.386724     0.659730     0.570451
    0.599046     0.665127     0.399592
    0.548733     0.690942     0.500669
    0.534757     0.662455     0.382826
EA133  19.497 19.170 20.754 90.00 90.00 90.00 Sym.group:    0
1.0000
   19.497068     0.000000     0.000000
    0.000000    19.170170     0.000000
    0.000000     0.000000    20.754016
   O  Cu
  12   24 
Direct
    0.280012     0.448687     0.504006
    0.342374     0.342385     0.504150
    0.278974     0.550980     0.501475
    0.398053     0.710393     0.507527
    0.536285     0.722112     0.500216
    0.319675     0.655576     0.513534
    0.454621     0.324087     0.486967
    0.471203     0.272788     0.523572
    0.663825     0.355183     0.512523
    0.703471     0.586025     0.499091
    0.629616     0.697915     0.495841
    0.713267     0.487873     0.503868
    0.357201     0.499153     0.465908
    0.421139     0.614051     0.460424
    0.289705     0.500327     0.508512
    0.314536     0.360646     0.535650
    0.501281     0.706253     0.529458
    0.318237     0.616511     0.542008
    0.292524     0.560254     0.545457
    0.439005     0.700973     0.532753
    0.444380     0.372749     0.399053
    0.444853     0.499353     0.353156
    0.466421     0.522453     0.470874
    0.458578     0.464492     0.496857
    0.502390     0.293563     0.493247
    0.664753     0.397841     0.482117
    0.671933     0.608857     0.470857
    0.560499     0.301036     0.547117
    0.641219     0.657369     0.525698
    0.689588     0.455725     0.534522
    0.504950     0.291665     0.549553
    0.667312     0.395944     0.538422
    0.674494     0.606960     0.527162
    0.557938     0.302933     0.490812
    0.638658     0.659266     0.469393
    0.687027     0.457622     0.478218
EA70   23.201 18.933 18.505 90.00 90.00 90.00 Sym.group:    0
1.0000
   23.200924     0.000000     0.000000
    0.000000    18.933197     0.000000
    0.000000     0.000000    18.504734
   O  Cu
  12   24 
Direct
    0.340031     0.487984     0.447207
    0.323805     0.598689     0.454426
    0.311658     0.547515     0.560691
    0.411367     0.629937     0.542833
    0.434279     0.473623     0.532640
    0.589247     0.562182     0.589039
    0.488706     0.317146     0.501906
    0.696181     0.416634     0.499562
    0.755656     0.655086     0.488355
    0.758183     0.555844     0.493368
    0.619008     0.348275     0.502007
    0.409006     0.348029     0.499339
    0.410577     0.545754     0.421754
    0.330372     0.580598     0.527176
    0.340228     0.513355     0.522792
    0.641397     0.647415     0.499986
    0.429591     0.636896     0.492701
    0.607895     0.587952     0.541303
    0.480551     0.577253     0.443618
    0.488448     0.555111     0.541536
    0.287348     0.511886     0.519805
    0.277846     0.576714     0.524032
    0.302638     0.503485     0.472135
    0.291120     0.582060     0.477258
    0.370043     0.438067     0.464066
    0.523619     0.341789     0.470858
    0.701234     0.461141     0.467136
    0.725273     0.676772     0.456622
    0.583369     0.352170     0.531614
    0.401860     0.385730     0.527613
    0.730213     0.520217     0.525055
    0.524665     0.338146     0.531568
    0.702279     0.457498     0.527846
    0.582323     0.355813     0.470904
    0.400814     0.389373     0.466903
    0.729167     0.523860     0.464345
EA117  23.527 18.856 17.953 90.00 90.00 90.00 Sym.group:    0
1.0000
   23.526773     0.000000     0.000000
    0.000000    18.855974     0.000000
    0.000000     0.000000    17.953449
   O  Cu
  12   24 
Direct
    0.324233     0.397926     0.538567
    0.339936     0.513159     0.544473
    0.310726     0.459520     0.422658
    0.656641     0.366310     0.530721
    0.409132     0.374941     0.438806
    0.504944     0.449745     0.597816
    0.407210     0.637977     0.514451
    0.492458     0.669772     0.513701
    0.679475     0.601272     0.490641
    0.758405     0.368354     0.482087
    0.752375     0.467793     0.485618
    0.597736     0.662529     0.493158
    0.409731     0.452849     0.569864
    0.339191     0.492842     0.462359
    0.329652     0.422849     0.458772
    0.635666     0.359626     0.475874
    0.427723     0.364135     0.492756
    0.485912     0.479947     0.546279
    0.478251     0.423729     0.543398
    0.603319     0.449011     0.541801
    0.278098     0.425187     0.464402
    0.287294     0.492667     0.467860
    0.291778     0.416198     0.514884
    0.302924     0.497988     0.519076
    0.486584     0.573438     0.547192
    0.612007     0.544691     0.543302
    0.454552     0.644518     0.506834
    0.347424     0.580326     0.479903
    0.378920     0.628988     0.480987
    0.688497     0.557725     0.518495
    0.721582     0.500360     0.457474
    0.562794     0.654884     0.463615
    0.503876     0.663519     0.464177
    0.688739     0.560495     0.459736
    0.730874     0.347141     0.452032
    0.721341     0.497589     0.516231
EA144  18.659 20.005 19.296 90.00 90.00 90.00 Sym.group:    0
1.0000
   18.658781     0.000000     0.000000
    0.000000    20.005289     0.000000
    0.000000     0.000000    19.296493
   O  Cu
  12   24 
Direct
    0.315925     0.549288     0.530033
    0.415247     0.647980     0.576783
    0.539047     0.585514     0.646599
    0.322419     0.487155     0.537359
    0.345563     0.445446     0.558537
    0.695120     0.619459     0.473239
    0.672397     0.405393     0.487414
    0.469869     0.329621     0.497317
    0.344870     0.384852     0.496947
    0.564740     0.335243     0.494576
    0.707056     0.488291     0.481275
    0.542674     0.374672     0.564172
    0.497079     0.631540     0.621385
    0.357847     0.621918     0.547837
    0.617926     0.586231     0.554563
    0.358564     0.577558     0.416984
    0.390001     0.632022     0.430335
    0.547579     0.663379     0.512299
    0.532482     0.742351     0.499345
    0.309751     0.641222     0.387027
    0.489154     0.539940     0.488869
    0.374968     0.476999     0.505340
    0.312735     0.447251     0.513918
    0.636727     0.393046     0.459472
    0.442534     0.352389     0.466935
    0.684630     0.579478     0.446421
    0.384612     0.385758     0.525513
    0.586959     0.370001     0.521431
    0.688876     0.529445     0.508740
    0.635142     0.401920     0.518193
    0.440950     0.361262     0.525654
    0.683046     0.588351     0.505143
    0.386196     0.376885     0.466793
    0.588544     0.361128     0.462712
    0.690460     0.520572     0.450018
    0.428312     0.566439     0.320822
EA98   26.703 16.016 16.381 90.00 90.00 90.00 Sym.group:    0
1.0000
   26.702807     0.000000     0.000000
    0.000000    16.016101     0.000000
    0.000000     0.000000    16.380742
   O  Cu
  12   24 
Direct
    0.712242     0.433566     0.447457
    0.287758     0.433566     0.552543
    0.716033     0.568366     0.447269
    0.283967     0.568366     0.552731
    0.733120     0.502268     0.572841
    0.266880     0.502268     0.427159
    0.375653     0.597476     0.445052
    0.624347     0.597476     0.554948
    0.377427     0.407140     0.454914
    0.622573     0.407140     0.545086
    0.458477     0.491170     0.614182
    0.541523     0.491170     0.385818
    0.363335     0.494955     0.583503
    0.636665     0.494955     0.416497
    0.288760     0.541464     0.467452
    0.711240     0.541464     0.532548
    0.291059     0.459586     0.467340
    0.708941     0.459586     0.532660
    0.396118     0.393100     0.513164
    0.603882     0.393100     0.486836
    0.394460     0.603894     0.501915
    0.605540     0.603894     0.498085
    0.436355     0.527646     0.556328
    0.563645     0.527646     0.443672
    0.436848     0.461882     0.559838
    0.563152     0.461882     0.440162
    0.441442     0.501044     0.443541
    0.558558     0.501044     0.556459
    0.238896     0.465138     0.472533
    0.761104     0.465138     0.527467
    0.236679     0.544076     0.472638
    0.763321     0.544076     0.527362
    0.747199     0.455776     0.473727
    0.252801     0.455776     0.526273
    0.749889     0.551455     0.473598
    0.250111     0.551455     0.526402
EA16   26.644 16.016 16.381 90.00 90.00 90.00 Sym.group:    0
1.0000
   26.643565     0.000000     0.000000
    0.000000    16.016117     0.000000
    0.000000     0.000000    16.380755
   O  Cu
  12   24 
Direct
    0.714614     0.567400     0.447370
    0.285386     0.567400     0.552630
    0.714614     0.432600     0.447370
    0.285386     0.432600     0.552630
    0.733637     0.500000     0.572849
    0.266363     0.500000     0.427151
    0.376266     0.404832     0.449979
    0.623734     0.404832     0.550021
    0.376266     0.595168     0.449979
    0.623734     0.595168     0.550021
    0.458383     0.500000     0.614181
    0.541617     0.500000     0.385819
    0.363030     0.500000     0.583498
    0.636970     0.500000     0.416502
    0.289443     0.459061     0.467389
    0.710557     0.459061     0.532611
    0.289443     0.540939     0.467389
    0.710557     0.540939     0.532611
    0.395056     0.605397     0.507536
    0.604944     0.605397     0.492464
    0.395056     0.394603     0.507536
    0.604944     0.394603     0.492464
    0.436460     0.467118     0.558081
    0.563540     0.467118     0.441919
    0.436460     0.532882     0.558081
    0.563540     0.532882     0.441919
    0.441312     0.500000     0.443539
    0.558688     0.500000     0.556461
    0.237205     0.539469     0.472577
    0.762795     0.539469     0.527423
    0.237205     0.460531     0.472577
    0.762795     0.460531     0.527423
    0.749097     0.547839     0.473671
    0.250903     0.547839     0.526329
    0.749097     0.452161     0.473671
    0.250903     0.452161     0.526329
EA125  19.121 19.019 19.016 90.00 90.00 90.00 Sym.group:    0
1.0000
   19.121034     0.000000     0.000000
    0.000000    19.019256     0.000000
    0.000000     0.000000    19.016184
   O  Cu
  12   24 
Direct
    0.358631     0.448090     0.409833
    0.382569     0.503518     0.370676
    0.355203     0.545993     0.418505
    0.331265     0.490564     0.457661
    0.407481     0.606736     0.579453
    0.465957     0.353969     0.610754
    0.556728     0.677166     0.494198
    0.535443     0.654359     0.413870
    0.595982     0.446149     0.336162
    0.665756     0.454103     0.595953
    0.624843     0.385003     0.385634
    0.640787     0.531280     0.631606
    0.397986     0.425250     0.628771
    0.463438     0.406689     0.654985
    0.453469     0.646222     0.540701
    0.459448     0.591854     0.628732
    0.400506     0.372529     0.584540
    0.509678     0.332817     0.435906
    0.396224     0.494669     0.437545
    0.469032     0.583902     0.562288
    0.451122     0.416090     0.587923
    0.341410     0.497977     0.404947
    0.451498     0.632900     0.593564
    0.424417     0.379162     0.632324
    0.505205     0.675177     0.455245
    0.586966     0.656348     0.452824
    0.677253     0.506176     0.581713
    0.638707     0.447798     0.368464
    0.629291     0.479207     0.645846
    0.582117     0.383354     0.353332
    0.609127     0.466103     0.507696
    0.472576     0.460832     0.404458
    0.573357     0.572110     0.516716
    0.567959     0.512705     0.420674
    0.541932     0.394822     0.452909
    0.476636     0.568377     0.443591
EA124  18.837 19.338 21.816 90.00 90.00 90.00 Sym.group:    0
1.0000
   18.836732     0.000000     0.000000
    0.000000    19.337643     0.000000
    0.000000     0.000000    21.815970
   O  Cu
  12   24 
Direct
    0.299177     0.455758     0.551396
    0.292240     0.556508     0.548743
    0.261104     0.516881     0.442892
    0.392979     0.597577     0.462521
    0.399368     0.454016     0.474617
    0.510853     0.510385     0.612328
    0.610202     0.332967     0.471783
    0.535424     0.334347     0.526246
    0.774446     0.566885     0.510767
    0.572149     0.495536     0.366573
    0.775884     0.506086     0.454617
    0.704658     0.612318     0.569888
    0.290662     0.544739     0.477467
    0.294872     0.483542     0.479079
    0.427646     0.439937     0.525205
    0.420912     0.598989     0.511551
    0.478059     0.540918     0.561444
    0.480131     0.491294     0.565703
    0.474298     0.531963     0.466930
    0.232004     0.481988     0.480323
    0.227944     0.540988     0.478765
    0.253980     0.471358     0.526730
    0.249057     0.542870     0.524844
    0.531132     0.332859     0.484451
    0.614495     0.334455     0.513578
    0.564172     0.566689     0.373506
    0.506579     0.495446     0.377077
    0.781061     0.507881     0.505018
    0.601616     0.505753     0.653481
    0.769269     0.565090     0.460366
    0.659748     0.538005     0.549267
    0.650031     0.534636     0.454653
    0.634897     0.441991     0.497670
    0.564456     0.471769     0.579027
    0.550737     0.467012     0.445450
    0.613756     0.630566     0.516042
EA75   18.847 20.323 19.600 90.00 90.00 90.00 Sym.group:    0
1.0000
   18.846949     0.000000     0.000000
    0.000000    20.322896     0.000000
    0.000000     0.000000    19.600208
   O  Cu
  12   24 
Direct
    0.393695     0.309526     0.529094
    0.669238     0.508387     0.464712
    0.632975     0.505984     0.594210
    0.518529     0.285576     0.461755
    0.654875     0.382539     0.531875
    0.405398     0.345234     0.399636
    0.707570     0.544595     0.503153
    0.538062     0.670819     0.503684
    0.313899     0.600348     0.497512
    0.251919     0.487248     0.493093
    0.395845     0.652919     0.500545
    0.627333     0.639797     0.504431
    0.434730     0.337698     0.621805
    0.628203     0.480215     0.372002
    0.599756     0.344698     0.407342
    0.514506     0.424650     0.326547
    0.573647     0.323418     0.586288
    0.523867     0.426568     0.667299
    0.526130     0.455557     0.540484
    0.487586     0.429095     0.453401
    0.490395     0.409179     0.514759
    0.431812     0.437126     0.492152
    0.543633     0.447930     0.479094
    0.458707     0.455591     0.552918
    0.672526     0.562486     0.473103
    0.498826     0.653177     0.472528
    0.308489     0.564109     0.466440
    0.638813     0.606790     0.533609
    0.283001     0.514567     0.524379
    0.437188     0.646525     0.531043
    0.674962     0.563899     0.533033
    0.501261     0.654589     0.532458
    0.310924     0.565521     0.526370
    0.636378     0.605377     0.473679
    0.280566     0.513154     0.464450
    0.434753     0.645112     0.471114
EA49   19.732 19.732 19.732 90.00 90.00 90.00 Sym.group:    0
1.0000
   19.731562     0.000000     0.000000
    0.000000    19.731562     0.000000
    0.000000     0.000000    19.731562
   O  Cu
  12   24 
Direct
    0.528329     0.320299     0.470347
    0.534384     0.679701     0.522351
    0.471671     0.320299     0.529653
    0.465616     0.679701     0.477649
    0.494781     0.468432     0.681522
    0.682147     0.526178     0.510573
    0.546785     0.531568     0.675467
    0.317853     0.526178     0.489427
    0.453215     0.531568     0.324533
    0.325156     0.473822     0.552139
    0.505219     0.468432     0.318478
    0.674844     0.473822     0.447861
    0.471671     0.679701     0.529653
    0.465616     0.320299     0.477649
    0.528329     0.679701     0.470347
    0.534384     0.320299     0.522351
    0.505219     0.531568     0.318478
    0.317853     0.473822     0.489427
    0.453215     0.468432     0.324533
    0.682147     0.473822     0.510573
    0.546785     0.468432     0.675467
    0.674844     0.526178     0.447861
    0.494781     0.531568     0.681522
    0.325156     0.526178     0.552139
    0.589957     0.500000     0.549187
    0.576249     0.500000     0.431461
    0.410043     0.500000     0.450813
    0.423751     0.500000     0.568539
    0.558863     0.416336     0.493146
    0.509676     0.440739     0.583103
    0.441137     0.583664     0.506854
    0.490324     0.440739     0.416897
    0.558863     0.583664     0.493146
    0.509676     0.559261     0.583103
    0.441137     0.416336     0.506854
    0.490324     0.559261     0.416897
EA134  16.504 20.575 20.667 90.00 90.00 90.00 Sym.group:    0
1.0000
   16.503954     0.000000     0.000000
    0.000000    20.574521     0.000000
    0.000000     0.000000    20.667097
   O  Cu
  12   24 
Direct
    0.706231     0.378589     0.507650
    0.729691     0.575876     0.514207
    0.528254     0.686920     0.511493
    0.637728     0.658777     0.513924
    0.751813     0.485390     0.512181
    0.366394     0.663304     0.490370
    0.290082     0.385470     0.491151
    0.527714     0.298768     0.487675
    0.242497     0.462433     0.502471
    0.667964     0.342028     0.502457
    0.419496     0.311209     0.484438
    0.312952     0.576158     0.565936
    0.601924     0.399126     0.539665
    0.650349     0.512590     0.544478
    0.552652     0.600660     0.544177
    0.406529     0.575269     0.539064
    0.729876     0.529173     0.506477
    0.579457     0.664770     0.506014
    0.760191     0.457107     0.480011
    0.675368     0.651791     0.483260
    0.723117     0.608747     0.483406
    0.736523     0.401653     0.477659
    0.480423     0.679381     0.465060
    0.412884     0.663056     0.463576
    0.270402     0.547898     0.493278
    0.388174     0.338868     0.513622
    0.256550     0.490911     0.534089
    0.261433     0.543857     0.543773
    0.329871     0.372324     0.516647
    0.554920     0.319697     0.518611
    0.627075     0.343229     0.474776
    0.397143     0.342909     0.463128
    0.265519     0.494952     0.483595
    0.338205     0.535078     0.443297
    0.377486     0.523598     0.478852
    0.443113     0.578434     0.419531
EA120  19.284 19.204 18.945 90.00 90.00 90.00 Sym.group:    0
1.0000
   19.283500     0.000000     0.000000
    0.000000    19.204173     0.000000
    0.000000     0.000000    18.945324
   O  Cu
  12   24 
Direct
    0.670468     0.525621     0.511776
    0.663387     0.458618     0.494464
    0.646826     0.476920     0.428477
    0.653908     0.543922     0.445790
    0.499177     0.531683     0.340857
    0.490884     0.675274     0.558219
    0.359407     0.383551     0.522814
    0.357572     0.433395     0.423986
    0.582493     0.348430     0.487187
    0.388693     0.371784     0.452910
    0.331913     0.553763     0.535621
    0.369839     0.587345     0.608173
    0.516513     0.672087     0.461726
    0.455357     0.676056     0.497312
    0.478548     0.465845     0.346625
    0.433880     0.554170     0.357911
    0.552040     0.671304     0.522634
    0.565252     0.552818     0.665464
    0.615527     0.503812     0.481453
    0.467463     0.510202     0.395247
    0.502194     0.629918     0.510596
    0.675658     0.500268     0.465658
    0.451776     0.509930     0.335312
    0.504292     0.690945     0.509726
    0.600845     0.371120     0.593078
    0.546850     0.332273     0.554373
    0.636487     0.387275     0.525892
    0.397282     0.434780     0.485560
    0.567835     0.399161     0.534370
    0.343186     0.398094     0.468603
    0.601071     0.344236     0.542406
    0.342879     0.474918     0.614985
    0.475516     0.476847     0.634708
    0.333558     0.471039     0.493087
    0.381970     0.425656     0.607157
    0.539456     0.656941     0.585847
EA6    21.481 21.693 13.978 90.00 90.00 90.00 Sym.group:    0
1.0000
   21.481062     0.000000     0.000000
    0.000000    21.693079     0.000000
    0.000000     0.000000    13.977947
   O  Cu
  12   24 
Direct
    0.698478     0.469997     0.491554
    0.572998     0.314792     0.491554
    0.374521     0.344796     0.491554
    0.301522     0.530003     0.491554
    0.427002     0.685208     0.491554
    0.625479     0.655204     0.491554
    0.459621     0.305248     0.491554
    0.650136     0.367997     0.491554
    0.690514     0.562750     0.491554
    0.540379     0.694752     0.491554
    0.349864     0.632003     0.491554
    0.309486     0.437250     0.491554
    0.620447     0.510140     0.441568
    0.569091     0.401778     0.441568
    0.448644     0.391639     0.441568
    0.379553     0.489860     0.441568
    0.430909     0.598222     0.441568
    0.551356     0.608361     0.441568
    0.314555     0.484389     0.500749
    0.393624     0.651225     0.500749
    0.579070     0.666836     0.500749
    0.685445     0.515611     0.500749
    0.606376     0.348775     0.500749
    0.420930     0.333164     0.500749
    0.511755     0.708399     0.537287
    0.688138     0.594118     0.537287
    0.676383     0.385719     0.537287
    0.488245     0.291601     0.537287
    0.311862     0.405882     0.537287
    0.323617     0.614281     0.537287
    0.298517     0.561320     0.537287
    0.345630     0.357877     0.537287
    0.547112     0.296556     0.537287
    0.701483     0.438680     0.537287
    0.654370     0.642123     0.537287
    0.452888     0.703444     0.537287
EA59   19.984 22.251 18.533 90.00 90.00 90.00 Sym.group:    0
1.0000
   19.984288     0.000000     0.000000
    0.000000    22.251081     0.000000
    0.000000     0.000000    18.533151
   O  Cu
  12   24 
Direct
    0.711104     0.579290     0.454982
    0.693391     0.479403     0.462464
    0.732956     0.539406     0.562669
    0.586246     0.471989     0.542519
    0.611255     0.613029     0.531955
    0.402899     0.555766     0.579661
    0.528298     0.355915     0.486579
    0.291874     0.419195     0.500047
    0.213379     0.605025     0.479836
    0.391948     0.367158     0.498127
    0.623335     0.391861     0.471974
    0.218418     0.517042     0.492522
    0.606528     0.530253     0.428683
    0.697212     0.506631     0.530568
    0.707970     0.567303     0.526023
    0.333664     0.627501     0.482578
    0.586353     0.616460     0.483091
    0.377276     0.576256     0.530541
    0.523684     0.560238     0.443178
    0.520549     0.546085     0.538527
    0.770579     0.563341     0.525056
    0.760207     0.504847     0.529437
    0.751819     0.565491     0.479724
    0.739247     0.494593     0.485034
    0.529876     0.435316     0.433657
    0.385023     0.447261     0.445925
    0.306986     0.551212     0.437932
    0.226408     0.560592     0.492745
    0.569578     0.382155     0.486163
    0.346557     0.400546     0.505052
    0.653791     0.406004     0.504301
    0.423729     0.351602     0.534773
    0.217879     0.489611     0.534083
    0.209436     0.637055     0.512823
    0.256020     0.438806     0.537990
    0.494525     0.345764     0.528777
EA116  21.059 17.627 21.050 90.00 90.00 90.00 Sym.group:    0
1.0000
   21.059209     0.000000     0.000000
    0.000000    17.626608     0.000000
    0.000000     0.000000    21.049851
   O  Cu
  12   24 
Direct
    0.313197     0.488225     0.482154
    0.351155     0.500925     0.590295
    0.352394     0.340840     0.552979
    0.270951     0.525647     0.506991
    0.545410     0.732483     0.509741
    0.328829     0.661608     0.501190
    0.537690     0.545017     0.582506
    0.476693     0.284116     0.502097
    0.667133     0.401244     0.503888
    0.700141     0.623484     0.472270
    0.591153     0.323575     0.508065
    0.711967     0.524612     0.489163
    0.355145     0.458361     0.412181
    0.408739     0.300726     0.458988
    0.472259     0.414705     0.388277
    0.443980     0.444645     0.508395
    0.299991     0.554293     0.482309
    0.447174     0.706818     0.480909
    0.324956     0.619959     0.528333
    0.508229     0.716473     0.533044
    0.298881     0.558704     0.530947
    0.326065     0.615547     0.479695
    0.509339     0.712061     0.484407
    0.591699     0.626923     0.478635
    0.560000     0.566836     0.531008
    0.464298     0.367046     0.445194
    0.585896     0.408967     0.451533
    0.633525     0.540031     0.435891
    0.696508     0.572415     0.487769
    0.435959     0.306083     0.502092
    0.623176     0.370625     0.511853
    0.563633     0.304642     0.546980
    0.714244     0.498858     0.532335
    0.694424     0.664549     0.504025
    0.690964     0.434801     0.539980
    0.504203     0.284154     0.543881
EA135  20.172 18.466 19.603 90.00 90.00 90.00 Sym.group:    0
1.0000
   20.171846     0.000000     0.000000
    0.000000    18.466423     0.000000
    0.000000     0.000000    19.602952
   O  Cu
  12   24 
Direct
    0.332086     0.439370     0.488886
    0.319725     0.528530     0.500330
    0.407082     0.332529     0.480500
    0.408873     0.627436     0.573909
    0.483293     0.637759     0.459197
    0.501172     0.321408     0.547759
    0.513396     0.440140     0.352105
    0.681569     0.512194     0.443384
    0.665347     0.589122     0.451935
    0.678705     0.578748     0.509924
    0.694928     0.501819     0.501373
    0.586156     0.505930     0.627127
    0.366280     0.605953     0.481595
    0.365415     0.416612     0.454894
    0.392607     0.369577     0.518171
    0.339773     0.555092     0.539583
    0.359684     0.607053     0.548652
    0.358819     0.417711     0.521949
    0.399202     0.368478     0.451115
    0.346369     0.553993     0.472527
    0.412163     0.573287     0.414300
    0.439292     0.553981     0.460514
    0.503678     0.588605     0.376511
    0.535067     0.688902     0.456297
    0.489883     0.589960     0.500382
    0.558119     0.375146     0.434836
    0.508439     0.496008     0.490949
    0.591108     0.328093     0.542832
    0.548976     0.574187     0.621882
    0.524114     0.464359     0.635477
    0.601568     0.323706     0.485017
    0.636199     0.531753     0.480838
    0.531172     0.512592     0.592034
    0.697471     0.550883     0.475004
    0.538664     0.521909     0.643137
    0.683605     0.417175     0.465077
EA142  20.350 17.759 19.870 90.00 90.00 90.00 Sym.group:    0
1.0000
   20.349639     0.000000     0.000000
    0.000000    17.759133     0.000000
    0.000000     0.000000    19.869824
   O  Cu
  12   24 
Direct
    0.663961     0.586540     0.483093
    0.496812     0.699265     0.462400
    0.643103     0.369462     0.474469
    0.586585     0.674433     0.473918
    0.681824     0.487088     0.484553
    0.573490     0.298731     0.457993
    0.346827     0.382150     0.401134
    0.483692     0.332164     0.571674
    0.405177     0.611016     0.576399
    0.333226     0.368279     0.493332
    0.309985     0.426525     0.449914
    0.370068     0.323904     0.444552
    0.603503     0.518207     0.430272
    0.521581     0.610304     0.422144
    0.560537     0.393296     0.424345
    0.601780     0.341226     0.472848
    0.663833     0.534587     0.488177
    0.539031     0.677076     0.473757
    0.685416     0.453747     0.518873
    0.616330     0.665250     0.511828
    0.408685     0.689077     0.481277
    0.465864     0.706186     0.492375
    0.656004     0.619884     0.516575
    0.665855     0.392382     0.513513
    0.525657     0.430412     0.601943
    0.349645     0.632906     0.505608
    0.408549     0.666174     0.524740
    0.458935     0.400925     0.606984
    0.346273     0.577748     0.557267
    0.550414     0.361652     0.566633
    0.376355     0.404717     0.450131
    0.496783     0.409159     0.552220
    0.403698     0.585194     0.518718
    0.325695     0.363575     0.446090
    0.507788     0.370293     0.600454
    0.367040     0.636466     0.549796
EA74   18.850 19.205 18.142 90.00 90.00 90.00 Sym.group:    0
1.0000
   18.850351     0.000000     0.000000
    0.000000    19.204798     0.000000
    0.000000     0.000000    18.142397
   O  Cu
  12   24 
Direct
    0.645085     0.456410     0.411073
    0.526609     0.366894     0.402837
    0.392057     0.419814     0.375073
    0.375986     0.562248     0.355545
    0.494343     0.327853     0.496566
    0.326377     0.421168     0.458660
    0.330421     0.613493     0.436398
    0.635310     0.612442     0.412512
    0.435756     0.640454     0.568701
    0.533799     0.420818     0.615645
    0.615193     0.628983     0.515220
    0.658095     0.582547     0.477526
    0.586327     0.378191     0.484745
    0.417387     0.371018     0.458652
    0.332089     0.510645     0.428417
    0.383326     0.439171     0.521407
    0.444083     0.481743     0.489136
    0.436301     0.419746     0.527576
    0.371801     0.516547     0.505759
    0.391276     0.554283     0.603166
    0.615456     0.408068     0.550671
    0.553010     0.372925     0.563425
    0.453242     0.588219     0.618872
    0.596244     0.455960     0.602891
    0.373790     0.606517     0.552995
    0.590584     0.591298     0.462797
    0.435716     0.574224     0.552081
    0.553556     0.440426     0.550051
    0.638928     0.632317     0.464287
    0.404758     0.606499     0.599289
    0.582939     0.404192     0.596220
    0.556632     0.448157     0.367691
    0.584671     0.664618     0.450365
    0.547811     0.562968     0.496006
    0.669969     0.524990     0.480601
    0.511073     0.394155     0.547145
EA137  19.996 19.966 19.119 90.00 90.00 90.00 Sym.group:    0
1.0000
   19.995859     0.000000     0.000000
    0.000000    19.965963     0.000000
    0.000000     0.000000    19.118662
   O  Cu
  12   24 
Direct
    0.296784     0.469167     0.434080
    0.544117     0.337383     0.554082
    0.295386     0.415480     0.534386
    0.314981     0.397804     0.459804
    0.277188     0.486844     0.508662
    0.475916     0.518496     0.617407
    0.409257     0.497454     0.609665
    0.566795     0.462179     0.414767
    0.449832     0.657643     0.512534
    0.675560     0.595309     0.499746
    0.757224     0.397601     0.491877
    0.589065     0.645353     0.505131
    0.475188     0.313351     0.529388
    0.343615     0.458405     0.486591
    0.512146     0.376091     0.501270
    0.277334     0.435980     0.483303
    0.532163     0.311519     0.505498
    0.423022     0.590864     0.542487
    0.306130     0.557440     0.495318
    0.466509     0.465093     0.540345
    0.467225     0.570131     0.520740
    0.406055     0.550820     0.513635
    0.635642     0.392000     0.486633
    0.592400     0.440566     0.454959
    0.464409     0.455524     0.461734
    0.491020     0.639352     0.537239
    0.687022     0.556706     0.525607
    0.729662     0.374639     0.520038
    0.549420     0.639118     0.479892
    0.717069     0.511363     0.468887
    0.486692     0.644655     0.483228
    0.682693     0.562009     0.471596
    0.553747     0.633815     0.533903
    0.721396     0.506060     0.522897
    0.361683     0.590343     0.488665
    0.465652     0.543442     0.304006
EA150  23.819 23.514 14.467 90.00 90.00 90.00 Sym.group:    0
1.0000
   23.819327     0.000000     0.000000
    0.000000    23.514316     0.000000
    0.000000     0.000000    14.466787
   O  Cu
  12   24 
Direct
    0.304806     0.367854     0.500000
    0.515379     0.262691     0.500000
    0.710574     0.394837     0.500000
    0.695194     0.632146     0.500000
    0.484621     0.737309     0.500000
    0.289426     0.605163     0.500000
    0.451827     0.625933     0.436863
    0.368248     0.520706     0.436863
    0.416421     0.394773     0.436863
    0.548173     0.374067     0.436863
    0.631752     0.479294     0.436863
    0.583579     0.605227     0.436863
    0.451827     0.625933     0.563137
    0.368248     0.520706     0.563137
    0.416421     0.394773     0.563137
    0.548173     0.374067     0.563137
    0.631752     0.479294     0.563137
    0.583579     0.605227     0.563137
    0.502722     0.706068     0.462246
    0.325186     0.605421     0.462246
    0.322464     0.399354     0.462246
    0.497278     0.293932     0.462246
    0.674814     0.394579     0.462246
    0.677536     0.600646     0.462246
    0.502722     0.706068     0.537754
    0.325186     0.605421     0.537754
    0.322464     0.399354     0.537754
    0.497278     0.293932     0.537754
    0.674814     0.394579     0.537754
    0.677536     0.600646     0.537754
    0.650288     0.684694     0.500000
    0.417242     0.724188     0.500000
    0.266954     0.539494     0.500000
    0.349712     0.315306     0.500000
    0.582758     0.275812     0.500000
    0.733046     0.460506     0.500000
EA122  22.517 18.851 21.735 90.00 90.00 90.00 Sym.group:    0
1.0000
   22.516892     0.000000     0.000000
    0.000000    18.851477     0.000000
    0.000000     0.000000    21.735331
   O  Cu
  12   24 
Direct
    0.707394     0.484504     0.451092
    0.728816     0.602375     0.454073
    0.738118     0.549966     0.549420
    0.632383     0.634150     0.530110
    0.602136     0.467716     0.525901
    0.537868     0.299911     0.503304
    0.396551     0.329102     0.501157
    0.626088     0.334919     0.500817
    0.262932     0.498338     0.454516
    0.364752     0.474476     0.532403
    0.362285     0.628846     0.530387
    0.548991     0.545700     0.582911
    0.632831     0.543312     0.426157
    0.719508     0.584014     0.518666
    0.706496     0.512418     0.516856
    0.613746     0.640304     0.485558
    0.557004     0.574950     0.443743
    0.545582     0.552604     0.530620
    0.776838     0.581385     0.516521
    0.763485     0.586021     0.475026
    0.501212     0.324579     0.474838
    0.435021     0.334673     0.527451
    0.634620     0.375462     0.524587
    0.498687     0.321522     0.528417
    0.437545     0.337730     0.473871
    0.637144     0.378519     0.471007
    0.266545     0.522056     0.516683
    0.265483     0.588462     0.515816
    0.383689     0.634602     0.488711
    0.386422     0.463640     0.490944
    0.432398     0.519046     0.454365
    0.436614     0.548776     0.537913
    0.206800     0.589587     0.510585
    0.207824     0.525565     0.511421
    0.222476     0.594184     0.471570
    0.223717     0.516586     0.472583
EA140  19.713 18.960 20.317 90.00 90.00 90.00 Sym.group:    0
1.0000
   19.713410     0.000000     0.000000
    0.000000    18.959865     0.000000
    0.000000     0.000000    20.316912
   O  Cu
  12   24 
Direct
    0.498015     0.302351     0.475878
    0.615457     0.328913     0.481448
    0.403047     0.332715     0.472923
    0.291690     0.493351     0.488220
    0.323167     0.628139     0.492106
    0.318401     0.402115     0.488042
    0.672354     0.359249     0.500976
    0.621389     0.642723     0.571787
    0.675774     0.584083     0.403713
    0.541132     0.706642     0.501423
    0.469847     0.704929     0.452984
    0.690518     0.476585     0.473839
    0.475587     0.393596     0.443693
    0.600354     0.421815     0.449610
    0.388836     0.489441     0.443028
    0.453078     0.326893     0.481038
    0.589445     0.305748     0.510806
    0.528466     0.291956     0.507913
    0.314515     0.527698     0.462852
    0.326602     0.587984     0.518716
    0.353577     0.386678     0.516691
    0.397745     0.344978     0.518241
    0.312420     0.527259     0.516966
    0.328696     0.588423     0.464602
    0.633610     0.354668     0.525604
    0.676642     0.502533     0.575555
    0.439932     0.684127     0.556571
    0.573204     0.692796     0.399774
    0.537795     0.486007     0.594913
    0.522898     0.567673     0.589962
    0.462759     0.515395     0.590401
    0.624789     0.661986     0.502005
    0.684462     0.572861     0.473539
    0.599611     0.634917     0.384047
    0.633289     0.549142     0.591220
    0.420899     0.623631     0.578915
EA118  22.684 18.837 18.957 90.00 90.00 90.00 Sym.group:    0
1.0000
   22.683853     0.000000     0.000000
    0.000000    18.836598     0.000000
    0.000000     0.000000    18.956629
   O  Cu
  12   24 
Direct
    0.649979     0.512076     0.464947
    0.615960     0.398456     0.469341
    0.528304     0.415104     0.549868
    0.458619     0.294801     0.489860
    0.280787     0.430675     0.505610
    0.351068     0.343215     0.501955
    0.542240     0.312981     0.476208
    0.271071     0.583277     0.487934
    0.623283     0.648496     0.495708
    0.432703     0.721430     0.499564
    0.527463     0.714536     0.500793
    0.666130     0.556814     0.487877
    0.556045     0.482182     0.436967
    0.624495     0.427515     0.538837
    0.495288     0.538718     0.452586
    0.694785     0.475582     0.535022
    0.674864     0.409046     0.537595
    0.680058     0.484410     0.489416
    0.655912     0.403765     0.492534
    0.475546     0.389828     0.439034
    0.497049     0.315067     0.490241
    0.321133     0.394256     0.510024
    0.569595     0.320759     0.509213
    0.373618     0.315430     0.538373
    0.429461     0.290292     0.532093
    0.360474     0.582150     0.452560
    0.473868     0.636071     0.463529
    0.636603     0.597516     0.498078
    0.479105     0.707512     0.507086
    0.306112     0.620374     0.496760
    0.559322     0.712081     0.533499
    0.247090     0.487655     0.517567
    0.681476     0.523972     0.517975
    0.251552     0.552907     0.518885
    0.399753     0.723896     0.531482
    0.609187     0.677153     0.530981
EA63   18.815 18.820 19.518 90.00 90.00 90.00 Sym.group:    0
1.0000
   18.814738     0.000000     0.000000
    0.000000    18.820094     0.000000
    0.000000     0.000000    19.517776
   O  Cu
  12   24 
Direct
    0.516300     0.432805     0.647093
    0.570565     0.667791     0.541497
    0.567035     0.476667     0.666269
    0.395738     0.391378     0.511900
    0.395669     0.523073     0.384286
    0.410233     0.513476     0.635960
    0.694061     0.492817     0.555456
    0.567760     0.634573     0.407209
    0.488994     0.403513     0.380234
    0.696036     0.507875     0.459097
    0.693958     0.448691     0.497641
    0.696139     0.552000     0.516913
    0.303215     0.487826     0.472093
    0.307480     0.559583     0.474192
    0.311426     0.553733     0.545512
    0.307161     0.481976     0.543413
    0.534041     0.545603     0.667458
    0.529795     0.674010     0.473450
    0.499735     0.649330     0.521544
    0.498417     0.498720     0.644233
    0.353125     0.540035     0.417507
    0.363702     0.611341     0.525127
    0.361803     0.498897     0.601483
    0.351225     0.427590     0.493862
    0.558036     0.381867     0.622527
    0.539692     0.344688     0.441969
    0.466639     0.361179     0.432105
    0.546676     0.579560     0.364661
    0.562046     0.387022     0.390098
    0.646929     0.503213     0.510041
    0.519271     0.588592     0.427278
    0.514756     0.410874     0.439695
    0.714032     0.499214     0.506186
    0.521006     0.628311     0.381045
    0.514180     0.359593     0.399821
    0.483123     0.382582     0.501146
EA158  19.471 24.129 17.475 90.00 90.00 90.00 Sym.group:    0
1.0000
   19.471498     0.000000     0.000000
    0.000000    24.128552     0.000000
    0.000000     0.000000    17.475368
   O  Cu
  12   24 
Direct
    0.439912     0.635018     0.554337
    0.656409     0.614013     0.493153
    0.793301     0.461411     0.435458
    0.560088     0.364982     0.554337
    0.343591     0.385987     0.493153
    0.206699     0.538589     0.435458
    0.788932     0.548373     0.440978
    0.549039     0.633560     0.557733
    0.333449     0.613043     0.484580
    0.211068     0.451627     0.440978
    0.450961     0.366440     0.557733
    0.666551     0.386957     0.484580
    0.429439     0.560624     0.495983
    0.562891     0.557356     0.507061
    0.734113     0.504708     0.336538
    0.570561     0.439376     0.495983
    0.437109     0.442644     0.507061
    0.265887     0.495292     0.336538
    0.612806     0.386467     0.532257
    0.397479     0.386663     0.539571
    0.217444     0.495476     0.429529
    0.387194     0.613533     0.532257
    0.602521     0.613337     0.539571
    0.782556     0.504524     0.429529
    0.231528     0.429621     0.486268
    0.273866     0.603066     0.497116
    0.526588     0.636250     0.613234
    0.768472     0.570379     0.486268
    0.726134     0.396934     0.497116
    0.473412     0.363750     0.613234
    0.538661     0.363924     0.611716
    0.776023     0.435904     0.477433
    0.716154     0.606959     0.507055
    0.461339     0.636076     0.611716
    0.223977     0.564096     0.477433
    0.283846     0.393041     0.507055
EA44   19.323 19.727 19.111 90.00 90.00 90.00 Sym.group:    0
1.0000
   19.322876     0.000000     0.000000
    0.000000    19.727337     0.000000
    0.000000     0.000000    19.110955
   O  Cu
  12   24 
Direct
    0.422095     0.618360     0.368952
    0.422095     0.381640     0.631048
    0.577905     0.328472     0.527401
    0.577905     0.671528     0.472599
    0.332557     0.485504     0.597053
    0.557998     0.644187     0.612759
    0.667443     0.414087     0.457830
    0.442002     0.509312     0.686479
    0.332557     0.514496     0.402947
    0.442002     0.490688     0.313521
    0.667443     0.585913     0.542170
    0.557998     0.355813     0.387241
    0.577905     0.381640     0.631048
    0.577905     0.618360     0.368952
    0.422095     0.671528     0.472599
    0.422095     0.328472     0.527401
    0.667443     0.514496     0.402947
    0.442002     0.355813     0.387241
    0.332557     0.585913     0.542170
    0.557998     0.490688     0.313521
    0.667443     0.485504     0.597053
    0.557998     0.509312     0.686479
    0.332557     0.414087     0.457830
    0.442002     0.644187     0.612759
    0.461986     0.524970     0.548678
    0.461986     0.475030     0.451322
    0.538014     0.524970     0.548678
    0.538014     0.475030     0.451322
    0.500000     0.564581     0.508191
    0.445523     0.532906     0.482014
    0.500000     0.529733     0.440258
    0.554477     0.467094     0.517986
    0.500000     0.435419     0.491809
    0.554477     0.532906     0.482014
    0.500000     0.470267     0.559742
    0.445523     0.467094     0.517986
EA131  19.222 19.596 18.965 90.00 90.00 90.00 Sym.group:    0
1.0000
   19.222236     0.000000     0.000000
    0.000000    19.596067     0.000000
    0.000000     0.000000    18.965445
   O  Cu
  12   24 
Direct
    0.339660     0.399900     0.462427
    0.314450     0.527693     0.469035
    0.398558     0.333387     0.460150
    0.349643     0.506148     0.562111
    0.500192     0.681867     0.493694
    0.430684     0.661262     0.445511
    0.677080     0.417976     0.410085
    0.454213     0.418450     0.594362
    0.683847     0.418260     0.513321
    0.641550     0.634774     0.415341
    0.653651     0.375957     0.463285
    0.707275     0.460279     0.460121
    0.346109     0.437519     0.435718
    0.333146     0.496063     0.496723
    0.344505     0.438489     0.493746
    0.334751     0.495094     0.438696
    0.436859     0.335037     0.432209
    0.408965     0.634215     0.554777
    0.531739     0.678456     0.384793
    0.590781     0.664438     0.488891
    0.367241     0.594560     0.451322
    0.569680     0.633793     0.364528
    0.404598     0.574822     0.576288
    0.538221     0.583350     0.627326
    0.469600     0.355336     0.516068
    0.590229     0.532377     0.635534
    0.508321     0.373452     0.575707
    0.584499     0.622960     0.590316
    0.641083     0.442378     0.462965
    0.572987     0.559078     0.573573
    0.481225     0.419540     0.531363
    0.695999     0.408547     0.461205
    0.593035     0.585003     0.628450
    0.454285     0.374014     0.564626
    0.426586     0.574518     0.469837
    0.624752     0.351009     0.495899
EA143  20.322 22.104 17.130 90.00 90.00 90.00 Sym.group:    0
1.0000
   20.321983     0.000000     0.000000
    0.000000    22.103708     0.000000
    0.000000     0.000000    17.129660
   O  Cu
  12   24 
Direct
    0.263061     0.573919     0.421108
    0.270049     0.484429     0.453509
    0.771881     0.490075     0.386854
    0.644311     0.564938     0.394917
    0.457788     0.507775     0.361990
    0.379606     0.357067     0.539584
    0.620006     0.363216     0.506247
    0.733173     0.458041     0.476131
    0.518750     0.334299     0.524419
    0.313342     0.413396     0.539671
    0.565968     0.700797     0.541193
    0.694671     0.479543     0.573575
    0.352155     0.519189     0.400135
    0.626598     0.580024     0.453496
    0.388255     0.595452     0.451624
    0.435256     0.537986     0.413816
    0.575255     0.506332     0.415374
    0.215686     0.568720     0.514163
    0.226947     0.566845     0.455402
    0.418922     0.355672     0.504810
    0.637627     0.389970     0.469978
    0.324706     0.457258     0.560958
    0.696497     0.447484     0.512425
    0.313003     0.510237     0.554222
    0.426807     0.370465     0.560825
    0.645512     0.404763     0.525993
    0.316821     0.442464     0.504943
    0.481611     0.345414     0.497978
    0.409913     0.646524     0.570160
    0.728230     0.608251     0.532375
    0.496251     0.553159     0.605402
    0.574662     0.594980     0.584225
    0.573738     0.523283     0.600965
    0.729084     0.531323     0.441793
    0.480878     0.653374     0.579986
    0.692978     0.563335     0.569755
EA113  19.087 20.187 20.145 90.00 90.00 90.00 Sym.group:    0
1.0000
   19.086505     0.000000     0.000000
    0.000000    20.186578     0.000000
    0.000000     0.000000    20.144813
   O  Cu
  12   24 
Direct
    0.455527     0.473134     0.601573
    0.335782     0.610242     0.524831
    0.273509     0.414994     0.520727
    0.431120     0.666767     0.517053
    0.270948     0.506674     0.526341
    0.432756     0.528943     0.413251
    0.720174     0.427411     0.597433
    0.728948     0.502014     0.625587
    0.741680     0.529908     0.557806
    0.732907     0.455306     0.529652
    0.628386     0.580065     0.403000
    0.499806     0.320335     0.470601
    0.394988     0.394837     0.521285
    0.432954     0.450159     0.559688
    0.572833     0.485327     0.560957
    0.432148     0.582362     0.475681
    0.363269     0.472334     0.477287
    0.282485     0.461704     0.529083
    0.460542     0.684514     0.547935
    0.267105     0.536013     0.561753
    0.271399     0.382373     0.552344
    0.300769     0.589789     0.560969
    0.530658     0.692268     0.540253
    0.430838     0.463061     0.408069
    0.535777     0.634755     0.417880
    0.572110     0.372440     0.408867
    0.492985     0.367626     0.411333
    0.612339     0.644270     0.443009
    0.551823     0.570551     0.377871
    0.578933     0.325148     0.468136
    0.681742     0.483717     0.569116
    0.572872     0.577890     0.446836
    0.539136     0.386969     0.468262
    0.750332     0.476665     0.580974
    0.585715     0.619057     0.396081
    0.534705     0.330377     0.428480
EA100  19.125 19.477 19.763 90.00 90.00 90.00 Sym.group:    0
1.0000
   19.125237     0.000000     0.000000
    0.000000    19.476847     0.000000
    0.000000     0.000000    19.763137
   O  Cu
  12   24 
Direct
    0.378491     0.581842     0.371264
    0.621509     0.581842     0.628736
    0.678130     0.418158     0.528772
    0.321870     0.418158     0.471228
    0.513443     0.665133     0.595916
    0.344480     0.443247     0.611583
    0.588429     0.334864     0.459577
    0.493658     0.556754     0.680121
    0.486557     0.665133     0.404084
    0.506342     0.556754     0.319879
    0.411571     0.334864     0.540423
    0.655520     0.443247     0.388417
    0.619029     0.422189     0.628791
    0.380971     0.422189     0.371209
    0.323398     0.577811     0.469338
    0.676602     0.577811     0.530662
    0.487252     0.333514     0.406555
    0.651156     0.558311     0.394455
    0.409941     0.666486     0.538412
    0.513951     0.441689     0.320102
    0.512748     0.333514     0.593445
    0.486049     0.441689     0.679898
    0.590059     0.666486     0.461588
    0.348844     0.558311     0.605545
    0.473191     0.537700     0.546504
    0.526809     0.537700     0.453496
    0.473170     0.462300     0.546514
    0.526830     0.462300     0.453486
    0.433258     0.499995     0.506511
    0.466450     0.554023     0.481888
    0.470664     0.500005     0.441561
    0.533544     0.445977     0.518099
    0.566742     0.499995     0.493489
    0.466456     0.445977     0.481901
    0.529336     0.500005     0.558439
    0.533550     0.554023     0.518112
EA119  19.276 19.784 19.821 90.00 90.00 90.00 Sym.group:    0
1.0000
   19.275747     0.000000     0.000000
    0.000000    19.784030     0.000000
    0.000000     0.000000    19.821099
   O  Cu
  12   24 
Direct
    0.532212     0.666774     0.520557
    0.324592     0.592257     0.492509
    0.461811     0.580205     0.328982
    0.498043     0.368290     0.380092
    0.621784     0.584143     0.437010
    0.626237     0.445200     0.401796
    0.452524     0.334224     0.581584
    0.314927     0.428081     0.495221
    0.588118     0.339617     0.552079
    0.563970     0.600969     0.606979
    0.535156     0.421482     0.649104
    0.451536     0.653380     0.546103
    0.593402     0.641877     0.510142
    0.302921     0.546379     0.476346
    0.435678     0.524881     0.309491
    0.404254     0.539628     0.442438
    0.398799     0.439183     0.468537
    0.507596     0.565774     0.423890
    0.672922     0.450527     0.433223
    0.353449     0.447160     0.597500
    0.414001     0.315145     0.479305
    0.664480     0.410647     0.511896
    0.375175     0.582352     0.586286
    0.461398     0.505559     0.660953
    0.637729     0.516893     0.595130
    0.536220     0.465092     0.524550
    0.487876     0.520199     0.532316
    0.542443     0.523296     0.495045
    0.434291     0.499894     0.499132
    0.470717     0.456579     0.532788
    0.503571     0.420922     0.488002
    0.672984     0.539289     0.465575
    0.500036     0.447171     0.428480
    0.517194     0.510792     0.428008
    0.604864     0.464833     0.548959
    0.537090     0.651307     0.569992
EA123  19.372 17.542 20.991 90.00 90.00 90.00 Sym.group:    0
1.0000
   19.372002     0.000000     0.000000
    0.000000    17.542209     0.000000
    0.000000     0.000000    20.991463
   O  Cu
  12   24 
Direct
    0.702264     0.408031     0.447793
    0.688978     0.526140     0.485235
    0.589429     0.533026     0.547063
    0.608186     0.366256     0.494196
    0.545854     0.687084     0.527772
    0.425083     0.688585     0.518155
    0.629279     0.635848     0.514177
    0.388204     0.628171     0.416574
    0.356838     0.476605     0.376140
    0.297800     0.603534     0.478253
    0.284431     0.396387     0.428527
    0.379925     0.320006     0.535200
    0.613775     0.483535     0.427637
    0.686675     0.480848     0.538200
    0.694744     0.409108     0.515458
    0.589754     0.374520     0.445993
    0.539212     0.455841     0.420935
    0.530005     0.454881     0.511245
    0.749854     0.406192     0.523391
    0.736593     0.414534     0.479532
    0.727163     0.498366     0.506107
    0.548821     0.603600     0.454124
    0.581367     0.651230     0.523725
    0.653281     0.609371     0.542351
    0.450767     0.696014     0.560141
    0.408485     0.655068     0.492443
    0.299446     0.513215     0.439645
    0.350560     0.561178     0.528407
    0.421389     0.521099     0.499574
    0.412806     0.578378     0.539902
    0.331171     0.480552     0.502283
    0.332452     0.407134     0.574137
    0.397341     0.361567     0.584750
    0.315036     0.365574     0.524587
    0.390298     0.398889     0.533216
    0.342732     0.349636     0.563132
EA76   18.733 18.531 19.561 90.00 90.00 90.00 Sym.group:    0
1.0000
   18.732875     0.000000     0.000000
    0.000000    18.530529     0.000000
    0.000000     0.000000    19.561339
   O  Cu
  12   24 
Direct
    0.696258     0.473704     0.495618
    0.587158     0.463493     0.635514
    0.344639     0.508804     0.547222
    0.559512     0.644989     0.413988
    0.335342     0.552323     0.457816
    0.353941     0.575580     0.520563
    0.326040     0.485546     0.484475
    0.511841     0.465009     0.371284
    0.447715     0.479747     0.383769
    0.363785     0.393620     0.432713
    0.557746     0.349042     0.394951
    0.455757     0.386628     0.592650
    0.507132     0.534676     0.641256
    0.527812     0.663043     0.503949
    0.581077     0.536285     0.629549
    0.593891     0.644543     0.476520
    0.493432     0.663489     0.441417
    0.513212     0.461884     0.647220
    0.385906     0.519257     0.496419
    0.537424     0.496234     0.595795
    0.534876     0.609555     0.464565
    0.321877     0.535023     0.504925
    0.550979     0.500210     0.655187
    0.547128     0.671557     0.456760
    0.471560     0.397726     0.444348
    0.360363     0.422573     0.495739
    0.627522     0.539881     0.424506
    0.590442     0.369695     0.450946
    0.485239     0.410786     0.516657
    0.499909     0.519565     0.437788
    0.679477     0.391908     0.491720
    0.683337     0.454008     0.415713
    0.511412     0.422333     0.458409
    0.452566     0.435857     0.469866
    0.481174     0.485791     0.583773
    0.522517     0.535637     0.566411
EA132  19.949 19.939 18.582 90.00 90.00 90.00 Sym.group:    0
1.0000
   19.948980     0.000000     0.000000
    0.000000    19.939485     0.000000
    0.000000     0.000000    18.581533
   O  Cu
  12   24 
Direct
    0.459041     0.641678     0.374943
    0.604742     0.604796     0.373222
    0.337427     0.591727     0.482112
    0.480709     0.715995     0.454247
    0.669624     0.641921     0.456295
    0.417845     0.537507     0.608365
    0.315582     0.496102     0.466744
    0.419561     0.329654     0.485085
    0.621834     0.351127     0.487895
    0.694609     0.441148     0.476293
    0.533227     0.314296     0.488726
    0.348892     0.389274     0.479301
    0.403398     0.645709     0.449671
    0.481431     0.663360     0.517617
    0.504915     0.585479     0.492823
    0.446113     0.619882     0.522065
    0.593198     0.626696     0.610208
    0.364417     0.528549     0.552744
    0.649986     0.618469     0.568097
    0.599189     0.569881     0.564334
    0.430964     0.502632     0.548110
    0.640727     0.594935     0.613051
    0.386364     0.493252     0.588521
    0.398117     0.559366     0.538993
    0.402546     0.529596     0.425180
    0.437004     0.415073     0.433373
    0.556612     0.399481     0.438817
    0.633378     0.496611     0.429878
    0.573516     0.341202     0.493859
    0.694402     0.489113     0.475446
    0.685632     0.411514     0.516412
    0.322952     0.410431     0.512584
    0.499096     0.302488     0.524184
    0.440642     0.310575     0.522344
    0.305065     0.465777     0.505862
    0.647241     0.364704     0.522601
EA60   19.772 18.804 19.957 90.00 90.00 90.00 Sym.group:    0
1.0000
   19.772251     0.000000     0.000000
    0.000000    18.804005     0.000000
    0.000000     0.000000    19.956947
   O  Cu
  12   24 
Direct
    0.512198     0.323204     0.458199
    0.419290     0.412003     0.386902
    0.375781     0.590405     0.566675
    0.380162     0.454201     0.626501
    0.510642     0.431594     0.682963
    0.422295     0.635917     0.563890
    0.676532     0.518671     0.579572
    0.653113     0.590507     0.567265
    0.668570     0.583582     0.500481
    0.691990     0.511746     0.512788
    0.582972     0.508960     0.363595
    0.467073     0.655921     0.577736
    0.449660     0.419542     0.666249
    0.356753     0.508340     0.594950
    0.438318     0.494068     0.358625
    0.442699     0.357863     0.418452
    0.563402     0.376436     0.589634
    0.384099     0.534512     0.457723
    0.369830     0.472973     0.478927
    0.461184     0.356233     0.561618
    0.397178     0.302376     0.561700
    0.306342     0.512455     0.439272
    0.502677     0.488232     0.520042
    0.479654     0.525006     0.356652
    0.602982     0.337948     0.466173
    0.429809     0.652527     0.488162
    0.538814     0.570167     0.366979
    0.493811     0.675291     0.514989
    0.523813     0.463798     0.353268
    0.613107     0.333105     0.533765
    0.629186     0.534039     0.534328
    0.525881     0.509066     0.402742
    0.465266     0.609448     0.529152
    0.689659     0.557868     0.542274
    0.533456     0.520106     0.343310
    0.441803     0.671890     0.534447
EA128  18.784 19.464 20.802 90.00 90.00 90.00 Sym.group:    0
1.0000
   18.783902     0.000000     0.000000
    0.000000    19.464432     0.000000
    0.000000     0.000000    20.801683
   O  Cu
  12   24 
Direct
    0.433276     0.510153     0.602184
    0.334031     0.589800     0.477138
    0.462642     0.635620     0.652076
    0.466197     0.379522     0.390499
    0.669671     0.475531     0.600052
    0.691479     0.534218     0.565389
    0.706791     0.492866     0.517111
    0.684984     0.434179     0.551774
    0.591204     0.421157     0.397385
    0.554183     0.677399     0.501708
    0.429515     0.669279     0.480991
    0.406198     0.360534     0.498635
    0.321134     0.409520     0.527771
    0.468316     0.446499     0.560505
    0.457584     0.544276     0.586376
    0.262305     0.468810     0.560354
    0.435963     0.417126     0.525836
    0.444430     0.402785     0.588121
    0.493809     0.435178     0.358319
    0.311133     0.543646     0.503823
    0.339507     0.554589     0.425534
    0.407194     0.556178     0.548528
    0.417473     0.490077     0.451654
    0.471034     0.590276     0.466445
    0.521310     0.506067     0.432352
    0.500198     0.330432     0.529044
    0.585914     0.488945     0.371874
    0.595607     0.651512     0.453740
    0.501940     0.351034     0.588594
    0.637451     0.490417     0.544958
    0.534495     0.465952     0.412110
    0.528173     0.623376     0.472733
    0.708265     0.481746     0.563956
    0.552588     0.444754     0.363084
    0.543031     0.682787     0.454749
    0.530977     0.443760     0.474595
