EA35   18.452 18.452 18.452 90.00 90.00 90.00 Sym.group:    0
1.0000
   18.452349     0.000000     0.000000
    0.000000    18.452349     0.000000
    0.000000     0.000000    18.452349
   O  Cu
  12   24 
Direct
    0.435211     0.500000     0.604831
    0.604831     0.435211     0.500000
    0.500000     0.604831     0.435211
    0.564789     0.500000     0.395169
    0.395169     0.435211     0.500000
    0.500000     0.604831     0.564789
    0.564789     0.500000     0.604831
    0.395169     0.564789     0.500000
    0.500000     0.395169     0.435211
    0.435211     0.500000     0.395169
    0.604831     0.564789     0.500000
    0.500000     0.395169     0.564789
    0.470692     0.500000     0.547421
    0.547421     0.470692     0.500000
    0.500000     0.547422     0.470692
    0.529308     0.500000     0.452579
    0.452579     0.470692     0.500000
    0.500000     0.547422     0.529308
    0.529308     0.500000     0.547421
    0.452579     0.529308     0.500000
    0.500000     0.452578     0.470692
    0.470692     0.500000     0.452579
    0.547421     0.529308     0.500000
    0.500000     0.452578     0.529308
    0.402662     0.500000     0.657496
    0.657497     0.402662     0.500000
    0.500000     0.657496     0.402663
    0.597338     0.500000     0.342504
    0.342503     0.402662     0.500000
    0.500000     0.657496     0.597337
    0.597338     0.500000     0.657496
    0.342503     0.597338     0.500000
    0.500000     0.342504     0.402663
    0.402662     0.500000     0.342504
    0.657497     0.597338     0.500000
    0.500000     0.342504     0.597337
