EA42    6.165  8.510 22.598 90.00 90.00 90.00 Sym.group:    0
1.0000
    6.165197     0.000000     0.000000
    0.000000     8.510023     0.000000
    0.000000     0.000000    22.598329
   O  Cu
  18   40 
Direct
    0.904530     0.560265     0.595484
    0.017577     0.188606     0.405902
    0.119984     0.137703     0.211089
    0.282063     0.758426     0.804357
    0.665435     0.365100     0.479754
    0.682274     0.136765     0.155646
    0.651486     0.098515     0.771513
    0.776696     0.532924     0.771964
    0.238936     0.302959     0.813874
    0.410542     0.785714     0.549239
    0.331963     0.557883     0.434460
    0.800658     0.780866     0.420207
    0.200078     0.829530     0.282197
    0.751592     0.666118     0.260808
    0.121848     0.433678     0.174585
    0.808727     0.027420     0.581810
    0.313606     0.265433     0.560292
    0.373472     0.969678     0.426521
    0.035789     0.640518     0.792855
    0.560548     0.499762     0.274452
    0.920562     0.557292     0.208451
    0.293068     0.037325     0.271104
    0.924874     0.436792     0.518099
    0.324292     0.399989     0.493886
    0.707595     0.223211     0.413478
    0.523362     0.638328     0.791458
    0.543348     0.239625     0.311131
    0.574137     0.835199     0.478507
    0.149987     0.668729     0.562143
    0.330275     0.902245     0.620510
    0.392603     0.164106     0.172466
    0.912226     0.276676     0.166307
    0.705143     0.063152     0.235952
    0.438993     0.654513     0.680882
    0.933837     0.957923     0.653878
    0.189711     0.860859     0.729130
    0.063957     0.566078     0.671452
    0.956632     0.360035     0.797347
    0.947106     0.080815     0.763745
    0.643581     0.667446     0.581803
    0.564766     0.149540     0.577541
    0.056271     0.151206     0.572182
    0.239709     0.352559     0.252653
    0.497295     0.791991     0.274627
    0.897759     0.856137     0.291220
    0.685570     0.567015     0.440143
    0.061130     0.656760     0.441127
    0.325207     0.190485     0.406187
    0.301482     0.408147     0.736809
    0.924715     0.131281     0.325681
    0.559453     0.978356     0.704709
    0.333698     0.454658     0.359240
    0.586656     0.975805     0.358862
    0.046064     0.943501     0.417416
    0.794954     0.750682     0.717918
    0.343196     0.115038     0.780187
    0.358103     0.405617     0.628436
    0.230338     0.146277     0.677144
EA41    8.282  8.282 20.057 90.00 90.00 90.00 Sym.group:    0
1.0000
    8.281653     0.000000     0.000000
    0.000000     8.281653     0.000000
    0.000000     0.000000    20.057129
   O  Cu
  18   40 
Direct
    0.136786     0.210755     0.747744
    0.364322     0.903860     0.653965
    0.032983     0.569026     0.687275
    0.330870     0.639355     0.408611
    0.038867     0.853649     0.410088
    0.637106     0.085840     0.349358
    0.666089     0.360299     0.590164
    0.950240     0.141357     0.592051
    0.538472     0.738113     0.564979
    0.971343     0.430779     0.314965
    0.392536     0.408011     0.260000
    0.277236     0.969628     0.247104
    0.455124     0.255634     0.434894
    0.013327     0.213584     0.415301
    0.619457     0.607063     0.747842
    0.729492     0.044563     0.746342
    0.868579     0.813529     0.241214
    0.979328     0.782300     0.586783
    0.120570     0.992120     0.566884
    0.541422     0.036017     0.694367
    0.611868     0.440862     0.417581
    0.871208     0.007304     0.432488
    0.184970     0.444669     0.290756
    0.461826     0.960480     0.301620
    0.385478     0.557003     0.584124
    0.236113     0.222959     0.427984
    0.934217     0.457761     0.416822
    0.756486     0.774129     0.574175
    0.304309     0.192247     0.248440
    0.434154     0.973784     0.559340
    0.064666     0.540238     0.585322
    0.065621     0.911075     0.253007
    0.486990     0.634859     0.335897
    0.554670     0.016629     0.442070
    0.822964     0.560406     0.715733
    0.706032     0.821701     0.751494
    0.779601     0.967415     0.297118
    0.780508     0.491160     0.523135
    0.530720     0.291812     0.521816
    0.365886     0.261205     0.758060
    0.749399     0.709500     0.420202
    0.649751     0.735374     0.244569
    0.247722     0.288566     0.576751
    0.004849     0.813260     0.692249
    0.463413     0.708387     0.692402
    0.215351     0.510696     0.477284
    0.249843     0.903702     0.448895
    0.000749     0.189278     0.307563
    0.542133     0.284417     0.312155
    0.939882     0.107834     0.738370
    0.742194     0.086380     0.552214
    0.001396     0.745771     0.491140
    0.466402     0.704393     0.477324
    0.237429     0.463369     0.687075
    0.224784     0.040974     0.699334
    0.989694     0.251559     0.511319
    0.763383     0.525001     0.314161
    0.509186     0.348357     0.660080
EA119   8.593  8.593 21.019 90.08 90.08 90.08 Sym.group:    0
1.0000
    8.593017     0.000000     0.000000
   -0.011983     8.593000     0.000000
   -0.029353    -0.029394    21.018959
   O  Cu
  18   40 
Direct
    0.000000     0.000000     0.513692
    0.500000     0.500000     0.464110
    0.000610     0.000610     0.004757
    0.500610     0.000610     0.004757
    0.000610     0.500610     0.004757
    0.500610     0.500610     0.004757
    0.250790     0.250800     0.107041
    0.750790     0.250800     0.107041
    0.250790     0.750800     0.107041
    0.750790     0.750800     0.107041
    0.000610     0.000610     0.209175
    0.500610     0.000610     0.209175
    0.000610     0.500610     0.209175
    0.500610     0.500610     0.209175
    0.250790     0.250800     0.311459
    0.750790     0.250800     0.311459
    0.250790     0.750800     0.311459
    0.750790     0.750800     0.311459
    0.267920     0.000000     0.494040
    0.732080     0.000000     0.494040
    0.000000     0.267920     0.494040
    0.000000     0.732080     0.494040
    0.330390     0.330390     0.482279
    0.669610     0.669610     0.482279
    0.669610     0.330390     0.482279
    0.330390     0.669610     0.482279
    0.125670     0.125670     0.055888
    0.625670     0.125670     0.055888
    0.375590     0.375590     0.055892
    0.875590     0.375590     0.055892
    0.125670     0.625670     0.055888
    0.625670     0.625670     0.055888
    0.375590     0.875590     0.055892
    0.875590     0.875590     0.055892
    0.375580     0.125690     0.158064
    0.875580     0.125690     0.158064
    0.125680     0.375590     0.158064
    0.625680     0.375590     0.158064
    0.375580     0.625690     0.158064
    0.875580     0.625690     0.158064
    0.125680     0.875590     0.158064
    0.625680     0.875590     0.158064
    0.125670     0.125670     0.260306
    0.625670     0.125670     0.260306
    0.375590     0.375590     0.260313
    0.875590     0.375590     0.260313
    0.125670     0.625670     0.260306
    0.625670     0.625670     0.260306
    0.375590     0.875590     0.260313
    0.875590     0.875590     0.260313
    0.375580     0.125690     0.362482
    0.875580     0.125690     0.362482
    0.125680     0.375590     0.362482
    0.625680     0.375590     0.362482
    0.375580     0.625690     0.362482
    0.875580     0.625690     0.362482
    0.125680     0.875590     0.362482
    0.625680     0.875590     0.362482
EA44   11.169 11.169 14.422 90.00 90.00 90.00 Sym.group:    0
1.0000
   11.169454     0.000000     0.000000
    0.000000    11.169454     0.000000
    0.000000     0.000000    14.422047
   O  Cu
  18   40 
Direct
    0.103565     0.250130     0.363774
    0.171609     0.675443     0.460355
    0.719745     0.227315     0.716603
    0.957506     0.554596     0.287689
    0.492763     0.895049     0.315701
    0.482183     0.581309     0.399530
    0.898245     0.147905     0.185913
    0.709599     0.350773     0.339943
    0.367177     0.972910     0.545332
    0.977942     0.982121     0.497062
    0.624493     0.094620     0.489057
    0.958719     0.392754     0.580725
    0.960104     0.038024     0.818218
    0.522559     0.560120     0.723848
    0.818898     0.857266     0.287543
    0.862353     0.773833     0.678436
    0.204378     0.190986     0.688166
    0.140284     0.621346     0.556539
    0.214418     0.460103     0.548112
    0.970462     0.577151     0.552867
    0.854850     0.008145     0.233392
    0.844254     0.447589     0.331934
    0.978467     0.218130     0.277527
    0.673623     0.229175     0.421581
    0.274574     0.080431     0.607033
    0.454646     0.164831     0.508677
    0.068235     0.599634     0.375013
    0.080022     0.107614     0.748133
    0.427787     0.488353     0.632369
    0.675724     0.147417     0.607248
    0.830110     0.312824     0.643237
    0.316207     0.600314     0.421778
    0.429091     0.947875     0.427176
    0.492640     0.739271     0.358747
    0.503168     0.900436     0.603729
    0.012859     0.343869     0.458498
    0.774479     0.468744     0.508973
    0.332898     0.295222     0.623649
    0.554207     0.709374     0.670692
    0.913209     0.858862     0.572633
    0.586512     0.592943     0.515594
    0.657417     0.884868     0.313089
    0.886380     0.703772     0.290354
    0.704560     0.864988     0.658259
    0.772180     0.665980     0.593104
    0.881906     0.921073     0.400039
    0.591820     0.456996     0.373556
    0.040729     0.115420     0.435243
    0.396236     0.386995     0.469559
    0.662021     0.496855     0.662345
    0.083422     0.286103     0.626413
    0.231934     0.237623     0.477251
    0.202684     0.412613     0.371095
    0.932185     0.087124     0.607275
    0.580777     0.349078     0.552467
    0.914463     0.906875     0.747843
    0.675804     0.918655     0.493127
    0.841443     0.130701     0.761983
EA88    8.593  8.593 21.019 90.08 90.08 90.08 Sym.group:    0
1.0000
    8.593017     0.000000     0.000000
   -0.011983     8.593000     0.000000
   -0.029353    -0.029394    21.018959
   O  Cu
  18   40 
Direct
    0.000000     0.700000     0.429088
    0.500000     0.000000     0.429088
    0.000610     0.000610     0.004757
    0.500610     0.000610     0.004757
    0.000610     0.500610     0.004757
    0.500610     0.500610     0.004757
    0.250790     0.250800     0.107041
    0.750790     0.250800     0.107041
    0.250790     0.750800     0.107041
    0.750790     0.750800     0.107041
    0.000610     0.000610     0.209175
    0.500610     0.000610     0.209175
    0.000610     0.500610     0.209175
    0.500610     0.500610     0.209175
    0.250790     0.250800     0.311459
    0.750790     0.250800     0.311459
    0.250790     0.750800     0.311459
    0.750790     0.750800     0.311459
    0.000000     0.000000     0.429088
    0.500000     0.300000     0.516973
    0.281100     0.500000     0.471105
    0.718900     0.500000     0.471105
    0.225440     0.225440     0.469467
    0.774560     0.774560     0.469467
    0.774560     0.225440     0.469467
    0.225440     0.774560     0.469467
    0.125670     0.125670     0.055888
    0.625670     0.125670     0.055888
    0.375590     0.375590     0.055892
    0.875590     0.375590     0.055892
    0.125670     0.625670     0.055888
    0.625670     0.625670     0.055888
    0.375590     0.875590     0.055892
    0.875590     0.875590     0.055892
    0.375580     0.125690     0.158064
    0.875580     0.125690     0.158064
    0.125680     0.375590     0.158064
    0.625680     0.375590     0.158064
    0.375580     0.625690     0.158064
    0.875580     0.625690     0.158064
    0.125680     0.875590     0.158064
    0.625680     0.875590     0.158064
    0.125670     0.125670     0.260306
    0.625670     0.125670     0.260306
    0.375590     0.375590     0.260313
    0.875590     0.375590     0.260313
    0.125670     0.625670     0.260306
    0.625670     0.625670     0.260306
    0.375590     0.875590     0.260313
    0.875590     0.875590     0.260313
    0.375580     0.125690     0.362482
    0.875580     0.125690     0.362482
    0.125680     0.375590     0.362482
    0.625680     0.375590     0.362482
    0.375580     0.625690     0.362482
    0.875580     0.625690     0.362482
    0.125680     0.875590     0.362482
    0.625680     0.875590     0.362482
EA24    8.593  8.593 21.019 90.08 90.08 90.08 Sym.group:    0
1.0000
    8.593017     0.000000     0.000000
   -0.011983     8.593000     0.000000
   -0.029353    -0.029394    21.018959
   O  Cu
  18   40 
Direct
    0.500000     0.500000     0.500551
    0.000000     0.000000     0.486567
    0.000610     0.000610     0.004757
    0.500610     0.000610     0.004757
    0.000610     0.500610     0.004757
    0.500610     0.500610     0.004757
    0.250790     0.250800     0.107041
    0.750790     0.250800     0.107041
    0.250790     0.750800     0.107041
    0.750790     0.750800     0.107041
    0.000610     0.000610     0.209175
    0.500610     0.000610     0.209175
    0.000610     0.500610     0.209175
    0.500610     0.500610     0.209175
    0.250790     0.250800     0.311459
    0.750790     0.250800     0.311459
    0.250790     0.750800     0.311459
    0.750790     0.750800     0.311459
    0.281100     0.500000     0.471105
    0.718900     0.500000     0.471105
    0.500000     0.281100     0.471105
    0.500000     0.718900     0.471105
    0.225440     0.225440     0.469467
    0.774560     0.774560     0.469467
    0.774560     0.225440     0.469467
    0.225440     0.774560     0.469467
    0.125670     0.125670     0.055888
    0.625670     0.125670     0.055888
    0.375590     0.375590     0.055892
    0.875590     0.375590     0.055892
    0.125670     0.625670     0.055888
    0.625670     0.625670     0.055888
    0.375590     0.875590     0.055892
    0.875590     0.875590     0.055892
    0.375580     0.125690     0.158064
    0.875580     0.125690     0.158064
    0.125680     0.375590     0.158064
    0.625680     0.375590     0.158064
    0.375580     0.625690     0.158064
    0.875580     0.625690     0.158064
    0.125680     0.875590     0.158064
    0.625680     0.875590     0.158064
    0.125670     0.125670     0.260306
    0.625670     0.125670     0.260306
    0.375590     0.375590     0.260313
    0.875590     0.375590     0.260313
    0.125670     0.625670     0.260306
    0.625670     0.625670     0.260306
    0.375590     0.875590     0.260313
    0.875590     0.875590     0.260313
    0.375580     0.125690     0.362482
    0.875580     0.125690     0.362482
    0.125680     0.375590     0.362482
    0.625680     0.375590     0.362482
    0.375580     0.625690     0.362482
    0.875580     0.625690     0.362482
    0.125680     0.875590     0.362482
    0.625680     0.875590     0.362482
EA63    8.593  8.593 21.019 90.08 90.08 90.08 Sym.group:    0
1.0000
    8.593017     0.000000     0.000000
   -0.011983     8.593000     0.000000
   -0.029353    -0.029394    21.018959
   O  Cu
  18   40 
Direct
    0.152227     0.484318     0.485466
    0.841964     0.040063     0.447666
    0.000610     0.000610     0.004757
    0.500610     0.000610     0.004757
    0.000610     0.500610     0.004757
    0.500610     0.500610     0.004757
    0.250790     0.250800     0.107041
    0.750790     0.250800     0.107041
    0.250790     0.750800     0.107041
    0.750790     0.750800     0.107041
    0.000610     0.000610     0.209175
    0.500610     0.000610     0.209175
    0.000610     0.500610     0.209175
    0.500610     0.500610     0.209175
    0.250790     0.250800     0.311459
    0.750790     0.250800     0.311459
    0.250790     0.750800     0.311459
    0.750790     0.750800     0.311459
    0.202657     0.716898     0.490776
    0.101797     0.251738     0.490776
    0.841964     0.394483     0.446764
    0.487544     0.040063     0.446764
    0.487544     0.685643     0.446764
    0.841964     0.685643     0.446764
    0.508634     0.373393     0.477474
    0.196384     0.040063     0.446764
    0.125670     0.125670     0.055888
    0.625670     0.125670     0.055888
    0.375590     0.375590     0.055892
    0.875590     0.375590     0.055892
    0.125670     0.625670     0.055888
    0.625670     0.625670     0.055888
    0.375590     0.875590     0.055892
    0.875590     0.875590     0.055892
    0.375580     0.125690     0.158064
    0.875580     0.125690     0.158064
    0.125680     0.375590     0.158064
    0.625680     0.375590     0.158064
    0.375580     0.625690     0.158064
    0.875580     0.625690     0.158064
    0.125680     0.875590     0.158064
    0.625680     0.875590     0.158064
    0.125670     0.125670     0.260306
    0.625670     0.125670     0.260306
    0.375590     0.375590     0.260313
    0.875590     0.375590     0.260313
    0.125670     0.625670     0.260306
    0.625670     0.625670     0.260306
    0.375590     0.875590     0.260313
    0.875590     0.875590     0.260313
    0.375580     0.125690     0.362482
    0.875580     0.125690     0.362482
    0.125680     0.375590     0.362482
    0.625680     0.375590     0.362482
    0.375580     0.625690     0.362482
    0.875580     0.625690     0.362482
    0.125680     0.875590     0.362482
    0.625680     0.875590     0.362482
EA43    6.029 11.504 19.086 90.00 90.00 90.00 Sym.group:    0
1.0000
    6.029451     0.000000     0.000000
    0.000000    11.503570     0.000000
    0.000000     0.000000    19.086053
   O  Cu
  18   40 
Direct
    0.410150     0.203986     0.487521
    0.965969     0.778707     0.272514
    0.933095     0.216358     0.772006
    0.198498     0.419425     0.640563
    0.505920     0.175317     0.633369
    0.875185     0.845135     0.332689
    0.874121     0.599235     0.426404
    0.404188     0.976448     0.354458
    0.122837     0.153925     0.747687
    0.502032     0.668147     0.322338
    0.784439     0.439480     0.205998
    0.768203     0.123807     0.284232
    0.439099     0.940827     0.745913
    0.546362     0.609394     0.734488
    0.132953     0.657365     0.546555
    0.382591     0.887021     0.549829
    0.747536     0.341144     0.394881
    0.376931     0.441707     0.588647
    0.026641     0.785924     0.713527
    0.744313     0.937102     0.746930
    0.134698     0.976539     0.754070
    0.850737     0.602847     0.749895
    0.088337     0.444006     0.208438
    0.464397     0.107967     0.285788
    0.288343     0.299663     0.277288
    0.079478     0.978262     0.369020
    0.542480     0.831337     0.336141
    0.637877     0.509213     0.636463
    0.946008     0.970520     0.638085
    0.943596     0.350618     0.596062
    0.803774     0.143086     0.578712
    0.867741     0.784777     0.434452
    0.559274     0.594643     0.417865
    0.179697     0.570960     0.430811
    0.244177     0.613446     0.747749
    0.327340     0.503603     0.314075
    0.478274     0.440838     0.200515
    0.434697     0.353437     0.407639
    0.746292     0.391820     0.299302
    0.877970     0.007611     0.480295
    0.438476     0.646002     0.541353
    0.785237     0.448155     0.488012
    0.233493     0.041230     0.542958
    0.081862     0.219251     0.493192
    0.060308     0.360005     0.392313
    0.816004     0.650252     0.540621
    0.687526     0.857525     0.549335
    0.219907     0.710534     0.298721
    0.708801     0.200191     0.705232
    0.178828     0.173295     0.642792
    0.847305     0.160566     0.385107
    0.395988     0.905875     0.650438
    0.040358     0.583921     0.641583
    0.660050     0.729582     0.658324
    0.076717     0.836934     0.543994
    0.478930     0.077531     0.429129
    0.070083     0.125815     0.273320
    0.559697     0.308698     0.560363
EA69    8.593  8.593 21.019 90.08 90.08 90.08 Sym.group:    0
1.0000
    8.593017     0.000000     0.000000
   -0.011983     8.593000     0.000000
   -0.029353    -0.029394    21.018959
   O  Cu
  18   40 
Direct
    0.000000     0.000000     0.403632
    0.500000     0.500000     0.403632
    0.000610     0.000610     0.004757
    0.500610     0.000610     0.004757
    0.000610     0.500610     0.004757
    0.500610     0.500610     0.004757
    0.250790     0.250800     0.107041
    0.750790     0.250800     0.107041
    0.250790     0.750800     0.107041
    0.750790     0.750800     0.107041
    0.000610     0.000610     0.209175
    0.500610     0.000610     0.209175
    0.000610     0.500610     0.209175
    0.500610     0.500610     0.209175
    0.250790     0.250800     0.311459
    0.750790     0.250800     0.311459
    0.250790     0.750800     0.311459
    0.750790     0.750800     0.311459
    0.418020     0.675760     0.505905
    0.581980     0.324240     0.505905
    0.324240     0.418020     0.505905
    0.675760     0.581980     0.505905
    0.081980     0.175760     0.505905
    0.918020     0.824240     0.505905
    0.175760     0.918020     0.505905
    0.824240     0.081980     0.505905
    0.125670     0.125670     0.055888
    0.625670     0.125670     0.055888
    0.375590     0.375590     0.055892
    0.875590     0.375590     0.055892
    0.125670     0.625670     0.055888
    0.625670     0.625670     0.055888
    0.375590     0.875590     0.055892
    0.875590     0.875590     0.055892
    0.375580     0.125690     0.158064
    0.875580     0.125690     0.158064
    0.125680     0.375590     0.158064
    0.625680     0.375590     0.158064
    0.375580     0.625690     0.158064
    0.875580     0.625690     0.158064
    0.125680     0.875590     0.158064
    0.625680     0.875590     0.158064
    0.125670     0.125670     0.260306
    0.625670     0.125670     0.260306
    0.375590     0.375590     0.260313
    0.875590     0.375590     0.260313
    0.125670     0.625670     0.260306
    0.625670     0.625670     0.260306
    0.375590     0.875590     0.260313
    0.875590     0.875590     0.260313
    0.375580     0.125690     0.362482
    0.875580     0.125690     0.362482
    0.125680     0.375590     0.362482
    0.625680     0.375590     0.362482
    0.375580     0.625690     0.362482
    0.875580     0.625690     0.362482
    0.125680     0.875590     0.362482
    0.625680     0.875590     0.362482
EA84    8.593  8.593 21.019 90.08 90.08 90.08 Sym.group:    0
1.0000
    8.593017     0.000000     0.000000
   -0.011983     8.593000     0.000000
   -0.029353    -0.029394    21.018959
   O  Cu
  18   40 
Direct
    0.000000     0.000000     0.468261
    0.046525     0.892484     0.443634
    0.000610     0.000610     0.004757
    0.500610     0.000610     0.004757
    0.000610     0.500610     0.004757
    0.500610     0.500610     0.004757
    0.250790     0.250800     0.107041
    0.750790     0.250800     0.107041
    0.250790     0.750800     0.107041
    0.750790     0.750800     0.107041
    0.000610     0.000610     0.209175
    0.500610     0.000610     0.209175
    0.000610     0.500610     0.209175
    0.500610     0.500610     0.209175
    0.250790     0.250800     0.311459
    0.750790     0.250800     0.311459
    0.250790     0.750800     0.311459
    0.750790     0.750800     0.311459
    0.356648     0.958353     0.466318
    0.365383     0.422308     0.436755
    0.967237     0.278645     0.453665
    0.671082     0.021291     0.461060
    0.657911     0.654177     0.477479
    0.002960     0.663735     0.471283
    0.241928     0.723870     0.474690
    0.690325     0.385137     0.519261
    0.125670     0.125670     0.055888
    0.625670     0.125670     0.055888
    0.375590     0.375590     0.055892
    0.875590     0.375590     0.055892
    0.125670     0.625670     0.055888
    0.625670     0.625670     0.055888
    0.375590     0.875590     0.055892
    0.875590     0.875590     0.055892
    0.375580     0.125690     0.158064
    0.875580     0.125690     0.158064
    0.125680     0.375590     0.158064
    0.625680     0.375590     0.158064
    0.375580     0.625690     0.158064
    0.875580     0.625690     0.158064
    0.125680     0.875590     0.158064
    0.625680     0.875590     0.158064
    0.125670     0.125670     0.260306
    0.625670     0.125670     0.260306
    0.375590     0.375590     0.260313
    0.875590     0.375590     0.260313
    0.125670     0.625670     0.260306
    0.625670     0.625670     0.260306
    0.375590     0.875590     0.260313
    0.875590     0.875590     0.260313
    0.375580     0.125690     0.362482
    0.875580     0.125690     0.362482
    0.125680     0.375590     0.362482
    0.625680     0.375590     0.362482
    0.375580     0.625690     0.362482
    0.875580     0.625690     0.362482
    0.125680     0.875590     0.362482
    0.625680     0.875590     0.362482
EA35    8.593  8.593 21.019 90.08 90.08 90.08 Sym.group:    0
1.0000
    8.593017     0.000000     0.000000
   -0.011983     8.593000     0.000000
   -0.029353    -0.029394    21.018959
   O  Cu
  18   40 
Direct
    0.500000     0.000000     0.514584
    0.000000     0.500000     0.514584
    0.000610     0.000610     0.004757
    0.500610     0.000610     0.004757
    0.000610     0.500610     0.004757
    0.500610     0.500610     0.004757
    0.250790     0.250800     0.107041
    0.750790     0.250800     0.107041
    0.250790     0.750800     0.107041
    0.750790     0.750800     0.107041
    0.000610     0.000610     0.209175
    0.500610     0.000610     0.209175
    0.000610     0.500610     0.209175
    0.500610     0.500610     0.209175
    0.250790     0.250800     0.311459
    0.750790     0.250800     0.311459
    0.250790     0.750800     0.311459
    0.750790     0.750800     0.311459
    0.637400     0.637400     0.446282
    0.362600     0.362600     0.446282
    0.362600     0.637400     0.446282
    0.637400     0.362600     0.446282
    0.149430     0.500000     0.479356
    0.850570     0.500000     0.479356
    0.500000     0.149430     0.479356
    0.500000     0.850570     0.479356
    0.125670     0.125670     0.055888
    0.625670     0.125670     0.055888
    0.375590     0.375590     0.055892
    0.875590     0.375590     0.055892
    0.125670     0.625670     0.055888
    0.625670     0.625670     0.055888
    0.375590     0.875590     0.055892
    0.875590     0.875590     0.055892
    0.375580     0.125690     0.158064
    0.875580     0.125690     0.158064
    0.125680     0.375590     0.158064
    0.625680     0.375590     0.158064
    0.375580     0.625690     0.158064
    0.875580     0.625690     0.158064
    0.125680     0.875590     0.158064
    0.625680     0.875590     0.158064
    0.125670     0.125670     0.260306
    0.625670     0.125670     0.260306
    0.375590     0.375590     0.260313
    0.875590     0.375590     0.260313
    0.125670     0.625670     0.260306
    0.625670     0.625670     0.260306
    0.375590     0.875590     0.260313
    0.875590     0.875590     0.260313
    0.375580     0.125690     0.362482
    0.875580     0.125690     0.362482
    0.125680     0.375590     0.362482
    0.625680     0.375590     0.362482
    0.375580     0.625690     0.362482
    0.875580     0.625690     0.362482
    0.125680     0.875590     0.362482
    0.625680     0.875590     0.362482
EA112   8.593  8.593 21.019 90.08 90.08 90.08 Sym.group:    0
1.0000
    8.593017     0.000000     0.000000
   -0.011983     8.593000     0.000000
   -0.029353    -0.029394    21.018959
   O  Cu
  18   40 
Direct
    0.554930     0.167861     0.388490
    0.979148     0.721777     0.484061
    0.000610     0.000610     0.004757
    0.500610     0.000610     0.004757
    0.000610     0.500610     0.004757
    0.500610     0.500610     0.004757
    0.250790     0.250800     0.107041
    0.750790     0.250800     0.107041
    0.250790     0.750800     0.107041
    0.750790     0.750800     0.107041
    0.000610     0.000610     0.209175
    0.500610     0.000610     0.209175
    0.000610     0.500610     0.209175
    0.500610     0.500610     0.209175
    0.250790     0.250800     0.311459
    0.750790     0.250800     0.311459
    0.250790     0.750800     0.311459
    0.750790     0.750800     0.311459
    0.195574     0.506632     0.427853
    0.073938     0.212567     0.482910
    0.336030     0.167861     0.501772
    0.773830     0.167861     0.501772
    0.554930     0.948961     0.501772
    0.554930     0.386761     0.501772
    0.829490     0.442421     0.500134
    0.829490     0.893301     0.500134
    0.125670     0.125670     0.055888
    0.625670     0.125670     0.055888
    0.375590     0.375590     0.055892
    0.875590     0.375590     0.055892
    0.125670     0.625670     0.055888
    0.625670     0.625670     0.055888
    0.375590     0.875590     0.055892
    0.875590     0.875590     0.055892
    0.375580     0.125690     0.158064
    0.875580     0.125690     0.158064
    0.125680     0.375590     0.158064
    0.625680     0.375590     0.158064
    0.375580     0.625690     0.158064
    0.875580     0.625690     0.158064
    0.125680     0.875590     0.158064
    0.625680     0.875590     0.158064
    0.125670     0.125670     0.260306
    0.625670     0.125670     0.260306
    0.375590     0.375590     0.260313
    0.875590     0.375590     0.260313
    0.125670     0.625670     0.260306
    0.625670     0.625670     0.260306
    0.375590     0.875590     0.260313
    0.875590     0.875590     0.260313
    0.375580     0.125690     0.362482
    0.875580     0.125690     0.362482
    0.125680     0.375590     0.362482
    0.625680     0.375590     0.362482
    0.375580     0.625690     0.362482
    0.875580     0.625690     0.362482
    0.125680     0.875590     0.362482
    0.625680     0.875590     0.362482
EA109   8.593  8.593 21.019 90.08 90.08 90.08 Sym.group:    0
1.0000
    8.593017     0.000000     0.000000
   -0.011983     8.593000     0.000000
   -0.029353    -0.029394    21.018959
   O  Cu
  18   40 
Direct
    0.773025     0.198431     0.417912
    0.182733     0.492558     0.413559
    0.000610     0.000610     0.004757
    0.500610     0.000610     0.004757
    0.000610     0.500610     0.004757
    0.500610     0.500610     0.004757
    0.250790     0.250800     0.107041
    0.750790     0.250800     0.107041
    0.250790     0.750800     0.107041
    0.750790     0.750800     0.107041
    0.000610     0.000610     0.209175
    0.500610     0.000610     0.209175
    0.000610     0.500610     0.209175
    0.500610     0.500610     0.209175
    0.250790     0.250800     0.311459
    0.750790     0.250800     0.311459
    0.250790     0.750800     0.311459
    0.750790     0.750800     0.311459
    0.883878     0.408404     0.401666
    0.647927     0.166431     0.501462
    0.343083     0.177476     0.457576
    0.944034     0.028732     0.442095
    0.124106     0.113132     0.517336
    0.233163     0.725138     0.418869
    0.518050     0.693883     0.517585
    0.872470     0.693883     0.517585
    0.125670     0.125670     0.055888
    0.625670     0.125670     0.055888
    0.375590     0.375590     0.055892
    0.875590     0.375590     0.055892
    0.125670     0.625670     0.055888
    0.625670     0.625670     0.055888
    0.375590     0.875590     0.055892
    0.875590     0.875590     0.055892
    0.375580     0.125690     0.158064
    0.875580     0.125690     0.158064
    0.125680     0.375590     0.158064
    0.625680     0.375590     0.158064
    0.375580     0.625690     0.158064
    0.875580     0.625690     0.158064
    0.125680     0.875590     0.158064
    0.625680     0.875590     0.158064
    0.125670     0.125670     0.260306
    0.625670     0.125670     0.260306
    0.375590     0.375590     0.260313
    0.875590     0.375590     0.260313
    0.125670     0.625670     0.260306
    0.625670     0.625670     0.260306
    0.375590     0.875590     0.260313
    0.875590     0.875590     0.260313
    0.375580     0.125690     0.362482
    0.875580     0.125690     0.362482
    0.125680     0.375590     0.362482
    0.625680     0.375590     0.362482
    0.375580     0.625690     0.362482
    0.875580     0.625690     0.362482
    0.125680     0.875590     0.362482
    0.625680     0.875590     0.362482
EA36    8.593  8.593 21.019 90.08 90.08 90.08 Sym.group:    0
1.0000
    8.593017     0.000000     0.000000
   -0.011983     8.593000     0.000000
   -0.029353    -0.029394    21.018959
   O  Cu
  18   40 
Direct
    0.000000     0.000000     0.468261
    0.000000     1.000000     0.403853
    0.000610     0.000610     0.004757
    0.500610     0.000610     0.004757
    0.000610     0.500610     0.004757
    0.500610     0.500610     0.004757
    0.250790     0.250800     0.107041
    0.750790     0.250800     0.107041
    0.250790     0.750800     0.107041
    0.750790     0.750800     0.107041
    0.000610     0.000610     0.209175
    0.500610     0.000610     0.209175
    0.000610     0.500610     0.209175
    0.500610     0.500610     0.209175
    0.250790     0.250800     0.311459
    0.750790     0.250800     0.311459
    0.250790     0.750800     0.311459
    0.750790     0.750800     0.311459
    0.354420     0.000000     0.467359
    0.354420     0.354420     0.467359
    0.000000     0.354420     0.467359
    0.645580     0.000000     0.467359
    0.645580     0.645580     0.467359
    0.000000     0.645580     0.467359
    0.333330     0.666670     0.498069
    0.666670     0.333330     0.498069
    0.125670     0.125670     0.055888
    0.625670     0.125670     0.055888
    0.375590     0.375590     0.055892
    0.875590     0.375590     0.055892
    0.125670     0.625670     0.055888
    0.625670     0.625670     0.055888
    0.375590     0.875590     0.055892
    0.875590     0.875590     0.055892
    0.375580     0.125690     0.158064
    0.875580     0.125690     0.158064
    0.125680     0.375590     0.158064
    0.625680     0.375590     0.158064
    0.375580     0.625690     0.158064
    0.875580     0.625690     0.158064
    0.125680     0.875590     0.158064
    0.625680     0.875590     0.158064
    0.125670     0.125670     0.260306
    0.625670     0.125670     0.260306
    0.375590     0.375590     0.260313
    0.875590     0.375590     0.260313
    0.125670     0.625670     0.260306
    0.625670     0.625670     0.260306
    0.375590     0.875590     0.260313
    0.875590     0.875590     0.260313
    0.375580     0.125690     0.362482
    0.875580     0.125690     0.362482
    0.125680     0.375590     0.362482
    0.625680     0.375590     0.362482
    0.375580     0.625690     0.362482
    0.875580     0.625690     0.362482
    0.125680     0.875590     0.362482
    0.625680     0.875590     0.362482
EA57    8.593  8.593 21.019 90.08 90.08 90.08 Sym.group:    0
1.0000
    8.593017     0.000000     0.000000
   -0.011983     8.593000     0.000000
   -0.029353    -0.029394    21.018959
   O  Cu
  18   40 
Direct
    0.858067     0.446737     0.438019
    0.549402     0.972335     0.412896
    0.000610     0.000610     0.004757
    0.500610     0.000610     0.004757
    0.000610     0.500610     0.004757
    0.500610     0.500610     0.004757
    0.250790     0.250800     0.107041
    0.750790     0.250800     0.107041
    0.250790     0.750800     0.107041
    0.750790     0.750800     0.107041
    0.000610     0.000610     0.209175
    0.500610     0.000610     0.209175
    0.000610     0.500610     0.209175
    0.500610     0.500610     0.209175
    0.250790     0.250800     0.311459
    0.750790     0.250800     0.311459
    0.250790     0.750800     0.311459
    0.750790     0.750800     0.311459
    0.133558     0.295456     0.435821
    0.164782     0.658120     0.389886
    0.548085     0.481342     0.446165
    0.300687     0.730350     0.466164
    0.424304     0.940335     0.496447
    0.119460     0.951380     0.452560
    0.720411     0.802636     0.437079
    0.900483     0.887036     0.512321
    0.125670     0.125670     0.055888
    0.625670     0.125670     0.055888
    0.375590     0.375590     0.055892
    0.875590     0.375590     0.055892
    0.125670     0.625670     0.055888
    0.625670     0.625670     0.055888
    0.375590     0.875590     0.055892
    0.875590     0.875590     0.055892
    0.375580     0.125690     0.158064
    0.875580     0.125690     0.158064
    0.125680     0.375590     0.158064
    0.625680     0.375590     0.158064
    0.375580     0.625690     0.158064
    0.875580     0.625690     0.158064
    0.125680     0.875590     0.158064
    0.625680     0.875590     0.158064
    0.125670     0.125670     0.260306
    0.625670     0.125670     0.260306
    0.375590     0.375590     0.260313
    0.875590     0.375590     0.260313
    0.125670     0.625670     0.260306
    0.625670     0.625670     0.260306
    0.375590     0.875590     0.260313
    0.875590     0.875590     0.260313
    0.375580     0.125690     0.362482
    0.875580     0.125690     0.362482
    0.125680     0.375590     0.362482
    0.625680     0.375590     0.362482
    0.375580     0.625690     0.362482
    0.875580     0.625690     0.362482
    0.125680     0.875590     0.362482
    0.625680     0.875590     0.362482
EA5     8.593  8.593 21.019 90.08 90.08 90.08 Sym.group:    0
1.0000
    8.593017     0.000000     0.000000
   -0.011983     8.593000     0.000000
   -0.029353    -0.029394    21.018959
   O  Cu
  18   40 
Direct
    0.500000     1.000000     0.425299
    0.000000     0.500000     0.425299
    0.000610     0.000610     0.004757
    0.500610     0.000610     0.004757
    0.000610     0.500610     0.004757
    0.500610     0.500610     0.004757
    0.250790     0.250800     0.107041
    0.750790     0.250800     0.107041
    0.250790     0.750800     0.107041
    0.750790     0.750800     0.107041
    0.000610     0.000610     0.209175
    0.500610     0.000610     0.209175
    0.000610     0.500610     0.209175
    0.500610     0.500610     0.209175
    0.250790     0.250800     0.311459
    0.750790     0.250800     0.311459
    0.250790     0.750800     0.311459
    0.750790     0.750800     0.311459
    0.741680     0.091670     0.478065
    0.258320     0.908330     0.478065
    0.908330     0.741680     0.478065
    0.091670     0.258320     0.478065
    0.758320     0.591670     0.478065
    0.241680     0.408330     0.478065
    0.591670     0.241680     0.478065
    0.408330     0.758320     0.478065
    0.125670     0.125670     0.055888
    0.625670     0.125670     0.055888
    0.375590     0.375590     0.055892
    0.875590     0.375590     0.055892
    0.125670     0.625670     0.055888
    0.625670     0.625670     0.055888
    0.375590     0.875590     0.055892
    0.875590     0.875590     0.055892
    0.375580     0.125690     0.158064
    0.875580     0.125690     0.158064
    0.125680     0.375590     0.158064
    0.625680     0.375590     0.158064
    0.375580     0.625690     0.158064
    0.875580     0.625690     0.158064
    0.125680     0.875590     0.158064
    0.625680     0.875590     0.158064
    0.125670     0.125670     0.260306
    0.625670     0.125670     0.260306
    0.375590     0.375590     0.260313
    0.875590     0.375590     0.260313
    0.125670     0.625670     0.260306
    0.625670     0.625670     0.260306
    0.375590     0.875590     0.260313
    0.875590     0.875590     0.260313
    0.375580     0.125690     0.362482
    0.875580     0.125690     0.362482
    0.125680     0.375590     0.362482
    0.625680     0.375590     0.362482
    0.375580     0.625690     0.362482
    0.875580     0.625690     0.362482
    0.125680     0.875590     0.362482
    0.625680     0.875590     0.362482
EA134   8.593  8.593 21.019 90.08 90.08 90.08 Sym.group:    0
1.0000
    8.593017     0.000000     0.000000
   -0.011983     8.593000     0.000000
   -0.029353    -0.029394    21.018959
   O  Cu
  18   40 
Direct
    0.300000     0.900000     0.429088
    0.000000     0.600000     0.429088
    0.000610     0.000610     0.004757
    0.500610     0.000610     0.004757
    0.000610     0.500610     0.004757
    0.500610     0.500610     0.004757
    0.250790     0.250800     0.107041
    0.750790     0.250800     0.107041
    0.250790     0.750800     0.107041
    0.750790     0.750800     0.107041
    0.000610     0.000610     0.209175
    0.500610     0.000610     0.209175
    0.000610     0.500610     0.209175
    0.500610     0.500610     0.209175
    0.250790     0.250800     0.311459
    0.750790     0.250800     0.311459
    0.250790     0.750800     0.311459
    0.750790     0.750800     0.311459
    0.994817     0.875576     0.461620
    0.200000     0.300000     0.429088
    0.500000     0.700000     0.429088
    0.524165     0.016867     0.439691
    0.524165     0.291667     0.439691
    0.927827     0.125556     0.435189
    0.744797     0.442566     0.435189
    0.762237     0.926006     0.466930
    0.125670     0.125670     0.055888
    0.625670     0.125670     0.055888
    0.375590     0.375590     0.055892
    0.875590     0.375590     0.055892
    0.125670     0.625670     0.055888
    0.625670     0.625670     0.055888
    0.375590     0.875590     0.055892
    0.875590     0.875590     0.055892
    0.375580     0.125690     0.158064
    0.875580     0.125690     0.158064
    0.125680     0.375590     0.158064
    0.625680     0.375590     0.158064
    0.375580     0.625690     0.158064
    0.875580     0.625690     0.158064
    0.125680     0.875590     0.158064
    0.625680     0.875590     0.158064
    0.125670     0.125670     0.260306
    0.625670     0.125670     0.260306
    0.375590     0.375590     0.260313
    0.875590     0.375590     0.260313
    0.125670     0.625670     0.260306
    0.625670     0.625670     0.260306
    0.375590     0.875590     0.260313
    0.875590     0.875590     0.260313
    0.375580     0.125690     0.362482
    0.875580     0.125690     0.362482
    0.125680     0.375590     0.362482
    0.625680     0.375590     0.362482
    0.375580     0.625690     0.362482
    0.875580     0.625690     0.362482
    0.125680     0.875590     0.362482
    0.625680     0.875590     0.362482
EA8     8.593  8.593 21.019 90.08 90.08 90.08 Sym.group:    0
1.0000
    8.593017     0.000000     0.000000
   -0.011983     8.593000     0.000000
   -0.029353    -0.029394    21.018959
   O  Cu
  18   40 
Direct
    0.000000     0.500000     0.403635
    0.500000     0.500000     0.403635
    0.000610     0.000610     0.004757
    0.500610     0.000610     0.004757
    0.000610     0.500610     0.004757
    0.500610     0.500610     0.004757
    0.250790     0.250800     0.107041
    0.750790     0.250800     0.107041
    0.250790     0.750800     0.107041
    0.750790     0.750800     0.107041
    0.000610     0.000610     0.209175
    0.500610     0.000610     0.209175
    0.000610     0.500610     0.209175
    0.500610     0.500610     0.209175
    0.250790     0.250800     0.311459
    0.750790     0.250800     0.311459
    0.250790     0.750800     0.311459
    0.750790     0.750800     0.311459
    0.564510     0.783490     0.454009
    0.435490     0.216510     0.454009
    0.935490     0.783490     0.454009
    0.064510     0.216510     0.454009
    0.146180     0.762880     0.464177
    0.853820     0.237120     0.464177
    0.353820     0.762880     0.464177
    0.646180     0.237120     0.464177
    0.125670     0.125670     0.055888
    0.625670     0.125670     0.055888
    0.375590     0.375590     0.055892
    0.875590     0.375590     0.055892
    0.125670     0.625670     0.055888
    0.625670     0.625670     0.055888
    0.375590     0.875590     0.055892
    0.875590     0.875590     0.055892
    0.375580     0.125690     0.158064
    0.875580     0.125690     0.158064
    0.125680     0.375590     0.158064
    0.625680     0.375590     0.158064
    0.375580     0.625690     0.158064
    0.875580     0.625690     0.158064
    0.125680     0.875590     0.158064
    0.625680     0.875590     0.158064
    0.125670     0.125670     0.260306
    0.625670     0.125670     0.260306
    0.375590     0.375590     0.260313
    0.875590     0.375590     0.260313
    0.125670     0.625670     0.260306
    0.625670     0.625670     0.260306
    0.375590     0.875590     0.260313
    0.875590     0.875590     0.260313
    0.375580     0.125690     0.362482
    0.875580     0.125690     0.362482
    0.125680     0.375590     0.362482
    0.625680     0.375590     0.362482
    0.375580     0.625690     0.362482
    0.875580     0.625690     0.362482
    0.125680     0.875590     0.362482
    0.625680     0.875590     0.362482
EA86    8.593  8.593 21.019 90.08 90.08 90.08 Sym.group:    0
1.0000
    8.593017     0.000000     0.000000
   -0.011983     8.593000     0.000000
   -0.029353    -0.029394    21.018959
   O  Cu
  18   40 
Direct
    0.500000     0.100000     0.472970
    0.300000     0.600000     0.429088
    0.000610     0.000610     0.004757
    0.500610     0.000610     0.004757
    0.000610     0.500610     0.004757
    0.500610     0.500610     0.004757
    0.250790     0.250800     0.107041
    0.750790     0.250800     0.107041
    0.250790     0.750800     0.107041
    0.750790     0.750800     0.107041
    0.000610     0.000610     0.209175
    0.500610     0.000610     0.209175
    0.000610     0.500610     0.209175
    0.500610     0.500610     0.209175
    0.250790     0.250800     0.311459
    0.750790     0.250800     0.311459
    0.250790     0.750800     0.311459
    0.750790     0.750800     0.311459
    0.500000     0.000000     0.425299
    0.000000     0.500000     0.425299
    0.500000     0.700000     0.452030
    0.700000     0.400000     0.429088
    0.741680     0.091670     0.478065
    0.258320     0.908330     0.478065
    0.908330     0.741680     0.478065
    0.091670     0.258320     0.478065
    0.125670     0.125670     0.055888
    0.625670     0.125670     0.055888
    0.375590     0.375590     0.055892
    0.875590     0.375590     0.055892
    0.125670     0.625670     0.055888
    0.625670     0.625670     0.055888
    0.375590     0.875590     0.055892
    0.875590     0.875590     0.055892
    0.375580     0.125690     0.158064
    0.875580     0.125690     0.158064
    0.125680     0.375590     0.158064
    0.625680     0.375590     0.158064
    0.375580     0.625690     0.158064
    0.875580     0.625690     0.158064
    0.125680     0.875590     0.158064
    0.625680     0.875590     0.158064
    0.125670     0.125670     0.260306
    0.625670     0.125670     0.260306
    0.375590     0.375590     0.260313
    0.875590     0.375590     0.260313
    0.125670     0.625670     0.260306
    0.625670     0.625670     0.260306
    0.375590     0.875590     0.260313
    0.875590     0.875590     0.260313
    0.375580     0.125690     0.362482
    0.875580     0.125690     0.362482
    0.125680     0.375590     0.362482
    0.625680     0.375590     0.362482
    0.375580     0.625690     0.362482
    0.875580     0.625690     0.362482
    0.125680     0.875590     0.362482
    0.625680     0.875590     0.362482
EA136   8.593  8.593 21.019 90.08 90.08 90.08 Sym.group:    0
1.0000
    8.593017     0.000000     0.000000
   -0.011983     8.593000     0.000000
   -0.029353    -0.029394    21.018959
   O  Cu
  18   40 
Direct
    0.300000     0.400000     0.429088
    0.103791     0.138162     0.410435
    0.000610     0.000610     0.004757
    0.500610     0.000610     0.004757
    0.000610     0.500610     0.004757
    0.500610     0.500610     0.004757
    0.250790     0.250800     0.107041
    0.750790     0.250800     0.107041
    0.250790     0.750800     0.107041
    0.750790     0.750800     0.107041
    0.000610     0.000610     0.209175
    0.500610     0.000610     0.209175
    0.000610     0.500610     0.209175
    0.500610     0.500610     0.209175
    0.250790     0.250800     0.311459
    0.750790     0.250800     0.311459
    0.250790     0.750800     0.311459
    0.750790     0.750800     0.311459
    0.099209     0.567623     0.463513
    0.900000     0.200000     0.446317
    0.500000     0.600000     0.429088
    0.800000     0.500000     0.502624
    0.168301     0.854672     0.460809
    0.898062     0.469331     0.384261
    0.782450     0.900325     0.450511
    0.601223     0.121355     0.436908
    0.125670     0.125670     0.055888
    0.625670     0.125670     0.055888
    0.375590     0.375590     0.055892
    0.875590     0.375590     0.055892
    0.125670     0.625670     0.055888
    0.625670     0.625670     0.055888
    0.375590     0.875590     0.055892
    0.875590     0.875590     0.055892
    0.375580     0.125690     0.158064
    0.875580     0.125690     0.158064
    0.125680     0.375590     0.158064
    0.625680     0.375590     0.158064
    0.375580     0.625690     0.158064
    0.875580     0.625690     0.158064
    0.125680     0.875590     0.158064
    0.625680     0.875590     0.158064
    0.125670     0.125670     0.260306
    0.625670     0.125670     0.260306
    0.375590     0.375590     0.260313
    0.875590     0.375590     0.260313
    0.125670     0.625670     0.260306
    0.625670     0.625670     0.260306
    0.375590     0.875590     0.260313
    0.875590     0.875590     0.260313
    0.375580     0.125690     0.362482
    0.875580     0.125690     0.362482
    0.125680     0.375590     0.362482
    0.625680     0.375590     0.362482
    0.375580     0.625690     0.362482
    0.875580     0.625690     0.362482
    0.125680     0.875590     0.362482
    0.625680     0.875590     0.362482
