Generation:1
EA1
 1.0000000000000000
     8.2816527176675567    0.0000000000000000    0.0000000000000000
     0.0000000000000000    8.2816527176675567    0.0000000000000000
     0.0000000000000000    0.0000000000000000   20.0571292541634385
 O   Cu 
  18  40
Direct
  0.1367856900000000  0.2107549400000000  0.7477441500000001
  0.3643221400000000  0.9038597000000000  0.6539650299999999
  0.0329833700000000  0.5690255900000000  0.6872745300000001
  0.3308698200000000  0.6393550500000000  0.4086114699999999
  0.0388673400000000  0.8536493800000000  0.4100881200000001
  0.6371058000000001  0.0858404900000000  0.3493578700000000
  0.6660892700000000  0.3602985600000000  0.5901644000000000
  0.9502396100000000  0.1413566500000000  0.5920514000000000
  0.5384724100000000  0.7381130600000000  0.5649794500000000
  0.9713434500000000  0.4307788100000000  0.3149650100000000
  0.3925362300000000  0.4080105700000000  0.2600002100000000
  0.2772357700000000  0.9696283199999999  0.2471044200000000
  0.4551237700000000  0.2556344900000000  0.4348939300000000
  0.0133268700000000  0.2135841800000000  0.4153013500000000
  0.6194574600000000  0.6070633600000001  0.7478419700000000
  0.7294923800000001  0.0445634600000000  0.7463419999999999
  0.8685786300000000  0.8135288700000000  0.2412144700000000
  0.9793284700000001  0.7822995100000000  0.5867826700000000
  0.1205703900000000  0.9921195899999999  0.5668839500000000
  0.5414224000000000  0.0360165200000000  0.6943665400000000
  0.6118680399999999  0.4408623000000000  0.4175810000000000
  0.8712081900000000  0.0073043000000000  0.4324875800000000
  0.1849702800000000  0.4446693100000000  0.2907558100000000
  0.4618257200000000  0.9604797300000000  0.3016203200000000
  0.3854778000000000  0.5570026700000000  0.5841236100000000
  0.2361133100000000  0.2229593300000000  0.4279844600000000
  0.9342174400000000  0.4577611100000000  0.4168221600000000
  0.7564857500000000  0.7741291800000000  0.5741750900000000
  0.3043085900000000  0.1922475000000000  0.2484395900000000
  0.4341540100000000  0.9737838799999999  0.5593401600000000
  0.0646656300000000  0.5402377300000000  0.5853224200000000
  0.0656212400000000  0.9110752800000000  0.2530075000000000
  0.4869897200000000  0.6348586800000000  0.3358971300000000
  0.5546695699999999  0.0166291700000000  0.4420702500000000
  0.8229635399999999  0.5604059900000000  0.7157327200000000
  0.7060322100000000  0.8217008600000000  0.7514941700000000
  0.7796013100000000  0.9674154999999999  0.2971181600000000
  0.7805078000000000  0.4911599500000000  0.5231349600000000
  0.5307201800000000  0.2918120800000000  0.5218156000000000
  0.3658862300000000  0.2612052400000000  0.7580595500000000
  0.7493989800000000  0.7095003800000000  0.4202020900000000
  0.6497507000000000  0.7353741200000000  0.2445693100000000
  0.2477217200000000  0.2885655500000000  0.5767513200000000
  0.0048493800000000  0.8132604300000000  0.6922489400000000
  0.4634134900000000  0.7083867700000001  0.6924015600000000
  0.2153511600000000  0.5106961300000000  0.4772835100000000
  0.2498433800000000  0.9037020500000000  0.4488950000000000
  0.0007493200000000  0.1892779100000000  0.3075625500000000
  0.5421329700000000  0.2844172600000000  0.3121547600000000
  0.9398817100000000  0.1078342600000000  0.7383699400000000
  0.7421941700000000  0.0863804100000000  0.5522140500000000
  0.0013962000000000  0.7457713900000000  0.4911400700000000
  0.4664024500000000  0.7043931500000000  0.4773238500000000
  0.2374293900000000  0.4633686300000000  0.6870747600000000
  0.2247838700000000  0.0409736200000000  0.6993335700000000
  0.9896937099999998  0.2515591400000000  0.5113193200000000
  0.7633831900000000  0.5250011000000000  0.3141606400000000
  0.5091863900000000  0.3483568400000000  0.6600795699999999
EA2
 1.0000000000000000
     6.1651966344035696    0.0000000000000000    0.0000000000000000
     0.0000000000000000    8.5100233285117852    0.0000000000000000
     0.0000000000000000    0.0000000000000000   22.5983290817006690
 O   Cu 
  18  40
Direct
  0.9045297899999999  0.5602646100000001  0.5954842500000000
  0.0175766700000000  0.1886061800000000  0.4059022900000000
  0.1199841000000000  0.1377025800000000  0.2110894000000000
  0.2820631200000000  0.7584263400000000  0.8043571000000000
  0.6654353500000000  0.3650998100000000  0.4797539400000000
  0.6822739100000000  0.1367650200000000  0.1556456600000000
  0.6514861499999999  0.0985145900000000  0.7715129200000002
  0.7766955600000000  0.5329236899999999  0.7719636699999999
  0.2389358800000000  0.3029585300000000  0.8138737200000000
  0.4105424600000000  0.7857135600000000  0.5492385500000000
  0.3319628900000000  0.5578831500000000  0.4344599400000000
  0.8006584400000000  0.7808662000000000  0.4202072600000000
  0.2000783600000000  0.8295296000000000  0.2821971100000000
  0.7515923200000000  0.6661175300000000  0.2608082100000000
  0.1218480100000000  0.4336776400000000  0.1745846100000000
  0.8087270899999999  0.0274197200000000  0.5818100200000000
  0.3136063800000000  0.2654331500000000  0.5602919700000000
  0.3734715400000000  0.9696780600000000  0.4265213000000000
  0.0357885500000000  0.6405184300000000  0.7928553699999999
  0.5605484700000000  0.4997615000000000  0.2744518500000000
  0.9205617400000000  0.5572920200000000  0.2084505800000000
  0.2930677000000000  0.0373254600000000  0.2711035600000000
  0.9248737499999999  0.4367918600000000  0.5180987400000000
  0.3242924800000000  0.3999893100000000  0.4938858900000000
  0.7075949200000000  0.2232111800000000  0.4134779100000001
  0.5233618700000000  0.6383277300000000  0.7914584400000001
  0.5433477900000000  0.2396247800000000  0.3111308400000000
  0.5741366400000000  0.8351991500000000  0.4785073000000000
  0.1499866200000000  0.6687293100000000  0.5621433800000000
  0.3302747300000000  0.9022447700000000  0.6205102100000000
  0.3926026000000000  0.1641057700000000  0.1724662800000000
  0.9122261900000000  0.2766758800000000  0.1663069400000000
  0.7051430000000000  0.0631517800000000  0.2359520300000000
  0.4389933200000001  0.6545130200000000  0.6808818900000000
  0.9338369399999999  0.9579233100000000  0.6538783600000000
  0.1897107500000000  0.8608589200000000  0.7291301300000000
  0.0639574100000000  0.5660777600000000  0.6714522500000000
  0.9566319800000002  0.3600353700000000  0.7973471099999999
  0.9471060200000000  0.0808150700000000  0.7637449700000001
  0.6435809900000000  0.6674456000000000  0.5818027099999999
  0.5647656400000000  0.1495401600000000  0.5775414800000001
  0.0562712200000000  0.1512059900000000  0.5721818200000000
  0.2397091100000000  0.3525591200000000  0.2526527000000000
  0.4972949800000000  0.7919910300000000  0.2746271700000000
  0.8977591700000001  0.8561374800000000  0.2912203400000000
  0.6855701600000002  0.5670147400000000  0.4401428300000000
  0.0611297900000000  0.6567600800000000  0.4411266600000000
  0.3252074000000000  0.1904850700000000  0.4061870399999999
  0.3014821400000000  0.4081474700000000  0.7368091900000000
  0.9247151400000000  0.1312805100000000  0.3256810400000000
  0.5594526200000000  0.9783563999999999  0.7047092100000000
  0.3336979700000001  0.4546578500000000  0.3592396900000000
  0.5866555700000000  0.9758045200000001  0.3588622100000000
  0.0460635900000000  0.9435014400000000  0.4174163100000000
  0.7949536000000000  0.7506817900000000  0.7179180200000000
  0.3431960300000000  0.1150384800000000  0.7801867500000000
  0.3581030600000000  0.4056172600000000  0.6284355200000000
  0.2303383600000000  0.1462773500000000  0.6771437800000000
EA3
 1.0000000000000000
     6.0294509742358997    0.0000000000000000    0.0000000000000000
     0.0000000000000000   11.5035699918020704    0.0000000000000000
     0.0000000000000000    0.0000000000000000   19.0860533498467149
 O   Cu 
  18  40
Direct
  0.4101501900000000  0.2039860700000000  0.4875213800000000
  0.9659691200000000  0.7787073900000000  0.2725140000000000
  0.9330952700000000  0.2163577100000000  0.7720059400000000
  0.1984982900000000  0.4194248700000001  0.6405632300000000
  0.5059198100000000  0.1753166200000000  0.6333688500000000
  0.8751850600000000  0.8451351000000000  0.3326887200000000
  0.8741211100000001  0.5992345500000000  0.4264038800000000
  0.4041884400000000  0.9764482799999999  0.3544579700000000
  0.1228366700000000  0.1539249300000000  0.7476874000000000
  0.5020315800000000  0.6681472200000000  0.3223384400000000
  0.7844390200000000  0.4394796000000000  0.2059980400000000
  0.7682034200000000  0.1238074200000000  0.2842317600000000
  0.4390992800000000  0.9408272899999999  0.7459126000000000
  0.5463622800000000  0.6093937900000000  0.7344879200000000
  0.1329530300000000  0.6573647500000001  0.5465548000000000
  0.3825911100000000  0.8870214199999999  0.5498289500000000
  0.7475358500000000  0.3411441700000000  0.3948807300000000
  0.3769311300000000  0.4417069000000000  0.5886474100000000
  0.0266411400000000  0.7859236200000000  0.7135267199999999
  0.7443125700000000  0.9371016599999999  0.7469296200000000
  0.1346979200000000  0.9765385400000001  0.7540701800000000
  0.8507373300000000  0.6028465600000000  0.7498953000000000
  0.0883366900000000  0.4440061600000000  0.2084377100000000
  0.4643974500000000  0.1079674800000000  0.2857881500000000
  0.2883434500000000  0.2996633000000000  0.2772877300000000
  0.0794780900000000  0.9782617900000001  0.3690204200000000
  0.5424797900000000  0.8313365300000000  0.3361413900000000
  0.6378765900000000  0.5092130499999999  0.6364627200000000
  0.9460075700000000  0.9705199300000000  0.6380850100000000
  0.9435962100000000  0.3506182200000000  0.5960622100000000
  0.8037739699999999  0.1430859500000000  0.5787121000000000
  0.8677408600000001  0.7847769299999999  0.4344524000000000
  0.5592741700000000  0.5946426100000000  0.4178646500000000
  0.1796973500000000  0.5709598500000000  0.4308107899999999
  0.2441765900000000  0.6134463100000001  0.7477493600000000
  0.3273404100000000  0.5036029900000000  0.3140748100000000
  0.4782740700000000  0.4408375200000000  0.2005146800000000
  0.4346969900000001  0.3534368800000000  0.4076391400000000
  0.7462924000000000  0.3918200300000000  0.2993016100000000
  0.8779703000000000  0.0076106600000000  0.4802953600000000
  0.4384755300000000  0.6460018400000000  0.5413530000000000
  0.7852373799999999  0.4481550200000000  0.4880124000000000
  0.2334926400000000  0.0412303800000000  0.5429579000000000
  0.0818624500000000  0.2192505500000000  0.4931916700000000
  0.0603078300000000  0.3600047900000000  0.3923127500000000
  0.8160041099999999  0.6502515200000000  0.5406212100000000
  0.6875263700000001  0.8575247600000000  0.5493345700000000
  0.2199068800000000  0.7105343800000000  0.2987208500000000
  0.7088013500000000  0.2001912500000000  0.7052316300000000
  0.1788281200000000  0.1732945800000000  0.6427917399999999
  0.8473048300000000  0.1605663600000000  0.3851066800000000
  0.3959883400000000  0.9058752300000000  0.6504382900000000
  0.0403582700000000  0.5839214900000000  0.6415834500000001
  0.6600504200000000  0.7295824200000000  0.6583238700000000
  0.0767165300000000  0.8369335600000000  0.5439939000000000
  0.4789297000000000  0.0775311200000000  0.4291289100000000
  0.0700831600000000  0.1258149600000000  0.2733204200000000
  0.5596968600000000  0.3086981100000000  0.5603626600000000
EA4
 1.0000000000000000
    11.1694541118791442    0.0000000000000000    0.0000000000000000
     0.0000000000000000   11.1694541118791442    0.0000000000000000
     0.0000000000000000    0.0000000000000000   14.4220465956262700
 O   Cu 
  18  40
Direct
  0.1035652600000000  0.2501298200000000  0.3637741800000000
  0.1716094700000000  0.6754430300000001  0.4603547500000000
  0.7197450100000000  0.2273153600000000  0.7166025900000000
  0.9575061300000000  0.5545961200000000  0.2876888200000001
  0.4927627000000001  0.8950489300000000  0.3157012200000000
  0.4821834100000000  0.5813090900000000  0.3995296300000000
  0.8982445100000002  0.1479053700000000  0.1859131000000000
  0.7095991500000000  0.3507726200000000  0.3399429300000000
  0.3671772700000000  0.9729095100000000  0.5453316100000000
  0.9779421100000000  0.9821207400000000  0.4970624000000000
  0.6244928800000000  0.0946203400000000  0.4890565200000000
  0.9587188600000000  0.3927535500000000  0.5807251500000000
  0.9601038500000000  0.0380244700000000  0.8182181400000000
  0.5225587700000000  0.5601203500000000  0.7238482500000000
  0.8188977100000001  0.8572662399999998  0.2875432800000000
  0.8623530500000000  0.7738326300000000  0.6784359700000000
  0.2043775400000000  0.1909855400000000  0.6881657600000000
  0.1402839600000000  0.6213460600000000  0.5565388800000000
  0.2144178100000000  0.4601029600000001  0.5481119200000000
  0.9704618699999999  0.5771507299999999  0.5528672000000000
  0.8548496500000001  0.0081445300000000  0.2333915700000000
  0.8442538000000001  0.4475885900000000  0.3319340200000000
  0.9784668700000000  0.2181299100000000  0.2775268700000000
  0.6736233800000000  0.2291746300000000  0.4215811200000000
  0.2745736900000000  0.0804307000000000  0.6070327000000000
  0.4546458099999999  0.1648305900000000  0.5086765300000000
  0.0682349000000000  0.5996338400000000  0.3750131400000000
  0.0800218300000000  0.1076140900000000  0.7481330100000000
  0.4277866700000000  0.4883529400000000  0.6323692500000000
  0.6757240200000000  0.1474171900000000  0.6072478100000001
  0.8301098099999999  0.3128235700000000  0.6432366800000000
  0.3162068700000000  0.6003138200000000  0.4217781700000000
  0.4290911100000000  0.9478754500000000  0.4271760500000000
  0.4926400400000000  0.7392705799999999  0.3587474100000000
  0.5031676500000000  0.9004360799999999  0.6037292200000000
  0.0128587700000000  0.3438690500000000  0.4584977600000000
  0.7744790900000000  0.4687443800000000  0.5089725500000000
  0.3328984000000000  0.2952221900000000  0.6236493400000001
  0.5542071600000000  0.7093741900000000  0.6706919200000000
  0.9132089800000001  0.8588618299999999  0.5726329000000001
  0.5865120500000000  0.5929433400000000  0.5155941200000000
  0.6574169000000000  0.8848683700000000  0.3130889300000000
  0.8863800699999999  0.7037720600000000  0.2903536900000000
  0.7045600400000001  0.8649876399999999  0.6582587000000000
  0.7721795400000000  0.6659800700000000  0.5931042200000000
  0.8819064800000000  0.9210726699999999  0.4000392600000000
  0.5918195600000000  0.4569959699999999  0.3735564900000000
  0.0407290300000000  0.1154195300000000  0.4352425300000000
  0.3962355900000001  0.3869946400000000  0.4695586700000001
  0.6620207299999999  0.4968546900000000  0.6623447299999999
  0.0834222100000000  0.2861027400000000  0.6264132800000000
  0.2319342700000000  0.2376232600000000  0.4772507600000000
  0.2026839800000000  0.4126131800000001  0.3710945300000000
  0.9321848100000000  0.0871240900000000  0.6072746900000000
  0.5807774000000000  0.3490775200000000  0.5524671200000000
  0.9144634000000000  0.9068751600000000  0.7478425800000000
  0.6758038100000000  0.9186546700000001  0.4931268600000000
  0.8414425899999999  0.1307010900000000  0.7619831000000001
Generation:2
Generation:3
