EA0    19.799 19.206 18.879 90.00 90.00 90.00 Sym.group:    0
1.0000
   19.799407     0.000000     0.000000
    0.000000    19.205536     0.000000
    0.000000     0.000000    18.878811
   8   24 
Direct
    0.329495     0.485275     0.419043
    0.536253     0.481486     0.415411
    0.402815     0.355383     0.513940
    0.326677     0.450802     0.512245
    0.440322     0.662207     0.481515
    0.430753     0.638326     0.632544
    0.431089     0.484111     0.653651
    0.678640     0.519683     0.564882
    0.625288     0.346686     0.495217
    0.423379     0.389684     0.421074
    0.598321     0.458992     0.351143
    0.419816     0.589639     0.358435
    0.452164     0.383896     0.595770
    0.538133     0.396106     0.597252
    0.395738     0.465633     0.614861
    0.503835     0.487067     0.375382
    0.571505     0.364531     0.462117
    0.357269     0.506129     0.476019
    0.434441     0.373089     0.472017
    0.512884     0.542543     0.394676
    0.665712     0.486360     0.407271
    0.515230     0.615593     0.352328
    0.588996     0.555445     0.643075
    0.504330     0.666036     0.575684
    0.363896     0.617810     0.533438
    0.585831     0.599721     0.414103
    0.646052     0.619678     0.571907
    0.619839     0.456020     0.634686
    0.523343     0.456216     0.530888
    0.558936     0.481425     0.486203
    0.495692     0.518219     0.546927
    0.523327     0.546209     0.496297
