EA38   20.445 19.616 14.327 90.00 90.00 90.00 Sym.group:    0
1.0000
   20.445337     0.000000     0.000000
    0.000000    19.616015     0.000000
    0.000000     0.000000    14.326909
   O  Cu
  12   24 
Direct
    0.365602     0.434780     0.441128     0.026468
    0.378610     0.588702     0.441128     0.026468
    0.513008     0.653922     0.441128     0.026468
    0.634398     0.565220     0.441128     0.026468
    0.621390     0.411298     0.441128     0.026468
    0.486992     0.346078     0.441128     0.026468
    0.529529     0.348578     0.558872     0.026468
    0.640581     0.450943     0.558872     0.026468
    0.611052     0.602365     0.558872     0.026468
    0.470471     0.651422     0.558872     0.026468
    0.359419     0.549057     0.558872     0.026468
    0.388948     0.397635     0.558872     0.026468
    0.365602     0.434780     0.558872     0.031254
    0.378610     0.588702     0.558872     0.031255
    0.513008     0.653922     0.558872     0.031254
    0.634398     0.565220     0.558872     0.031254
    0.621390     0.411298     0.558872     0.031255
    0.486992     0.346078     0.558872     0.031254
    0.529529     0.348578     0.441128     0.031253
    0.640581     0.450943     0.441128     0.031254
    0.611052     0.602365     0.441128     0.031254
    0.470471     0.651422     0.441128     0.031253
    0.359419     0.549057     0.441128     0.031254
    0.388948     0.397635     0.441128     0.031254
    0.390843     0.425471     0.500000     0.054547
    0.383496     0.561264     0.500000     0.054546
    0.492653     0.635793     0.500000     0.054548
    0.609157     0.574529     0.500000     0.054547
    0.616504     0.438736     0.500000     0.054546
    0.507347     0.364207     0.500000     0.054548
    0.340081     0.390813     0.500000     0.033944
    0.329317     0.589755     0.500000     0.033944
    0.489236     0.698943     0.500000     0.033944
    0.659919     0.609187     0.500000     0.033944
    0.670683     0.410245     0.500000     0.033944
    0.510764     0.301057     0.500000     0.033944
EA95   19.582 20.450 14.459 90.00 90.00 90.00 Sym.group:    0
1.0000
   19.582260     0.000000     0.000000
    0.000000    20.449523     0.000000
    0.000000     0.000000    14.459481
   O  Cu
  12   24 
Direct
    0.640077     0.431312     0.437848     0.023664
    0.509175     0.352131     0.440334     0.026302
    0.371732     0.421374     0.446821     0.027165
    0.359923     0.568688     0.437848     0.023664
    0.490825     0.647869     0.440334     0.026302
    0.628268     0.578626     0.446821     0.027165
    0.602878     0.614314     0.563681     0.024656
    0.449572     0.637955     0.555599     0.027161
    0.348232     0.525763     0.555716     0.026287
    0.397122     0.385686     0.563681     0.024656
    0.550428     0.362045     0.555599     0.027161
    0.651768     0.474237     0.555716     0.026287
    0.637041     0.434040     0.554495     0.029894
    0.506746     0.354003     0.556990     0.030478
    0.367269     0.417270     0.563512     0.029933
    0.362959     0.565960     0.554495     0.029894
    0.493254     0.645997     0.556990     0.030478
    0.632731     0.582730     0.563512     0.029933
    0.598413     0.610212     0.447044     0.030151
    0.447142     0.639833     0.438923     0.029150
    0.345202     0.528491     0.439037     0.030861
    0.401587     0.389788     0.447044     0.030151
    0.552858     0.360167     0.438923     0.029150
    0.654798     0.471509     0.439037     0.030861
    0.629937     0.458129     0.497784     0.045509
    0.526596     0.373012     0.498600     0.049790
    0.397000     0.414395     0.503617     0.039317
    0.370063     0.541871     0.497784     0.045509
    0.473404     0.626988     0.498600     0.049790
    0.603000     0.585605     0.503617     0.039317
    0.689722     0.438039     0.494015     0.027282
    0.538548     0.313427     0.496218     0.027869
    0.350028     0.373667     0.509767     0.028510
    0.310278     0.561961     0.494015     0.027282
    0.461452     0.686573     0.496218     0.027869
    0.649972     0.626333     0.509767     0.028510
EA163  19.582 20.450 14.459 90.00 90.00 90.00 Sym.group:    0
1.0000
   19.582260     0.000000     0.000000
    0.000000    20.449523     0.000000
    0.000000     0.000000    14.459481
   O  Cu
  12   24 
Direct
    0.640077     0.431312     0.437848     0.023664
    0.509175     0.352131     0.440334     0.026302
    0.371732     0.421374     0.446821     0.027165
    0.359923     0.568688     0.437848     0.023664
    0.490825     0.647869     0.440334     0.026302
    0.628268     0.578626     0.446821     0.027165
    0.602878     0.614314     0.563681     0.024656
    0.449572     0.637955     0.555599     0.027161
    0.348232     0.525763     0.555716     0.026287
    0.397122     0.385686     0.563681     0.024656
    0.550428     0.362045     0.555599     0.027161
    0.651768     0.474237     0.555716     0.026287
    0.637041     0.434040     0.554495     0.029894
    0.506746     0.354003     0.556990     0.030478
    0.367269     0.417270     0.563512     0.029933
    0.362959     0.565960     0.554495     0.029894
    0.493254     0.645997     0.556990     0.030478
    0.632731     0.582730     0.563512     0.029933
    0.598413     0.610212     0.447044     0.030151
    0.447142     0.639833     0.438923     0.029150
    0.345202     0.528491     0.439037     0.030861
    0.401587     0.389788     0.447044     0.030151
    0.552858     0.360167     0.438923     0.029150
    0.654798     0.471509     0.439037     0.030861
    0.629937     0.458129     0.497784     0.045509
    0.526596     0.373012     0.498600     0.049790
    0.397000     0.414395     0.503617     0.039317
    0.370063     0.541871     0.497784     0.045509
    0.473404     0.626988     0.498600     0.049790
    0.603000     0.585605     0.503617     0.039317
    0.689722     0.438039     0.494015     0.027282
    0.538548     0.313427     0.496218     0.027869
    0.350028     0.373667     0.509767     0.028510
    0.310278     0.561961     0.494015     0.027282
    0.461452     0.686573     0.496218     0.027869
    0.649972     0.626333     0.509767     0.028510
