EA1    18.888 18.543 13.628 90.00 90.00 90.00 Sym.group:    0
1.0000
   18.888319     0.000000     0.000000
    0.000000    18.543044     0.000000
    0.000000     0.000000    13.627689
   O  Cu
  12   24 
Direct
    0.484370     0.647994     0.478434
    0.633639     0.439791     0.478434
    0.381991     0.412215     0.478434
    0.628915     0.609168     0.546998
    0.528356     0.331693     0.546998
    0.342729     0.559139     0.546998
    0.701949     0.603337     0.538749
    0.486882     0.270182     0.538749
    0.311169     0.626481     0.538749
    0.373266     0.482061     0.466922
    0.548115     0.620768     0.466922
    0.578619     0.397171     0.466922
    0.447306     0.396232     0.555497
    0.438124     0.598368     0.555497
    0.614570     0.505400     0.555497
    0.568301     0.323879     0.402153
    0.316113     0.527808     0.402153
    0.615586     0.648312     0.402153
    0.499700     0.686479     0.555999
    0.658693     0.407025     0.555999
    0.341606     0.406496     0.555999
    0.339920     0.461220     0.611653
    0.547069     0.660604     0.611653
    0.613010     0.378176     0.611653
    0.734757     0.483204     0.496477
    0.368342     0.301307     0.496477
    0.396902     0.715489     0.496477
    0.647566     0.368687     0.457128
    0.314575     0.435482     0.457128
    0.537859     0.695832     0.457128
    0.538313     0.393907     0.522357
    0.390643     0.519249     0.522357
    0.571044     0.586845     0.522357
    0.583497     0.496754     0.367634
    0.455492     0.427966     0.367634
    0.461011     0.575280     0.367634
EA2    20.096 14.982 15.242 90.00 90.00 90.00 Sym.group:    0
1.0000
   20.095756     0.000000     0.000000
    0.000000    14.981660     0.000000
    0.000000     0.000000    15.241595
   O  Cu
  12   24 
Direct
    0.314495     0.500000     0.500000
    0.492396     0.361674     0.397974
    0.492396     0.659053     0.433262
    0.492396     0.479273     0.668763
    0.492396     0.637623     0.602940
    0.492396     0.521884     0.331378
    0.492396     0.340493     0.565682
    0.581601     0.507516     0.328706
    0.581601     0.647161     0.592045
    0.581601     0.345323     0.579249
    0.581601     0.665591     0.446119
    0.581601     0.369732     0.385980
    0.581601     0.464676     0.667901
    0.360192     0.467750     0.541950
    0.360192     0.479165     0.451572
    0.360192     0.553085     0.506478
    0.423044     0.500000     0.500000
    0.616742     0.432423     0.491754
    0.616742     0.541054     0.446598
    0.616742     0.526523     0.561648
    0.750694     0.537165     0.586384
    0.750694     0.405309     0.488445
    0.750694     0.557526     0.425171
    0.498869     0.465823     0.420562
    0.498869     0.587078     0.510626
    0.498869     0.447099     0.568812
    0.395514     0.407684     0.620084
    0.395514     0.440358     0.361373
    0.395514     0.651958     0.518543
    0.323195     0.435722     0.583612
    0.323195     0.458473     0.403477
    0.323195     0.605805     0.512911
    0.479684     0.660077     0.519534
    0.479684     0.402751     0.626500
    0.479684     0.437172     0.353967
    0.543810     0.500000     0.500000
EA3    20.778 22.442 11.723 90.00 90.00 90.00 Sym.group:    0
1.0000
   20.778124     0.000000     0.000000
    0.000000    22.442412     0.000000
    0.000000     0.000000    11.722635
   O  Cu
  12   24 
Direct
    0.672290     0.428776     0.446854
    0.480478     0.673754     0.446854
    0.347233     0.397470     0.446854
    0.519522     0.673754     0.553146
    0.652767     0.397470     0.553146
    0.327710     0.428776     0.553146
    0.672290     0.428776     0.553146
    0.480478     0.673754     0.553146
    0.347233     0.397470     0.553146
    0.519522     0.673754     0.446854
    0.652767     0.397470     0.446854
    0.327710     0.428776     0.446854
    0.710138     0.554682     0.572622
    0.343782     0.641149     0.572622
    0.446080     0.304170     0.572622
    0.656218     0.641149     0.427378
    0.553920     0.304170     0.427378
    0.289862     0.554682     0.427378
    0.710138     0.554682     0.427378
    0.343782     0.641149     0.427378
    0.446080     0.304170     0.427378
    0.656218     0.641149     0.572622
    0.553920     0.304170     0.572622
    0.289862     0.554682     0.572622
    0.464306     0.566745     0.500000
    0.455415     0.438008     0.500000
    0.580279     0.495247     0.500000
    0.544585     0.438008     0.500000
    0.419721     0.495247     0.500000
    0.535694     0.566745     0.500000
    0.500000     0.650150     0.500000
    0.359551     0.424925     0.500000
    0.640449     0.424925     0.500000
    0.500000     0.776762     0.500000
    0.241119     0.361619     0.500000
    0.758881     0.361619     0.500000
EA4    20.698 19.884 17.487 90.00 90.00 90.00 Sym.group:    0
1.0000
   20.697673     0.000000     0.000000
    0.000000    19.883668     0.000000
    0.000000     0.000000    17.486895
   O  Cu
  12   24 
Direct
    0.516513     0.630373     0.483838
    0.556261     0.545699     0.648886
    0.255873     0.542760     0.490761
    0.371411     0.430626     0.566745
    0.480735     0.668058     0.676809
    0.588255     0.303611     0.480271
    0.678642     0.539960     0.444017
    0.549203     0.407962     0.435566
    0.607837     0.504542     0.559652
    0.569122     0.480034     0.581623
    0.399652     0.430167     0.409553
    0.428427     0.541250     0.615366
    0.572237     0.590661     0.626784
    0.621526     0.614229     0.404740
    0.521706     0.458970     0.305677
    0.477680     0.637868     0.365441
    0.757944     0.529707     0.505130
    0.399855     0.476911     0.489702
    0.242056     0.494025     0.530899
    0.462531     0.461183     0.597138
    0.460900     0.391431     0.529387
    0.578244     0.251966     0.484394
    0.493042     0.372302     0.702941
    0.660839     0.597240     0.530870
    0.427008     0.740064     0.507105
    0.512730     0.554161     0.545342
    0.468904     0.466488     0.713500
    0.595229     0.384906     0.602643
    0.408352     0.498877     0.311364
    0.361052     0.483477     0.617861
    0.618161     0.626128     0.551769
    0.580054     0.608348     0.578473
    0.632472     0.465587     0.431175
    0.457381     0.425477     0.286500
    0.512224     0.549165     0.357081
    0.442319     0.748034     0.437333
EA5    17.059 14.961 15.068 90.00 90.00 90.00 Sym.group:    0
1.0000
   17.058722     0.000000     0.000000
    0.000000    14.960583     0.000000
    0.000000     0.000000    15.067843
   O  Cu
  12   24 
Direct
    0.293691     0.399693     0.521564
    0.706309     0.600307     0.478436
    0.507160     0.543407     0.593156
    0.492840     0.456593     0.406844
    0.452601     0.344156     0.574717
    0.547399     0.655844     0.425283
    0.480249     0.336984     0.512164
    0.519751     0.663016     0.487836
    0.682195     0.518307     0.529110
    0.317805     0.481693     0.470890
    0.527848     0.380282     0.382140
    0.472152     0.619718     0.617860
    0.498166     0.334880     0.404914
    0.501834     0.665120     0.595086
    0.573129     0.409806     0.656062
    0.426871     0.590194     0.343938
    0.444375     0.644054     0.575561
    0.555625     0.355946     0.424439
    0.540719     0.453519     0.361721
    0.459281     0.546481     0.638279
    0.594813     0.471295     0.662309
    0.405187     0.528705     0.337691
    0.626377     0.407764     0.437568
    0.373623     0.592236     0.562432
    0.334980     0.548189     0.472951
    0.665020     0.451811     0.527049
    0.399426     0.584998     0.476347
    0.600574     0.415002     0.523653
    0.420509     0.391127     0.628106
    0.579491     0.608873     0.371894
    0.361566     0.401836     0.504116
    0.638434     0.598164     0.495884
    0.590407     0.507577     0.332496
    0.409593     0.492423     0.667504
    0.669248     0.455898     0.590660
    0.330752     0.544102     0.409340
EA6    15.797 15.797 15.797 90.00 90.00 90.00 Sym.group:    0
1.0000
   15.797100     0.000000     0.000000
    0.000000    15.797100     0.000000
    0.000000     0.000000    15.797100
   O  Cu
  12   24 
Direct
    0.682853     0.386991     0.500000
    0.500000     0.682853     0.386991
    0.386991     0.500000     0.682853
    0.317147     0.613009     0.500000
    0.500000     0.317147     0.386991
    0.613009     0.500000     0.682853
    0.682853     0.613009     0.500000
    0.500000     0.317147     0.613009
    0.386991     0.500000     0.317147
    0.317147     0.386991     0.500000
    0.500000     0.682853     0.613009
    0.613009     0.500000     0.317147
    0.623243     0.423832     0.500000
    0.500000     0.623243     0.423832
    0.423832     0.500000     0.623243
    0.376757     0.576168     0.500000
    0.500000     0.376757     0.423832
    0.576168     0.500000     0.623243
    0.623243     0.576168     0.500000
    0.500000     0.376757     0.576168
    0.423832     0.500000     0.376757
    0.376757     0.423832     0.500000
    0.500000     0.623243     0.576168
    0.576168     0.500000     0.376757
    0.554788     0.466139     0.500000
    0.500000     0.554788     0.466139
    0.466139     0.500000     0.554788
    0.445212     0.533861     0.500000
    0.500000     0.445212     0.466139
    0.533861     0.500000     0.554788
    0.554788     0.533861     0.500000
    0.500000     0.445212     0.533861
    0.466139     0.500000     0.445212
    0.445212     0.466139     0.500000
    0.500000     0.554788     0.533861
    0.533861     0.500000     0.445212
EA7    15.719 15.719 15.719 90.00 90.00 90.00 Sym.group:    0
1.0000
   15.719168     0.000000     0.000000
    0.000000    15.719168     0.000000
    0.000000     0.000000    15.719168
   O  Cu
  12   24 
Direct
    0.681281     0.387962     0.500000
    0.500000     0.681281     0.387962
    0.387962     0.500000     0.681281
    0.318719     0.612038     0.500000
    0.500000     0.318719     0.387962
    0.612038     0.500000     0.681281
    0.681281     0.612038     0.500000
    0.500000     0.318719     0.612038
    0.387962     0.500000     0.318719
    0.318719     0.387962     0.500000
    0.500000     0.681281     0.612038
    0.612038     0.500000     0.318719
    0.553229     0.467103     0.500000
    0.500000     0.553229     0.467103
    0.467103     0.500000     0.553229
    0.446771     0.532897     0.500000
    0.500000     0.446771     0.467103
    0.532897     0.500000     0.553229
    0.553229     0.532897     0.500000
    0.500000     0.446771     0.532897
    0.467103     0.500000     0.446771
    0.446771     0.467103     0.500000
    0.500000     0.553229     0.532897
    0.532897     0.500000     0.446771
    0.634966     0.416587     0.500000
    0.500000     0.634966     0.416587
    0.416587     0.500000     0.634966
    0.365034     0.583413     0.500000
    0.500000     0.365034     0.416587
    0.583413     0.500000     0.634966
    0.634966     0.583413     0.500000
    0.500000     0.365034     0.583413
    0.416587     0.500000     0.365034
    0.365034     0.416587     0.500000
    0.500000     0.634966     0.583413
    0.583413     0.500000     0.365034
EA8    15.886 15.587 12.505 90.00 90.00 90.00 Sym.group:    0
1.0000
   15.886443     0.000000     0.000000
    0.000000    15.587164     0.000000
    0.000000     0.000000    12.505113
   O  Cu
  12   24 
Direct
    0.527758     0.356635     0.435067
    0.392060     0.403817     0.435067
    0.364303     0.547182     0.435067
    0.472242     0.643365     0.435067
    0.607940     0.596183     0.435067
    0.635697     0.452818     0.435067
    0.527758     0.356635     0.564933
    0.392060     0.403817     0.564933
    0.364303     0.547182     0.564933
    0.472242     0.643365     0.564933
    0.607940     0.596183     0.564933
    0.635697     0.452818     0.564933
    0.433926     0.596903     0.599364
    0.549303     0.606772     0.599364
    0.615377     0.509869     0.599364
    0.566074     0.403097     0.599364
    0.450697     0.393228     0.599364
    0.384623     0.490131     0.599364
    0.433926     0.596903     0.400636
    0.549303     0.606772     0.400636
    0.615377     0.509869     0.400636
    0.566074     0.403097     0.400636
    0.450697     0.393228     0.400636
    0.384623     0.490131     0.400636
    0.684637     0.468777     0.538484
    0.565788     0.321418     0.538484
    0.381151     0.352641     0.538484
    0.315363     0.531223     0.538484
    0.434212     0.678582     0.538484
    0.618849     0.647359     0.538484
    0.684637     0.468777     0.461516
    0.565788     0.321418     0.461516
    0.381151     0.352641     0.461516
    0.315363     0.531223     0.461516
    0.434212     0.678582     0.461516
    0.618849     0.647359     0.461516
EA9    19.995 20.746 11.882 90.00 90.00 90.00 Sym.group:    0
1.0000
   19.995392     0.000000     0.000000
    0.000000    20.746125     0.000000
    0.000000     0.000000    11.882041
   O  Cu
  12   24 
Direct
    0.263082     0.485347     0.519797
    0.368374     0.690426     0.519797
    0.605293     0.705079     0.519797
    0.736918     0.514653     0.519797
    0.631626     0.309574     0.519797
    0.394707     0.294921     0.519797
    0.250558     0.399394     0.481250
    0.284880     0.657903     0.481250
    0.534323     0.758509     0.481250
    0.749442     0.600606     0.481250
    0.715120     0.342097     0.481250
    0.465677     0.241491     0.481250
    0.636114     0.475652     0.553945
    0.546180     0.374213     0.553945
    0.410066     0.398561     0.553945
    0.363886     0.524348     0.553945
    0.453820     0.625787     0.553945
    0.589934     0.601439     0.553945
    0.346545     0.581849     0.576932
    0.496817     0.669011     0.576932
    0.650272     0.587162     0.576932
    0.653455     0.418151     0.576932
    0.503183     0.330989     0.576932
    0.349728     0.412838     0.576932
    0.478689     0.586974     0.421645
    0.567494     0.561275     0.421645
    0.588805     0.474301     0.421645
    0.521311     0.413026     0.421645
    0.432506     0.438725     0.421645
    0.411195     0.525699     0.421645
    0.581009     0.363158     0.446431
    0.417547     0.363962     0.446431
    0.336538     0.500804     0.446431
    0.418991     0.636842     0.446431
    0.582453     0.636038     0.446431
    0.663462     0.499196     0.446431
EA10   17.254 17.254 17.254 90.00 90.00 90.00 Sym.group:    0
1.0000
   17.254068     0.000000     0.000000
    0.000000    17.254068     0.000000
    0.000000     0.000000    17.254068
   O  Cu
  12   24 
Direct
    0.574551     0.525772     0.311086
    0.425449     0.474228     0.311086
    0.572194     0.468217     0.688914
    0.427806     0.531783     0.688914
    0.308239     0.434358     0.471199
    0.478954     0.689935     0.573434
    0.685751     0.418896     0.528801
    0.463492     0.312422     0.426566
    0.691761     0.565642     0.471199
    0.536508     0.687578     0.426566
    0.314249     0.581104     0.528801
    0.521046     0.310065     0.573434
    0.425449     0.474228     0.688914
    0.574551     0.525772     0.688914
    0.427806     0.531783     0.311086
    0.572194     0.468217     0.311086
    0.691761     0.565642     0.528801
    0.521046     0.310065     0.426566
    0.314249     0.581104     0.471199
    0.536508     0.687578     0.573434
    0.308239     0.434358     0.528801
    0.463492     0.312422     0.573434
    0.685751     0.418896     0.471199
    0.478954     0.689935     0.426566
    0.495890     0.399659     0.701331
    0.504110     0.600341     0.701331
    0.504110     0.600341     0.298669
    0.495890     0.399659     0.298669
    0.701163     0.491761     0.600426
    0.592102     0.294727     0.500000
    0.298837     0.508239     0.399574
    0.608581     0.697053     0.500000
    0.298837     0.508239     0.600426
    0.391419     0.302947     0.500000
    0.701163     0.491761     0.399574
    0.407898     0.705273     0.500000
EA11   17.254 17.254 17.254 90.00 90.00 90.00 Sym.group:    0
1.0000
   17.254068     0.000000     0.000000
    0.000000    17.254068     0.000000
    0.000000     0.000000    17.254068
   O  Cu
  12   24 
Direct
    0.527239     0.426336     0.469894
    0.530106     0.426336     0.527239
    0.472761     0.426336     0.530106
    0.469894     0.426336     0.472761
    0.532351     0.471291     0.572138
    0.530106     0.573664     0.527239
    0.524994     0.528709     0.424994
    0.572138     0.528709     0.467649
    0.469894     0.573664     0.472761
    0.424994     0.471291     0.475006
    0.527239     0.573664     0.469894
    0.472761     0.573664     0.530106
    0.475006     0.528709     0.575006
    0.467649     0.471291     0.427862
    0.427862     0.528709     0.532351
    0.575006     0.471291     0.524994
    0.424994     0.528709     0.475006
    0.532351     0.528709     0.572138
    0.572138     0.471291     0.467649
    0.524994     0.471291     0.424994
    0.575006     0.528709     0.524994
    0.475006     0.471291     0.575006
    0.427862     0.471291     0.532351
    0.467649     0.528709     0.427862
    0.500000     0.294221     0.500000
    0.500000     0.705779     0.500000
    0.510276     0.500000     0.705523
    0.489724     0.500000     0.294477
    0.294477     0.500000     0.510276
    0.705523     0.500000     0.489724
    0.500000     0.389394     0.500000
    0.500000     0.610606     0.500000
    0.505523     0.500000     0.610468
    0.494477     0.500000     0.389532
    0.389532     0.500000     0.505523
    0.610468     0.500000     0.494477
EA12   16.906 17.577 14.823 90.00 90.00 90.00 Sym.group:    0
1.0000
   16.905714     0.000000     0.000000
    0.000000    17.577387     0.000000
    0.000000     0.000000    14.822723
   O  Cu
  12   24 
Direct
    0.500000     0.500000     0.395199
    0.500000     0.500000     0.604801
    0.559732     0.610238     0.662005
    0.569396     0.395128     0.662005
    0.370872     0.494634     0.662005
    0.559732     0.610238     0.337995
    0.569396     0.395128     0.337995
    0.370872     0.494634     0.337995
    0.454789     0.575737     0.431201
    0.590801     0.499789     0.431201
    0.454409     0.424474     0.431201
    0.454789     0.575737     0.568799
    0.590801     0.499789     0.568799
    0.454409     0.424474     0.568799
    0.533207     0.657145     0.500000
    0.624894     0.393768     0.500000
    0.341898     0.449087     0.500000
    0.372714     0.587735     0.418983
    0.642643     0.562153     0.418983
    0.484643     0.350112     0.418983
    0.372714     0.587735     0.581017
    0.642643     0.562153     0.581017
    0.484643     0.350112     0.581017
    0.409957     0.456605     0.414763
    0.505947     0.596697     0.414763
    0.584096     0.446698     0.414763
    0.409957     0.456605     0.585237
    0.505947     0.596697     0.585237
    0.584096     0.446698     0.585237
    0.463050     0.296404     0.500000
    0.335150     0.632575     0.500000
    0.701799     0.571021     0.500000
    0.683490     0.624280     0.500000
    0.520160     0.285025     0.500000
    0.296350     0.590695     0.500000
    0.500000     0.500000     0.500000
EA13   21.818 18.170 14.158 90.00 90.00 90.00 Sym.group:    0
1.0000
   21.818308     0.000000     0.000000
    0.000000    18.169772     0.000000
    0.000000     0.000000    14.157657
   O  Cu
  12   24 
Direct
    0.602323     0.287675     0.587141
    0.263968     0.589186     0.387230
    0.440504     0.724267     0.593598
    0.770376     0.567910     0.461753
    0.565588     0.294480     0.615398
    0.685940     0.426004     0.505680
    0.498698     0.393977     0.514357
    0.256629     0.399106     0.632531
    0.229624     0.545123     0.353950
    0.645160     0.668772     0.532746
    0.690013     0.511658     0.598014
    0.314203     0.362402     0.482873
    0.347441     0.449482     0.532534
    0.305359     0.502807     0.383566
    0.743050     0.608633     0.386292
    0.393363     0.550095     0.566788
    0.491312     0.605472     0.488708
    0.460893     0.472949     0.558019
    0.678681     0.327037     0.439977
    0.550844     0.626918     0.622627
    0.554834     0.392352     0.353872
    0.370765     0.541593     0.481845
    0.722431     0.595359     0.500658
    0.752589     0.482414     0.482024
    0.525453     0.522581     0.531934
    0.418217     0.642499     0.606815
    0.475875     0.694316     0.624264
    0.435275     0.538889     0.583567
    0.374925     0.436172     0.590568
    0.292405     0.392442     0.527482
    0.608962     0.361653     0.601399
    0.500830     0.578934     0.646128
    0.358937     0.679778     0.580504
    0.700881     0.594198     0.580012
    0.583182     0.567857     0.386290
    0.520692     0.275733     0.597325
EA14   16.208 17.438 17.438 90.00 90.00 90.00 Sym.group:    0
1.0000
   16.208073     0.000000     0.000000
    0.000000    17.437651     0.000000
    0.000000     0.000000    17.437651
   O  Cu
  12   24 
Direct
    0.682688     0.421634     0.462867
    0.682688     0.578366     0.537133
    0.317312     0.578366     0.462867
    0.317312     0.421634     0.537133
    0.682688     0.462867     0.421634
    0.682688     0.537133     0.578366
    0.317312     0.537133     0.421634
    0.317312     0.462867     0.578366
    0.642626     0.359029     0.569298
    0.642626     0.640971     0.430702
    0.357374     0.640971     0.569298
    0.357374     0.359029     0.430702
    0.642626     0.569298     0.359029
    0.642626     0.430702     0.640971
    0.357374     0.430702     0.359029
    0.357374     0.569298     0.640971
    0.500000     0.573801     0.500000
    0.500000     0.426199     0.500000
    0.500000     0.500000     0.573801
    0.500000     0.500000     0.426199
    0.309105     0.429492     0.429492
    0.309105     0.570508     0.570508
    0.690895     0.570508     0.429492
    0.690895     0.429492     0.570508
    0.576264     0.498298     0.579061
    0.576264     0.501702     0.420939
    0.423736     0.501702     0.579061
    0.423736     0.498298     0.420939
    0.576264     0.579061     0.498298
    0.576264     0.420939     0.501702
    0.423736     0.420939     0.498298
    0.423736     0.579061     0.501702
    0.500000     0.712691     0.500000
    0.500000     0.500000     0.712691
    0.500000     0.287309     0.500000
    0.500000     0.500000     0.287309
EA15   17.254 17.254 17.254 90.00 90.00 90.00 Sym.group:    0
1.0000
   17.254068     0.000000     0.000000
    0.000000    17.254068     0.000000
    0.000000     0.000000    17.254068
   O  Cu
  12   24 
Direct
    0.486114     0.583214     0.705019
    0.513886     0.416786     0.705019
    0.513886     0.583214     0.294981
    0.486114     0.416786     0.294981
    0.583214     0.705019     0.486114
    0.705019     0.486114     0.583214
    0.583214     0.294981     0.513886
    0.294981     0.486114     0.416786
    0.416786     0.294981     0.486114
    0.705019     0.513886     0.416786
    0.416786     0.705019     0.513886
    0.294981     0.513886     0.583214
    0.416786     0.513886     0.705019
    0.583214     0.486114     0.705019
    0.416786     0.486114     0.294981
    0.583214     0.513886     0.294981
    0.294981     0.416786     0.486114
    0.513886     0.294981     0.583214
    0.705019     0.416786     0.513886
    0.513886     0.705019     0.416786
    0.705019     0.583214     0.486114
    0.486114     0.294981     0.416786
    0.294981     0.583214     0.513886
    0.486114     0.705019     0.583214
    0.449612     0.449612     0.505723
    0.550388     0.550388     0.505723
    0.550388     0.449612     0.494277
    0.449612     0.550388     0.494277
    0.449612     0.505723     0.449612
    0.505723     0.449612     0.449612
    0.449612     0.494277     0.550388
    0.494277     0.449612     0.550388
    0.550388     0.494277     0.449612
    0.505723     0.550388     0.550388
    0.550388     0.505723     0.550388
    0.494277     0.550388     0.449612
EA16   15.845 16.027 13.391 90.00 90.00 90.00 Sym.group:    0
1.0000
   15.845134     0.000000     0.000000
    0.000000    16.026880     0.000000
    0.000000     0.000000    13.391278
   O  Cu
  12   24 
Direct
    0.594759     0.344245     0.625876
    0.410944     0.340989     0.625876
    0.316185     0.496745     0.625876
    0.405241     0.655755     0.625876
    0.589056     0.659011     0.625876
    0.683815     0.503255     0.625876
    0.594759     0.344245     0.374124
    0.410944     0.340989     0.374124
    0.316185     0.496745     0.374124
    0.405241     0.655755     0.374124
    0.589056     0.659011     0.374124
    0.683815     0.503255     0.374124
    0.661250     0.598674     0.583482
    0.667060     0.411274     0.583482
    0.505810     0.312600     0.583482
    0.338750     0.401326     0.583482
    0.332940     0.588726     0.583482
    0.494190     0.687400     0.583482
    0.661250     0.598674     0.416518
    0.667060     0.411274     0.416518
    0.505810     0.312600     0.416518
    0.338750     0.401326     0.416518
    0.332940     0.588726     0.416518
    0.494190     0.687400     0.416518
    0.336502     0.451980     0.536174
    0.376188     0.615977     0.536174
    0.539685     0.663997     0.536174
    0.663498     0.548020     0.536174
    0.623812     0.384023     0.536174
    0.460315     0.336003     0.536174
    0.336502     0.451980     0.463826
    0.376188     0.615977     0.463826
    0.539685     0.663997     0.463826
    0.663498     0.548020     0.463826
    0.623812     0.384023     0.463826
    0.460315     0.336003     0.463826
EA17   15.143 15.241 13.599 90.00 90.00 90.00 Sym.group:    0
1.0000
   15.143180     0.000000     0.000000
    0.000000    15.241403     0.000000
    0.000000     0.000000    13.598896
   O  Cu
  12   24 
Direct
    0.497042     0.665781     0.563507
    0.340396     0.548434     0.563507
    0.404317     0.364153     0.563507
    0.600469     0.367608     0.563507
    0.657776     0.554024     0.563507
    0.497042     0.665781     0.436493
    0.340396     0.548434     0.436493
    0.404317     0.364153     0.436493
    0.600469     0.367608     0.436493
    0.657776     0.554024     0.436493
    0.457529     0.386253     0.631588
    0.595757     0.424718     0.631588
    0.601652     0.567220     0.631588
    0.467067     0.616826     0.631588
    0.377994     0.504982     0.631588
    0.457529     0.386253     0.368412
    0.595757     0.424718     0.368412
    0.601652     0.567220     0.368412
    0.467067     0.616826     0.368412
    0.377994     0.504982     0.368412
    0.497037     0.565473     0.581470
    0.436412     0.517432     0.581470
    0.463664     0.445300     0.581470
    0.541131     0.448762     0.581470
    0.561757     0.523033     0.581470
    0.497037     0.565473     0.418530
    0.436412     0.517432     0.418530
    0.463664     0.445300     0.418530
    0.541131     0.448762     0.418530
    0.561757     0.523033     0.418530
    0.412265     0.648394     0.500000
    0.330842     0.462953     0.500000
    0.483189     0.328710     0.500000
    0.658768     0.431184     0.500000
    0.614935     0.628759     0.500000
    0.500000     0.500000     0.500000
EA18   18.867 18.258 13.148 90.00 90.00 90.00 Sym.group:    0
1.0000
   18.867103     0.000000     0.000000
    0.000000    18.257829     0.000000
    0.000000     0.000000    13.148171
   O  Cu
  12   24 
Direct
    0.453923     0.309651     0.618958
    0.363515     0.636410     0.618958
    0.682562     0.553939     0.618958
    0.444684     0.394964     0.523009
    0.439632     0.602022     0.523009
    0.615684     0.503014     0.523009
    0.345878     0.364367     0.530802
    0.463393     0.705744     0.530802
    0.690729     0.429889     0.530802
    0.734458     0.531549     0.500508
    0.409211     0.274403     0.500508
    0.356331     0.694048     0.500508
    0.384726     0.490929     0.405685
    0.550035     0.607697     0.405685
    0.565239     0.401374     0.405685
    0.656927     0.611460     0.581635
    0.514946     0.303832     0.581635
    0.328127     0.584708     0.581635
    0.657967     0.584178     0.477491
    0.491562     0.316542     0.477491
    0.350471     0.599280     0.477491
    0.669648     0.528590     0.464756
    0.439136     0.333882     0.464756
    0.391216     0.637528     0.464756
    0.622575     0.627488     0.509124
    0.545555     0.326560     0.509124
    0.331870     0.545951     0.509124
    0.266987     0.502085     0.513037
    0.618254     0.707487     0.513037
    0.614759     0.290428     0.513037
    0.471946     0.327578     0.412971
    0.369528     0.611317     0.412971
    0.658526     0.561105     0.412971
    0.462459     0.602742     0.462023
    0.604874     0.482226     0.462023
    0.432667     0.415032     0.462023
EA19   15.391 15.391 15.391 90.00 90.00 90.00 Sym.group:    0
1.0000
   15.390532     0.000000     0.000000
    0.000000    15.390532     0.000000
    0.000000     0.000000    15.390532
   O  Cu
  12   24 
Direct
    0.674475     0.392168     0.500000
    0.500000     0.674475     0.392168
    0.392168     0.500000     0.674475
    0.325525     0.607832     0.500000
    0.500000     0.325525     0.392168
    0.607832     0.500000     0.674475
    0.674475     0.607832     0.500000
    0.500000     0.325525     0.607832
    0.392168     0.500000     0.325525
    0.325525     0.392168     0.500000
    0.500000     0.674475     0.607832
    0.607832     0.500000     0.325525
    0.618907     0.426511     0.500000
    0.500000     0.618907     0.426511
    0.426511     0.500000     0.618907
    0.381093     0.573489     0.500000
    0.500000     0.381093     0.426511
    0.573489     0.500000     0.618907
    0.618907     0.573489     0.500000
    0.500000     0.381093     0.573489
    0.426511     0.500000     0.381093
    0.381093     0.426511     0.500000
    0.500000     0.618907     0.573489
    0.573489     0.500000     0.381093
    0.563681     0.460643     0.500000
    0.500000     0.563681     0.460643
    0.460643     0.500000     0.563681
    0.436319     0.539357     0.500000
    0.500000     0.436319     0.460643
    0.539357     0.500000     0.563681
    0.563681     0.539357     0.500000
    0.500000     0.436319     0.539357
    0.460643     0.500000     0.436319
    0.436319     0.460643     0.500000
    0.500000     0.563681     0.539357
    0.539357     0.500000     0.436319
EA20   18.594 15.670 14.007 90.00 90.00 90.00 Sym.group:    0
1.0000
   18.594128     0.000000     0.000000
    0.000000    15.670404     0.000000
    0.000000     0.000000    14.007001
   O  Cu
  12   24 
Direct
    0.500000     0.621846     0.500000
    0.500000     0.378154     0.500000
    0.269440     0.500000     0.500000
    0.730560     0.500000     0.500000
    0.435045     0.361236     0.587254
    0.564955     0.361236     0.412746
    0.435045     0.638764     0.412746
    0.564955     0.638764     0.587254
    0.435045     0.638764     0.587254
    0.564955     0.638764     0.412746
    0.435045     0.361236     0.412746
    0.564955     0.361236     0.587254
    0.324868     0.387023     0.466994
    0.675132     0.387023     0.533006
    0.324868     0.612977     0.533006
    0.675132     0.612977     0.466994
    0.324868     0.612977     0.466994
    0.675132     0.612977     0.533006
    0.324868     0.387023     0.533006
    0.675132     0.387023     0.466994
    0.500000     0.319711     0.500000
    0.500000     0.680289     0.500000
    0.570390     0.430134     0.568816
    0.429610     0.430134     0.431184
    0.570390     0.569866     0.431184
    0.429610     0.569866     0.568816
    0.570390     0.569866     0.568816
    0.429610     0.569866     0.431184
    0.570390     0.430134     0.431184
    0.429610     0.430134     0.568816
    0.442548     0.500000     0.613417
    0.557452     0.500000     0.386583
    0.442548     0.500000     0.386583
    0.557452     0.500000     0.613417
    0.500000     0.500000     0.357678
    0.500000     0.500000     0.642322
EA21   17.973 15.169 15.169 90.00 90.00 90.00 Sym.group:    0
1.0000
   17.972665     0.000000     0.000000
    0.000000    15.169132     0.000000
    0.000000     0.000000    15.169132
   O  Cu
  12   24 
Direct
    0.547207     0.509213     0.330276
    0.452793     0.330276     0.490787
    0.547207     0.490787     0.669724
    0.452793     0.669724     0.509213
    0.616955     0.516108     0.604467
    0.383045     0.604467     0.483892
    0.616955     0.483892     0.395533
    0.383045     0.395533     0.516108
    0.473690     0.531824     0.591611
    0.526310     0.591611     0.468176
    0.473690     0.468176     0.408389
    0.526310     0.408389     0.531824
    0.531670     0.505387     0.577339
    0.468330     0.577339     0.494613
    0.531670     0.494613     0.422661
    0.468330     0.422661     0.505387
    0.513745     0.412389     0.617310
    0.486255     0.617310     0.587611
    0.513745     0.587611     0.382690
    0.486255     0.382690     0.412389
    0.363390     0.399646     0.591930
    0.636610     0.591930     0.600354
    0.363390     0.600354     0.408070
    0.636610     0.408070     0.399646
    0.354872     0.477857     0.528055
    0.645128     0.528055     0.522143
    0.354872     0.522143     0.471945
    0.645128     0.471945     0.477857
    0.633448     0.543358     0.653843
    0.366552     0.653843     0.456642
    0.633448     0.456642     0.346157
    0.366552     0.346157     0.543358
    0.278757     0.527245     0.374308
    0.721243     0.374308     0.472755
    0.278757     0.472755     0.625692
    0.721243     0.625692     0.527245
EA22   19.779 19.779 13.464 90.00 90.00 90.00 Sym.group:    0
1.0000
   19.779471     0.000000     0.000000
    0.000000    19.779471     0.000000
    0.000000     0.000000    13.464026
   O  Cu
  12   24 
Direct
    0.620441     0.579708     0.372103
    0.579708     0.379559     0.372103
    0.379559     0.420292     0.372103
    0.420292     0.620441     0.372103
    0.644177     0.508498     0.627897
    0.491502     0.644177     0.627897
    0.355823     0.491502     0.627897
    0.508498     0.355823     0.627897
    0.620441     0.579708     0.627897
    0.579708     0.379559     0.627897
    0.379559     0.420292     0.627897
    0.420292     0.620441     0.627897
    0.644177     0.508498     0.372103
    0.491502     0.644177     0.372103
    0.355823     0.491502     0.372103
    0.508498     0.355823     0.372103
    0.406680     0.606720     0.539185
    0.606720     0.593320     0.539185
    0.593320     0.393280     0.539185
    0.393280     0.406680     0.539185
    0.489376     0.358632     0.460815
    0.641368     0.489376     0.460815
    0.510624     0.641368     0.460815
    0.358632     0.510624     0.460815
    0.406680     0.606720     0.460815
    0.606720     0.593320     0.460815
    0.593320     0.393280     0.460815
    0.393280     0.406680     0.460815
    0.489376     0.358632     0.539185
    0.641368     0.489376     0.539185
    0.510624     0.641368     0.539185
    0.358632     0.510624     0.539185
    0.253293     0.623354     0.500000
    0.623354     0.746707     0.500000
    0.746707     0.376646     0.500000
    0.376646     0.253293     0.500000
EA23   18.884 19.017 11.466 90.00 90.00 90.00 Sym.group:    0
1.0000
   18.883774     0.000000     0.000000
    0.000000    19.016826     0.000000
    0.000000     0.000000    11.466077
   O  Cu
  12   24 
Direct
    0.323532     0.340929     0.436941
    0.449504     0.731292     0.436941
    0.726964     0.427779     0.436941
    0.702572     0.375311     0.436941
    0.507459     0.736549     0.436941
    0.289970     0.388140     0.436941
    0.418902     0.657164     0.555107
    0.677616     0.491160     0.555107
    0.403482     0.351676     0.555107
    0.551080     0.669154     0.555107
    0.326937     0.459350     0.555107
    0.621984     0.371496     0.555107
    0.628067     0.311277     0.477915
    0.271375     0.484228     0.477915
    0.600557     0.704495     0.477915
    0.408487     0.291359     0.477915
    0.727718     0.525623     0.477915
    0.363795     0.683019     0.477915
    0.483420     0.680238     0.458176
    0.665481     0.424139     0.458176
    0.351099     0.395622     0.458176
    0.545679     0.416709     0.558802
    0.404520     0.502363     0.558802
    0.549800     0.580928     0.558802
    0.470274     0.409869     0.558802
    0.593468     0.519502     0.558802
    0.436258     0.570629     0.558802
    0.651161     0.682442     0.490703
    0.583532     0.278786     0.490703
    0.265307     0.538772     0.490703
    0.318053     0.652226     0.490703
    0.458213     0.267418     0.490703
    0.723734     0.580356     0.490703
    0.409777     0.436755     0.502888
    0.489953     0.609212     0.502888
    0.600270     0.454034     0.502888
EA24   24.653 16.157 13.193 90.00 90.00 90.00 Sym.group:    0
1.0000
   24.653038     0.000000     0.000000
    0.000000    16.157334     0.000000
    0.000000     0.000000    13.193443
   O  Cu
  12   24 
Direct
    0.442072     0.467755     0.508410
    0.557928     0.532245     0.508410
    0.405562     0.362969     0.488005
    0.594438     0.637031     0.488005
    0.505731     0.390040     0.617247
    0.494269     0.609960     0.617247
    0.688522     0.632557     0.498714
    0.311478     0.367443     0.498714
    0.678245     0.557588     0.514386
    0.321755     0.442412     0.514386
    0.662774     0.492149     0.595391
    0.337226     0.507851     0.595391
    0.377508     0.390741     0.431469
    0.622492     0.609259     0.431469
    0.404195     0.552836     0.527264
    0.595805     0.447164     0.527264
    0.448030     0.529063     0.379734
    0.551970     0.470937     0.379734
    0.254866     0.430415     0.507804
    0.745134     0.569585     0.507804
    0.427548     0.689924     0.512439
    0.572452     0.310076     0.512439
    0.203220     0.560816     0.484553
    0.796780     0.439184     0.484553
    0.310149     0.485008     0.449614
    0.689851     0.514992     0.449614
    0.347992     0.606730     0.576260
    0.652008     0.393270     0.576260
    0.293283     0.580429     0.438496
    0.706717     0.419571     0.438496
    0.447305     0.523336     0.450874
    0.552695     0.476664     0.450874
    0.367093     0.528437     0.444544
    0.632907     0.471563     0.444544
    0.534579     0.349566     0.574795
    0.465421     0.650434     0.574795
EA25   17.254 17.254 17.254 90.00 90.00 90.00 Sym.group:    0
1.0000
   17.254068     0.000000     0.000000
    0.000000    17.254068     0.000000
    0.000000     0.000000    17.254068
   O  Cu
  12   24 
Direct
    0.294312     0.566745     0.565584
    0.294312     0.433255     0.434416
    0.705688     0.433255     0.565584
    0.705688     0.566745     0.434416
    0.566745     0.565584     0.294312
    0.565584     0.294312     0.566745
    0.433255     0.565584     0.705688
    0.434416     0.705688     0.566745
    0.566745     0.434416     0.705688
    0.434416     0.294312     0.433255
    0.433255     0.434416     0.294312
    0.565584     0.705688     0.433255
    0.563168     0.552213     0.490505
    0.563168     0.447787     0.509495
    0.436832     0.447787     0.490505
    0.436832     0.552213     0.509495
    0.552213     0.490505     0.563168
    0.490505     0.563168     0.552213
    0.447787     0.490505     0.436832
    0.509495     0.436832     0.552213
    0.552213     0.509495     0.436832
    0.509495     0.563168     0.447787
    0.447787     0.509495     0.563168
    0.490505     0.436832     0.447787
    0.664130     0.528994     0.633018
    0.664130     0.471006     0.366982
    0.335870     0.471006     0.633018
    0.335870     0.528994     0.366982
    0.528994     0.633018     0.664130
    0.633018     0.664130     0.528994
    0.471006     0.633018     0.335870
    0.366982     0.335870     0.528994
    0.528994     0.366982     0.335870
    0.366982     0.664130     0.471006
    0.471006     0.366982     0.664130
    0.633018     0.335870     0.471006
EA26   17.086 17.546 11.554 90.00 90.00 90.00 Sym.group:    0
1.0000
   17.085978     0.000000     0.000000
    0.000000    17.546342     0.000000
    0.000000     0.000000    11.553739
   O  Cu
  12   24 
Direct
    0.293223     0.423967     0.473340
    0.328991     0.636359     0.473340
    0.535768     0.712392     0.473340
    0.706777     0.576033     0.473340
    0.671009     0.363641     0.473340
    0.464232     0.287608     0.473340
    0.681470     0.622872     0.526660
    0.481458     0.714470     0.526660
    0.299988     0.591599     0.526660
    0.318530     0.377128     0.526660
    0.518542     0.285530     0.526660
    0.700012     0.408401     0.526660
    0.678432     0.496064     0.566374
    0.585715     0.347560     0.566374
    0.407283     0.351496     0.566374
    0.321568     0.503936     0.566374
    0.414285     0.652440     0.566374
    0.592717     0.648504     0.566374
    0.402265     0.354579     0.433626
    0.580463     0.344869     0.433626
    0.678199     0.490290     0.433626
    0.597735     0.645421     0.433626
    0.419537     0.655131     0.433626
    0.321801     0.509710     0.433626
    0.571149     0.514311     0.564401
    0.548303     0.447155     0.564401
    0.477153     0.432844     0.564401
    0.428851     0.485689     0.564401
    0.451697     0.552845     0.564401
    0.522847     0.567156     0.564401
    0.447588     0.451009     0.435599
    0.517365     0.431305     0.435599
    0.569777     0.480296     0.435599
    0.552412     0.548991     0.435599
    0.482635     0.568695     0.435599
    0.430223     0.519704     0.435599
EA27   18.455 18.149 13.347 90.00 90.00 90.00 Sym.group:    0
1.0000
   18.454921     0.000000     0.000000
    0.000000    18.149483     0.000000
    0.000000     0.000000    13.347333
   O  Cu
  12   24 
Direct
    0.690417     0.628840     0.553716
    0.438336     0.723959     0.553716
    0.271472     0.509574     0.553716
    0.420426     0.281958     0.553716
    0.679348     0.355668     0.553716
    0.621725     0.365969     0.624644
    0.662977     0.576298     0.624644
    0.479000     0.681186     0.624644
    0.324045     0.535681     0.624644
    0.412253     0.340867     0.624644
    0.331710     0.525226     0.429341
    0.424401     0.345048     0.429341
    0.621568     0.379009     0.429341
    0.650732     0.580175     0.429341
    0.471589     0.670542     0.429341
    0.476329     0.536733     0.421237
    0.458329     0.488460     0.421237
    0.497916     0.456135     0.421237
    0.540383     0.484430     0.421237
    0.527042     0.534242     0.421237
    0.579445     0.529410     0.435371
    0.497042     0.585916     0.435371
    0.418728     0.523689     0.435371
    0.452728     0.428725     0.435371
    0.552057     0.432260     0.435371
    0.369729     0.421427     0.616754
    0.533235     0.349739     0.616754
    0.650811     0.485707     0.616754
    0.559972     0.641427     0.616754
    0.386253     0.601700     0.616754
    0.383343     0.477644     0.412784
    0.484861     0.380277     0.412784
    0.607301     0.448363     0.412784
    0.581454     0.587810     0.412784
    0.443041     0.605906     0.412784
    0.500000     0.500000     0.530766
EA28   18.051 17.380 13.884 90.00 90.00 90.00 Sym.group:    0
1.0000
   18.050530     0.000000     0.000000
    0.000000    17.379641     0.000000
    0.000000     0.000000    13.883743
   O  Cu
  12   24 
Direct
    0.598293     0.384462     0.453784
    0.401707     0.384462     0.546216
    0.401707     0.619522     0.453784
    0.598293     0.619522     0.546216
    0.488780     0.584854     0.417061
    0.511220     0.584854     0.582939
    0.511220     0.419130     0.417061
    0.488780     0.419130     0.582939
    0.344814     0.592090     0.421032
    0.655186     0.592090     0.578968
    0.655186     0.411894     0.421032
    0.344814     0.411894     0.578968
    0.610679     0.440488     0.573436
    0.389321     0.440488     0.426564
    0.389321     0.563496     0.573436
    0.610679     0.563496     0.426564
    0.483261     0.600071     0.639146
    0.516739     0.600071     0.360854
    0.516739     0.403914     0.639146
    0.483261     0.403914     0.360854
    0.667343     0.612587     0.459953
    0.332657     0.612587     0.540047
    0.332657     0.391397     0.459953
    0.667343     0.391397     0.540047
    0.422734     0.490748     0.373112
    0.577266     0.490748     0.626888
    0.577266     0.513236     0.373112
    0.422734     0.513236     0.626888
    0.500000     0.430278     0.500000
    0.452058     0.711732     0.481161
    0.547942     0.711732     0.518839
    0.547942     0.292252     0.481161
    0.452058     0.292252     0.518839
    0.722446     0.501992     0.500000
    0.277554     0.501992     0.500000
    0.500000     0.501992     0.500000
EA29   18.249 16.658 12.839 90.00 90.00 90.00 Sym.group:    0
1.0000
   18.249468     0.000000     0.000000
    0.000000    16.657528     0.000000
    0.000000     0.000000    12.839168
   O  Cu
  12   24 
Direct
    0.580817     0.424154     0.463561
    0.419183     0.424154     0.536439
    0.580817     0.424154     0.536439
    0.419183     0.424154     0.463561
    0.627688     0.629654     0.551058
    0.372312     0.629654     0.448942
    0.627688     0.629654     0.448942
    0.372312     0.629654     0.551058
    0.573063     0.574041     0.609788
    0.426937     0.574041     0.390212
    0.573063     0.574041     0.390212
    0.426937     0.574041     0.609788
    0.274529     0.435129     0.500000
    0.725471     0.435129     0.500000
    0.678155     0.549074     0.570761
    0.321845     0.549074     0.429239
    0.678155     0.549074     0.429239
    0.321845     0.549074     0.570761
    0.398930     0.356031     0.409832
    0.601070     0.356031     0.590168
    0.398930     0.356031     0.590168
    0.601070     0.356031     0.409832
    0.500000     0.400733     0.582461
    0.500000     0.400733     0.417539
    0.655648     0.373927     0.433197
    0.344352     0.373927     0.566803
    0.655648     0.373927     0.566803
    0.344352     0.373927     0.433197
    0.601958     0.475952     0.604318
    0.398042     0.475952     0.395682
    0.601958     0.475952     0.395682
    0.398042     0.475952     0.604318
    0.299447     0.699235     0.545603
    0.700553     0.699235     0.454397
    0.299447     0.699235     0.454397
    0.700553     0.699235     0.545603
EA30   17.822 17.440 13.614 90.00 90.00 90.00 Sym.group:    0
1.0000
   17.821747     0.000000     0.000000
    0.000000    17.439902     0.000000
    0.000000     0.000000    13.614366
   O  Cu
  12   24 
Direct
    0.369926     0.459679     0.367994
    0.422279     0.613956     0.367994
    0.582040     0.610750     0.367994
    0.628425     0.454491     0.367994
    0.497331     0.361124     0.367994
    0.422279     0.386044     0.632006
    0.582040     0.389250     0.632006
    0.628425     0.545509     0.632006
    0.497331     0.638876     0.632006
    0.369926     0.540321     0.632006
    0.369926     0.459679     0.632006
    0.422279     0.613956     0.632006
    0.582040     0.610750     0.632006
    0.628425     0.454491     0.632006
    0.497331     0.361124     0.632006
    0.422279     0.386044     0.367994
    0.582040     0.389250     0.367994
    0.628425     0.545509     0.367994
    0.497331     0.638876     0.367994
    0.369926     0.540321     0.367994
    0.659641     0.455244     0.500000
    0.507679     0.331018     0.500000
    0.345105     0.440319     0.500000
    0.396591     0.632097     0.500000
    0.590985     0.641321     0.500000
    0.507679     0.668982     0.500000
    0.345105     0.559681     0.500000
    0.396591     0.367903     0.500000
    0.590985     0.358679     0.500000
    0.659641     0.544756     0.500000
    0.718883     0.500000     0.500000
    0.567638     0.287272     0.500000
    0.322920     0.368527     0.500000
    0.322920     0.631473     0.500000
    0.567638     0.712728     0.500000
    0.500000     0.500000     0.500000
EA31   16.628 14.047 14.047 90.00 90.00 90.00 Sym.group:    0
1.0000
   16.628316     0.000000     0.000000
    0.000000    14.046983     0.000000
    0.000000     0.000000    14.046983
   O  Cu
  12   24 
Direct
    0.611907     0.514336     0.643340
    0.611907     0.643340     0.485664
    0.611907     0.485664     0.356660
    0.611907     0.356660     0.514336
    0.388093     0.514336     0.356660
    0.388093     0.643340     0.514336
    0.388093     0.485664     0.643340
    0.388093     0.356660     0.485664
    0.584014     0.577729     0.636397
    0.584014     0.636397     0.422271
    0.584014     0.422271     0.363603
    0.584014     0.363603     0.577729
    0.415986     0.577729     0.363603
    0.415986     0.636397     0.577729
    0.415986     0.422271     0.636397
    0.415986     0.363603     0.422271
    0.301293     0.538008     0.543086
    0.301293     0.543086     0.461992
    0.301293     0.461992     0.456914
    0.301293     0.456914     0.538008
    0.698707     0.538008     0.456914
    0.698707     0.543086     0.538008
    0.698707     0.461992     0.543086
    0.698707     0.456914     0.461992
    0.369899     0.560288     0.489520
    0.369899     0.489520     0.439712
    0.369899     0.439712     0.510480
    0.369899     0.510480     0.560288
    0.630101     0.560288     0.510480
    0.630101     0.489520     0.560288
    0.630101     0.439712     0.489520
    0.630101     0.510480     0.439712
    0.500000     0.363319     0.636681
    0.500000     0.636681     0.636681
    0.500000     0.636681     0.363319
    0.500000     0.363319     0.363319
EA32   17.254 17.254 17.254 90.00 90.00 90.00 Sym.group:    0
1.0000
   17.254068     0.000000     0.000000
    0.000000    17.254068     0.000000
    0.000000     0.000000    17.254068
   O  Cu
  12   24 
Direct
    0.504797     0.294183     0.500000
    0.705817     0.504797     0.500000
    0.495203     0.705817     0.500000
    0.294183     0.495203     0.500000
    0.422512     0.462007     0.313089
    0.340227     0.629832     0.500000
    0.422512     0.462007     0.686911
    0.582285     0.332175     0.413699
    0.659773     0.370168     0.500000
    0.582285     0.332175     0.586301
    0.629832     0.659773     0.500000
    0.370168     0.340227     0.500000
    0.577488     0.537993     0.686911
    0.577488     0.537993     0.313089
    0.417715     0.667825     0.413699
    0.417715     0.667825     0.586301
    0.462007     0.577488     0.686911
    0.667825     0.582285     0.413699
    0.462007     0.577488     0.313089
    0.667825     0.582285     0.586301
    0.537993     0.422512     0.686911
    0.332175     0.417715     0.586301
    0.537993     0.422512     0.313089
    0.332175     0.417715     0.413699
    0.500000     0.500000     0.451285
    0.500000     0.500000     0.548715
    0.478554     0.543741     0.500000
    0.521446     0.456259     0.500000
    0.456259     0.478554     0.500000
    0.543741     0.521446     0.500000
    0.500000     0.500000     0.656826
    0.500000     0.500000     0.343174
    0.569040     0.359189     0.500000
    0.430960     0.640811     0.500000
    0.640811     0.569040     0.500000
    0.359189     0.430960     0.500000
EA33   17.460 17.460 13.138 90.00 90.00 90.00 Sym.group:    0
1.0000
   17.460272     0.000000     0.000000
    0.000000    17.460272     0.000000
    0.000000     0.000000    13.138399
   O  Cu
  12   24 
Direct
    0.713063     0.583372     0.500000
    0.416628     0.713063     0.500000
    0.286937     0.416628     0.500000
    0.583372     0.286937     0.500000
    0.403575     0.346440     0.608635
    0.653560     0.403575     0.608635
    0.596425     0.653560     0.608635
    0.346440     0.596425     0.608635
    0.547335     0.675036     0.391365
    0.675036     0.452665     0.391365
    0.452665     0.324964     0.391365
    0.324964     0.547335     0.391365
    0.437929     0.386190     0.618675
    0.613810     0.437929     0.618675
    0.562071     0.613810     0.618675
    0.386190     0.562071     0.618675
    0.541458     0.622828     0.381325
    0.622828     0.458542     0.381325
    0.458542     0.377172     0.381325
    0.377172     0.541458     0.381325
    0.464411     0.533078     0.425991
    0.466922     0.464411     0.425991
    0.535589     0.466922     0.425991
    0.533078     0.535589     0.425991
    0.451553     0.503688     0.574009
    0.503688     0.548447     0.574009
    0.548447     0.496312     0.574009
    0.496312     0.451553     0.574009
    0.547041     0.677871     0.491641
    0.322129     0.547041     0.491641
    0.452959     0.322129     0.491641
    0.677871     0.452959     0.491641
    0.401293     0.344733     0.508359
    0.344733     0.598707     0.508359
    0.598707     0.655267     0.508359
    0.655267     0.401293     0.508359
EA34   20.144 20.144 12.014 90.00 90.00 90.00 Sym.group:    0
1.0000
   20.143691     0.000000     0.000000
    0.000000    20.143691     0.000000
    0.000000     0.000000    12.013863
   O  Cu
  12   24 
Direct
    0.331614     0.445214     0.560992
    0.445214     0.668386     0.560992
    0.668386     0.554786     0.560992
    0.554786     0.331614     0.560992
    0.657152     0.418400     0.439008
    0.581600     0.657152     0.439008
    0.342848     0.581600     0.439008
    0.418400     0.342848     0.439008
    0.622720     0.671973     0.561162
    0.671973     0.377280     0.561162
    0.377280     0.328027     0.561162
    0.328027     0.622720     0.561162
    0.407074     0.689735     0.438838
    0.310265     0.407074     0.438838
    0.592926     0.310265     0.438838
    0.689735     0.592926     0.438838
    0.594811     0.410714     0.417018
    0.410714     0.405189     0.417018
    0.405189     0.589286     0.417018
    0.589286     0.594811     0.417018
    0.391858     0.427431     0.582982
    0.572569     0.391858     0.582982
    0.608142     0.572569     0.582982
    0.427431     0.608142     0.582982
    0.250118     0.529171     0.462915
    0.529171     0.749882     0.462915
    0.749882     0.470829     0.462915
    0.470829     0.250118     0.462915
    0.751287     0.487890     0.537085
    0.512110     0.751287     0.537085
    0.248713     0.512110     0.537085
    0.487890     0.248713     0.537085
    0.278575     0.312276     0.500000
    0.312276     0.721425     0.500000
    0.721425     0.687724     0.500000
    0.687724     0.278575     0.500000
EA35   17.320 17.320 12.616 90.00 90.00 90.00 Sym.group:    0
1.0000
   17.319907     0.000000     0.000000
    0.000000    17.319907     0.000000
    0.000000     0.000000    12.616391
   O  Cu
  12   24 
Direct
    0.567437     0.299282     0.414062
    0.299282     0.432563     0.414062
    0.432563     0.700718     0.414062
    0.700718     0.567437     0.414062
    0.710737     0.479378     0.414062
    0.520622     0.710737     0.414062
    0.289263     0.520622     0.414062
    0.479378     0.289263     0.414062
    0.616167     0.645997     0.444077
    0.645997     0.383833     0.444077
    0.383833     0.354003     0.444077
    0.354003     0.616167     0.444077
    0.470177     0.312606     0.527962
    0.312606     0.529823     0.527962
    0.529823     0.687394     0.527962
    0.687394     0.470177     0.527962
    0.675904     0.571159     0.527962
    0.428841     0.675904     0.527962
    0.324096     0.428841     0.527962
    0.571159     0.324096     0.527962
    0.424797     0.608487     0.602898
    0.608487     0.575203     0.602898
    0.575203     0.391513     0.602898
    0.391513     0.424797     0.602898
    0.377391     0.548909     0.602898
    0.451091     0.377391     0.602898
    0.622609     0.451091     0.602898
    0.548909     0.622609     0.602898
    0.520382     0.320868     0.504974
    0.320868     0.479618     0.504974
    0.479618     0.679132     0.504974
    0.679132     0.520382     0.504974
    0.487583     0.609130     0.461107
    0.609130     0.512417     0.461107
    0.512417     0.390870     0.461107
    0.390870     0.487583     0.461107
EA36   15.598 14.775 15.009 90.00 90.00 90.00 Sym.group:    0
1.0000
   15.597953     0.000000     0.000000
    0.000000    14.775139     0.000000
    0.000000     0.000000    15.009470
   O  Cu
  12   24 
Direct
    0.500000     0.426326     0.528891
    0.500000     0.449320     0.439953
    0.500000     0.542353     0.433998
    0.500000     0.576855     0.519255
    0.500000     0.505146     0.577902
    0.678804     0.563636     0.440172
    0.678804     0.577467     0.541089
    0.678804     0.484241     0.585222
    0.678804     0.412794     0.511581
    0.678804     0.461863     0.421935
    0.321196     0.563636     0.440172
    0.321196     0.577467     0.541089
    0.321196     0.484241     0.585222
    0.321196     0.412794     0.511581
    0.321196     0.461863     0.421935
    0.583430     0.378101     0.598262
    0.583430     0.367396     0.416241
    0.583430     0.539946     0.349972
    0.583430     0.657292     0.491037
    0.583430     0.557266     0.644488
    0.416570     0.378101     0.598262
    0.416570     0.367396     0.416241
    0.416570     0.539946     0.349972
    0.416570     0.657292     0.491037
    0.416570     0.557266     0.644488
    0.466847     0.598371     0.364907
    0.466847     0.660917     0.550350
    0.466847     0.501081     0.666211
    0.466847     0.339751     0.552374
    0.466847     0.399880     0.366158
    0.533153     0.598371     0.364907
    0.533153     0.660917     0.550350
    0.533153     0.501081     0.666211
    0.533153     0.339751     0.552374
    0.533153     0.399880     0.366158
    0.500000     0.500000     0.500000
EA37   16.999 16.890 14.459 90.00 90.00 90.00 Sym.group:    0
1.0000
   16.999375     0.000000     0.000000
    0.000000    16.890465     0.000000
    0.000000     0.000000    14.459179
   O  Cu
  12   24 
Direct
    0.644729     0.654471     0.585273
    0.705283     0.451088     0.585273
    0.560554     0.296617     0.585273
    0.355271     0.345529     0.585273
    0.294717     0.548912     0.585273
    0.439446     0.703383     0.585273
    0.705283     0.548912     0.585273
    0.560554     0.703383     0.585273
    0.355271     0.654471     0.585273
    0.294717     0.451088     0.585273
    0.439446     0.296617     0.585273
    0.644729     0.345529     0.585273
    0.342468     0.591538     0.507978
    0.500000     0.683076     0.507978
    0.657532     0.591538     0.507978
    0.657532     0.408462     0.507978
    0.500000     0.316924     0.507978
    0.342468     0.408462     0.507978
    0.500000     0.401547     0.358638
    0.415284     0.450774     0.358638
    0.415284     0.549226     0.358638
    0.500000     0.598453     0.358638
    0.584716     0.549226     0.358638
    0.584716     0.450774     0.358638
    0.435852     0.500000     0.346493
    0.467926     0.555912     0.346493
    0.532074     0.555912     0.346493
    0.564148     0.500000     0.346493
    0.532074     0.444088     0.346493
    0.467926     0.444088     0.346493
    0.681253     0.500000     0.616346
    0.590627     0.342018     0.616346
    0.409373     0.342018     0.616346
    0.318747     0.500000     0.616346
    0.409373     0.657982     0.616346
    0.590627     0.657982     0.616346
EA38   17.825 16.996 11.707 90.00 90.00 90.00 Sym.group:    0
1.0000
   17.825337     0.000000     0.000000
    0.000000    16.996015     0.000000
    0.000000     0.000000    11.706909
   O  Cu
  12   24 
Direct
    0.402255     0.354071     0.427952
    0.330629     0.515815     0.427952
    0.428374     0.661745     0.427952
    0.597745     0.645929     0.427952
    0.669371     0.484185     0.427952
    0.571626     0.338255     0.427952
    0.612528     0.366299     0.572048
    0.666666     0.535357     0.572048
    0.554137     0.669058     0.572048
    0.387472     0.633701     0.572048
    0.333334     0.464643     0.572048
    0.445863     0.330942     0.572048
    0.402255     0.354071     0.572048
    0.330629     0.515815     0.572048
    0.428374     0.661745     0.572048
    0.597745     0.645929     0.572048
    0.669371     0.484185     0.572048
    0.571626     0.338255     0.572048
    0.612528     0.366299     0.427952
    0.666666     0.535357     0.427952
    0.554137     0.669058     0.427952
    0.387472     0.633701     0.427952
    0.333334     0.464643     0.427952
    0.445863     0.330942     0.427952
    0.432455     0.359919     0.500000
    0.350557     0.491309     0.500000
    0.418103     0.631391     0.500000
    0.567545     0.640081     0.500000
    0.649443     0.508691     0.500000
    0.581897     0.368609     0.500000
    0.401044     0.294775     0.500000
    0.281061     0.487268     0.500000
    0.380017     0.692493     0.500000
    0.598956     0.705225     0.500000
    0.718939     0.512732     0.500000
    0.619983     0.307507     0.500000
EA39   16.431 16.938 13.524 90.00 90.00 90.00 Sym.group:    0
1.0000
   16.430629     0.000000     0.000000
    0.000000    16.938391     0.000000
    0.000000     0.000000    13.524028
   O  Cu
  12   24 
Direct
    0.630104     0.545799     0.419153
    0.369896     0.545799     0.580847
    0.369896     0.463029     0.419153
    0.630104     0.463029     0.580847
    0.304918     0.454014     0.629548
    0.695082     0.454014     0.370452
    0.695082     0.554813     0.629548
    0.304918     0.554813     0.370452
    0.671399     0.558976     0.477149
    0.328601     0.558976     0.522851
    0.328601     0.449852     0.477149
    0.671399     0.449852     0.522851
    0.509942     0.672687     0.573976
    0.490058     0.672687     0.426024
    0.490058     0.336140     0.573976
    0.509942     0.336140     0.426024
    0.566999     0.304606     0.479446
    0.433001     0.304606     0.520554
    0.433001     0.704222     0.479446
    0.566999     0.704222     0.520554
    0.428941     0.350402     0.469712
    0.571059     0.350402     0.530288
    0.571059     0.658425     0.469712
    0.428941     0.658425     0.530288
    0.339954     0.574067     0.625406
    0.660046     0.574067     0.374594
    0.660046     0.434761     0.625406
    0.339954     0.434761     0.374594
    0.675195     0.498610     0.544079
    0.324805     0.498610     0.455921
    0.324805     0.510218     0.544079
    0.675195     0.510218     0.455921
    0.500000     0.345515     0.500000
    0.629507     0.504414     0.500000
    0.370493     0.504414     0.500000
    0.500000     0.504414     0.500000
EA40   16.991 15.808 15.660 90.00 90.00 90.00 Sym.group:    0
1.0000
   16.990799     0.000000     0.000000
    0.000000    15.807762     0.000000
    0.000000     0.000000    15.659904
   O  Cu
  12   24 
Direct
    0.426856     0.548477     0.679770
    0.426856     0.629990     0.367736
    0.426856     0.321533     0.452494
    0.426856     0.683067     0.476287
    0.426856     0.428811     0.671894
    0.426856     0.388122     0.351819
    0.294865     0.404610     0.515716
    0.294865     0.561178     0.575532
    0.294865     0.534212     0.408752
    0.294865     0.477814     0.405040
    0.294865     0.592561     0.528085
    0.294865     0.429625     0.566875
    0.554511     0.558823     0.470692
    0.554511     0.445445     0.463231
    0.554511     0.495732     0.566077
    0.638142     0.445742     0.463431
    0.638142     0.495756     0.565716
    0.638142     0.558502     0.470852
    0.659627     0.500000     0.500000
    0.586618     0.660306     0.420130
    0.586618     0.351324     0.399796
    0.586618     0.488370     0.680075
    0.668419     0.612688     0.384706
    0.668419     0.344742     0.459134
    0.668419     0.542569     0.656160
    0.668419     0.437705     0.649258
    0.668419     0.403095     0.370913
    0.668419     0.659200     0.479829
    0.584388     0.415745     0.541979
    0.584388     0.578143     0.552667
    0.584388     0.506113     0.405354
    0.327636     0.619275     0.440572
    0.327636     0.389378     0.425443
    0.327636     0.491347     0.633985
    0.498470     0.500000     0.500000
    0.427175     0.500000     0.500000
EA41   15.816 16.310 16.474 90.00 90.00 90.00 Sym.group:    0
1.0000
   15.815959     0.000000     0.000000
    0.000000    16.310472     0.000000
    0.000000     0.000000    16.474311
   O  Cu
  12   24 
Direct
    0.619269     0.337111     0.562223
    0.619269     0.509437     0.672604
    0.619269     0.668721     0.544452
    0.619269     0.594838     0.354869
    0.619269     0.389892     0.365852
    0.548234     0.386153     0.342128
    0.548234     0.313165     0.558413
    0.548234     0.498377     0.693974
    0.548234     0.685832     0.561469
    0.548234     0.616473     0.344016
    0.505631     0.481385     0.340667
    0.505631     0.341191     0.468292
    0.505631     0.420466     0.639736
    0.505631     0.609654     0.618070
    0.505631     0.647304     0.433235
    0.670990     0.456636     0.537628
    0.670990     0.522745     0.552459
    0.670990     0.557422     0.494794
    0.670990     0.512743     0.444323
    0.670990     0.450454     0.470796
    0.446696     0.402829     0.359635
    0.446696     0.335136     0.548120
    0.446696     0.495279     0.670105
    0.446696     0.661946     0.557011
    0.446696     0.604809     0.365129
    0.393659     0.683513     0.425263
    0.393659     0.484916     0.304110
    0.393659     0.307165     0.453670
    0.393659     0.395906     0.667257
    0.393659     0.628501     0.649700
    0.316769     0.453872     0.563279
    0.316769     0.546532     0.562988
    0.316769     0.574886     0.475650
    0.316769     0.499750     0.421963
    0.316769     0.424959     0.476120
    0.493764     0.500000     0.500000
EA42   18.699 18.984 11.478 90.00 90.00 90.00 Sym.group:    0
1.0000
   18.698695     0.000000     0.000000
    0.000000    18.983925     0.000000
    0.000000     0.000000    11.478289
   O  Cu
  12   24 
Direct
    0.267933     0.461681     0.563524
    0.732067     0.538319     0.563524
    0.732067     0.461681     0.436476
    0.267933     0.538319     0.436476
    0.267933     0.461681     0.436476
    0.732067     0.538319     0.436476
    0.732067     0.461681     0.563524
    0.267933     0.538319     0.563524
    0.637954     0.645320     0.560640
    0.362046     0.354680     0.560640
    0.362046     0.645320     0.439360
    0.637954     0.354680     0.439360
    0.637954     0.645320     0.439360
    0.362046     0.354680     0.439360
    0.362046     0.645320     0.560640
    0.637954     0.354680     0.560640
    0.448245     0.736093     0.447744
    0.551755     0.263907     0.447744
    0.551755     0.736093     0.552256
    0.448245     0.263907     0.552256
    0.448245     0.736093     0.552256
    0.551755     0.263907     0.552256
    0.551755     0.736093     0.447744
    0.448245     0.263907     0.447744
    0.663031     0.437282     0.500000
    0.336969     0.562718     0.500000
    0.336969     0.437282     0.500000
    0.663031     0.562718     0.500000
    0.589052     0.556561     0.443695
    0.410948     0.443439     0.443695
    0.410948     0.556561     0.556305
    0.589052     0.443439     0.556305
    0.589052     0.556561     0.556305
    0.410948     0.443439     0.556305
    0.410948     0.556561     0.443695
    0.589052     0.443439     0.443695
EA43   18.598 19.925 11.571 90.00 90.00 90.00 Sym.group:    0
1.0000
   18.597830     0.000000     0.000000
    0.000000    19.924825     0.000000
    0.000000     0.000000    11.571136
   O  Cu
  12   24 
Direct
    0.295161     0.552675     0.432974
    0.348708     0.360756     0.432974
    0.553547     0.308081     0.432974
    0.704839     0.447325     0.432974
    0.651292     0.639244     0.432974
    0.446453     0.691919     0.432974
    0.651292     0.360756     0.567026
    0.446453     0.308081     0.567026
    0.295161     0.447325     0.567026
    0.348708     0.639244     0.567026
    0.553547     0.691919     0.567026
    0.704839     0.552675     0.567026
    0.295161     0.552675     0.567026
    0.348708     0.360756     0.567026
    0.553547     0.308081     0.567026
    0.704839     0.447325     0.567026
    0.651292     0.639244     0.567026
    0.446453     0.691919     0.567026
    0.651292     0.360756     0.432974
    0.446453     0.308081     0.432974
    0.295161     0.447325     0.432974
    0.348708     0.639244     0.432974
    0.553547     0.691919     0.432974
    0.704839     0.552675     0.432974
    0.500000     0.370207     0.500000
    0.620424     0.435104     0.500000
    0.620424     0.564896     0.500000
    0.500000     0.629793     0.500000
    0.379576     0.564896     0.500000
    0.379576     0.435104     0.500000
    0.500000     0.251445     0.500000
    0.730614     0.375723     0.500000
    0.730614     0.624277     0.500000
    0.500000     0.748555     0.500000
    0.269386     0.624277     0.500000
    0.269386     0.375723     0.500000
EA44   15.823 15.823 15.291 90.00 90.00 90.00 Sym.group:    0
1.0000
   15.822710     0.000000     0.000000
    0.000000    15.822710     0.000000
    0.000000     0.000000    15.290823
   O  Cu
  12   24 
Direct
    0.464274     0.464274     0.403273
    0.535726     0.464274     0.403273
    0.535726     0.535726     0.403273
    0.464274     0.535726     0.403273
    0.559967     0.440033     0.672353
    0.559967     0.559967     0.672353
    0.440033     0.559967     0.672353
    0.440033     0.440033     0.672353
    0.500000     0.359618     0.463435
    0.640382     0.500000     0.463435
    0.500000     0.640382     0.463435
    0.359618     0.500000     0.463435
    0.377655     0.622345     0.558719
    0.377655     0.377655     0.558719
    0.622345     0.377655     0.558719
    0.622345     0.622345     0.558719
    0.424449     0.575551     0.407589
    0.424449     0.424449     0.407589
    0.575551     0.424449     0.407589
    0.575551     0.575551     0.407589
    0.643019     0.356981     0.454938
    0.643019     0.643019     0.454938
    0.356981     0.643019     0.454938
    0.356981     0.356981     0.454938
    0.413093     0.316633     0.591784
    0.683367     0.413093     0.591784
    0.586907     0.683367     0.591784
    0.316633     0.586907     0.591784
    0.316633     0.413093     0.591784
    0.413093     0.683367     0.591784
    0.683367     0.586907     0.591784
    0.586907     0.316633     0.591784
    0.500000     0.633365     0.356125
    0.366635     0.500000     0.356125
    0.500000     0.366635     0.356125
    0.633365     0.500000     0.356125
EA45   19.373 19.373 12.730 90.00 90.00 90.00 Sym.group:    0
1.0000
   19.373113     0.000000     0.000000
    0.000000    19.373113     0.000000
    0.000000     0.000000    12.729794
   O  Cu
  12   24 
Direct
    0.258606     0.501564     0.520641
    0.501564     0.741394     0.520641
    0.741394     0.498436     0.520641
    0.498436     0.258606     0.520641
    0.393431     0.716603     0.479359
    0.283397     0.393431     0.479359
    0.606569     0.283397     0.479359
    0.716603     0.606569     0.479359
    0.581889     0.588717     0.528583
    0.588717     0.418111     0.528583
    0.418111     0.411283     0.528583
    0.411283     0.581889     0.528583
    0.455818     0.387642     0.471417
    0.612358     0.455818     0.471417
    0.544182     0.612358     0.471417
    0.387642     0.544182     0.471417
    0.666524     0.622473     0.532617
    0.622473     0.333476     0.532617
    0.333476     0.377527     0.532617
    0.377527     0.666524     0.532617
    0.462305     0.296754     0.467383
    0.703246     0.462305     0.467383
    0.537695     0.703246     0.467383
    0.296754     0.537695     0.467383
    0.410142     0.567911     0.606435
    0.567911     0.589858     0.606435
    0.589858     0.432089     0.606435
    0.432089     0.410142     0.606435
    0.399726     0.551298     0.393565
    0.448702     0.399726     0.393565
    0.600274     0.448702     0.393565
    0.551298     0.600274     0.393565
    0.545092     0.303322     0.500000
    0.303322     0.454908     0.500000
    0.454908     0.696678     0.500000
    0.696678     0.545092     0.500000
EA46   18.331 15.967 14.061 90.00 90.00 90.00 Sym.group:    0
1.0000
   18.330674     0.000000     0.000000
    0.000000    15.966758     0.000000
    0.000000     0.000000    14.061047
   O  Cu
  12   24 
Direct
    0.427436     0.500000     0.631031
    0.572564     0.500000     0.368969
    0.726688     0.457023     0.492389
    0.273312     0.457023     0.507611
    0.726688     0.542977     0.492389
    0.273312     0.542977     0.507611
    0.703261     0.402387     0.496906
    0.296739     0.402387     0.503094
    0.703261     0.597613     0.496906
    0.296739     0.597613     0.503094
    0.592914     0.332791     0.421709
    0.407086     0.332791     0.578291
    0.592914     0.667209     0.421709
    0.407086     0.667209     0.578291
    0.700019     0.500000     0.571044
    0.299981     0.500000     0.428956
    0.500000     0.686223     0.500000
    0.500000     0.313777     0.500000
    0.487744     0.431015     0.416976
    0.512256     0.431015     0.583024
    0.487744     0.568985     0.416976
    0.512256     0.568985     0.583024
    0.498214     0.637587     0.591390
    0.501786     0.637587     0.408610
    0.498214     0.362413     0.591390
    0.501786     0.362413     0.408610
    0.377301     0.679905     0.426187
    0.622699     0.679905     0.573813
    0.377301     0.320095     0.426187
    0.622699     0.320095     0.573813
    0.426055     0.398796     0.643697
    0.573945     0.398796     0.356303
    0.426055     0.601204     0.643697
    0.573945     0.601204     0.356303
    0.650102     0.500000     0.606488
    0.349898     0.500000     0.393512
EA47   18.377 17.765 14.982 90.00 90.00 90.00 Sym.group:    0
1.0000
   18.377341     0.000000     0.000000
    0.000000    17.765161     0.000000
    0.000000     0.000000    14.981775
   O  Cu
  12   24 
Direct
    0.510803     0.591382     0.470133
    0.418096     0.463987     0.470133
    0.571102     0.444631     0.470133
    0.377625     0.574875     0.466295
    0.498504     0.352931     0.466295
    0.623871     0.572194     0.466295
    0.496443     0.550317     0.524993
    0.459654     0.471655     0.524993
    0.543903     0.478028     0.524993
    0.291713     0.514788     0.484272
    0.591763     0.306009     0.484272
    0.616523     0.679204     0.484272
    0.490340     0.637966     0.589035
    0.389328     0.422363     0.589035
    0.620332     0.439671     0.589035
    0.592073     0.500569     0.610075
    0.453487     0.582201     0.610075
    0.454440     0.417230     0.610075
    0.445858     0.471730     0.394809
    0.550738     0.465631     0.394809
    0.503404     0.562639     0.394809
    0.494807     0.352259     0.614074
    0.626282     0.569218     0.614074
    0.378911     0.578523     0.614074
    0.336274     0.420735     0.544603
    0.648222     0.392956     0.544603
    0.515504     0.686309     0.544603
    0.500000     0.500000     0.609241
    0.491675     0.633161     0.384950
    0.392684     0.425961     0.384950
    0.615642     0.440878     0.384950
    0.637606     0.310579     0.457573
    0.589775     0.717987     0.457573
    0.272618     0.471433     0.457573
    0.500000     0.500000     0.334406
    0.500000     0.500000     0.433915
EA48   16.024 16.082 14.730 90.00 90.00 90.00 Sym.group:    0
1.0000
   16.023724     0.000000     0.000000
    0.000000    16.082346     0.000000
    0.000000     0.000000    14.729745
   O  Cu
  12   24 
Direct
    0.596642     0.423851     0.428726
    0.457177     0.384891     0.428726
    0.376892     0.505008     0.428726
    0.466738     0.618204     0.428726
    0.602551     0.568046     0.428726
    0.596642     0.423851     0.571274
    0.457177     0.384891     0.571274
    0.376892     0.505008     0.571274
    0.466738     0.618204     0.571274
    0.602551     0.568046     0.571274
    0.415817     0.483024     0.659872
    0.457781     0.574525     0.659872
    0.558091     0.563036     0.659872
    0.578121     0.464433     0.659872
    0.490190     0.414983     0.659872
    0.415817     0.483024     0.340128
    0.457781     0.574525     0.340128
    0.558091     0.563036     0.340128
    0.578121     0.464433     0.340128
    0.490190     0.414983     0.340128
    0.312661     0.535461     0.546964
    0.475958     0.688478     0.546964
    0.672480     0.581025     0.546964
    0.630640     0.361598     0.546964
    0.408260     0.333438     0.546964
    0.312661     0.535461     0.453036
    0.475958     0.688478     0.453036
    0.672480     0.581025     0.453036
    0.630640     0.361598     0.453036
    0.408260     0.333438     0.453036
    0.497737     0.574533     0.500000
    0.570445     0.525176     0.500000
    0.545800     0.441027     0.500000
    0.457861     0.438376     0.500000
    0.428156     0.520888     0.500000
    0.500000     0.500000     0.500000
EA49   23.427 19.878 11.425 90.00 90.00 90.00 Sym.group:    0
1.0000
   23.426515     0.000000     0.000000
    0.000000    19.877822     0.000000
    0.000000     0.000000    11.424550
   O  Cu
  12   24 
Direct
    0.265951     0.539158     0.541638
    0.734049     0.539158     0.458362
    0.265951     0.460842     0.541638
    0.734049     0.460842     0.458362
    0.626560     0.309384     0.477707
    0.373440     0.309384     0.522293
    0.626560     0.690616     0.477707
    0.373440     0.690616     0.522293
    0.233933     0.525372     0.458139
    0.766067     0.525372     0.541861
    0.233933     0.474628     0.458139
    0.766067     0.474628     0.541861
    0.602379     0.595665     0.535910
    0.397621     0.595665     0.464090
    0.602379     0.404335     0.535910
    0.397621     0.404335     0.464090
    0.422584     0.747960     0.506576
    0.577416     0.747960     0.493424
    0.422584     0.252040     0.506576
    0.577416     0.252040     0.493424
    0.454220     0.683672     0.545129
    0.545780     0.683672     0.454871
    0.454220     0.316328     0.545129
    0.545780     0.316328     0.454871
    0.687917     0.276094     0.506690
    0.312083     0.276094     0.493310
    0.687917     0.723906     0.506690
    0.312083     0.723906     0.493310
    0.367308     0.447449     0.561471
    0.632692     0.447449     0.438529
    0.367308     0.552551     0.561471
    0.632692     0.552551     0.438529
    0.786140     0.371891     0.525258
    0.213860     0.371891     0.474742
    0.786140     0.628109     0.525258
    0.213860     0.628109     0.474742
EA50   18.431 18.431 12.570 90.00 90.00 90.00 Sym.group:    0
1.0000
   18.430879     0.000000     0.000000
    0.000000    18.430879     0.000000
    0.000000     0.000000    12.569773
   O  Cu
  12   24 
Direct
    0.568158     0.447767     0.601425
    0.552233     0.568158     0.398575
    0.431842     0.552233     0.601425
    0.447767     0.431842     0.398575
    0.476214     0.508587     0.419290
    0.491413     0.476214     0.580710
    0.523786     0.491413     0.419290
    0.508587     0.523786     0.580710
    0.434469     0.682712     0.519626
    0.317288     0.434469     0.480374
    0.565531     0.317288     0.519626
    0.682712     0.565531     0.480374
    0.620979     0.604400     0.472072
    0.395600     0.620979     0.527928
    0.379021     0.395600     0.472072
    0.604400     0.379021     0.527928
    0.316032     0.655066     0.488382
    0.344934     0.316032     0.511618
    0.683968     0.344934     0.488382
    0.655066     0.683968     0.511618
    0.514473     0.335734     0.433519
    0.664266     0.514473     0.566481
    0.485527     0.664266     0.433519
    0.335734     0.485527     0.566481
    0.527237     0.397110     0.588843
    0.602890     0.527237     0.411157
    0.472763     0.602890     0.588843
    0.397110     0.472763     0.411157
    0.390570     0.296889     0.552176
    0.703111     0.390570     0.447824
    0.609430     0.703111     0.552176
    0.296889     0.609430     0.447824
    0.271826     0.317742     0.536336
    0.682258     0.271826     0.463664
    0.728174     0.682258     0.536336
    0.317742     0.728174     0.463664
EA51    7.919  7.919 17.919 90.00 90.00 90.00 Sym.group:    0
1.0000
    7.918809     0.000000     0.000000
    0.000000     7.918809     0.000000
    0.000000     0.000000    17.918809
   O  Cu
  12   24 
Direct
    0.500000     0.827330     0.644656
    0.500000     0.172670     0.644656
    0.500000     0.827330     0.355344
    0.500000     0.172670     0.355344
    0.827330     0.500000     0.644656
    0.827330     0.500000     0.355344
    0.172670     0.500000     0.644656
    0.172670     0.500000     0.355344
    0.827330     0.827330     0.500000
    0.172670     0.827330     0.500000
    0.827330     0.172670     0.500000
    0.172670     0.172670     0.500000
    0.677424     0.700081     0.720964
    0.322576     0.299919     0.720964
    0.322576     0.700081     0.279036
    0.677424     0.299919     0.279036
    1.000000     0.677424     0.588421
    1.000000     0.322576     0.411579
    0.000000     0.322576     0.588421
    0.000000     0.677424     0.411579
    0.700081     1.000000     0.578409
    0.299919     1.000000     0.421591
    0.700081     0.000000     0.421591
    0.299919     0.000000     0.578409
    0.700081     0.677424     0.279036
    0.299919     0.322576     0.279036
    0.700081     0.322576     0.720964
    0.299919     0.677424     0.720964
    0.677424     1.000000     0.411579
    0.322576     1.000000     0.588421
    0.322576     0.000000     0.411579
    0.677424     0.000000     0.588421
    1.000000     0.700081     0.421591
    1.000000     0.299919     0.578409
    0.000000     0.700081     0.578409
    0.000000     0.299919     0.421591
EA52    6.643  6.880 21.539 90.00 90.00 90.00 Sym.group:    0
1.0000
    6.642843     0.000000     0.000000
    0.000000     6.879536     0.000000
    0.000000     0.000000    21.539177
   O  Cu
  12   24 
Direct
    0.637682     0.771373     0.532486
    0.674548     0.249180     0.532486
    0.362318     0.228627     0.467514
    0.187769     0.479448     0.532486
    0.325452     0.750820     0.467514
    0.812231     0.520552     0.467514
    0.746602     0.804077     0.767865
    0.649421     0.141745     0.767865
    0.253398     0.195923     0.232135
    0.103977     0.554177     0.767865
    0.350579     0.858255     0.232135
    0.896023     0.445823     0.232135
    0.530137     0.856039     0.569088
    0.804257     0.296779     0.569088
    0.469863     0.143961     0.430912
    0.165606     0.347181     0.569088
    0.195743     0.703221     0.430912
    0.834394     0.652819     0.430912
    0.507156     0.659730     0.645591
    0.639681     0.414151     0.645591
    0.492844     0.340270     0.354409
    0.353163     0.426119     0.645591
    0.360319     0.585849     0.354409
    0.646837     0.573881     0.354409
    0.920935     0.735105     0.600390
    0.500394     0.030449     0.600390
    0.079065     0.264895     0.399610
    0.078671     0.734445     0.600390
    0.499606     0.969551     0.399610
    0.921329     0.265555     0.399610
    0.896883     0.836230     0.674701
    0.603117     0.000000     0.674701
    0.103117     0.163770     0.325299
    1.000000     0.663770     0.674701
    0.396883     1.000000     0.325299
    1.000000     0.336230     0.325299
EA53    8.447  9.694 18.098 90.00 90.00 90.00 Sym.group:    0
1.0000
    8.446839     0.000000     0.000000
    0.000000     9.694004     0.000000
    0.000000     0.000000    18.097742
   O  Cu
  12   24 
Direct
    0.685087     0.768729     0.551148
    0.685087     0.231271     0.448852
    0.314913     0.231271     0.551148
    0.314913     0.768729     0.448852
    0.500000     0.764418     0.500000
    0.500000     0.235582     0.500000
    0.735681     0.500000     0.500000
    0.264319     0.500000     0.500000
    0.500000     0.500000     0.552249
    0.500000     0.500000     0.447751
    0.574026     0.500000     0.500000
    0.425974     0.500000     0.500000
    1.000000     0.601854     0.606758
    1.000000     0.398146     0.393242
    0.000000     0.398146     0.606758
    0.000000     0.601854     0.393242
    0.991180     0.500000     0.500000
    0.008820     0.500000     0.500000
    0.613723     0.797164     0.624074
    0.613723     0.202836     0.375926
    0.386277     0.202836     0.624074
    0.386277     0.797164     0.375926
    0.933835     1.000000     0.714317
    0.933835     0.000000     0.285683
    0.066165     0.000000     0.714317
    0.066165     1.000000     0.285683
    0.757213     0.881286     0.639737
    0.757213     0.118714     0.360263
    0.242787     0.118714     0.639737
    0.242787     0.881286     0.360263
    0.630213     0.972062     0.692194
    0.630213     0.027938     0.307806
    0.369787     0.027938     0.692194
    0.369787     0.972062     0.307806
    0.500000     0.500000     0.723722
    0.500000     0.500000     0.276278
EA54   11.159  8.201 12.411 90.00 90.00 90.00 Sym.group:    0
1.0000
   11.158706     0.000000     0.000000
    0.000000     8.201167     0.000000
    0.000000     0.000000    12.411277
   O  Cu
  12   24 
Direct
    0.500000     0.698140     0.589319
    0.500000     0.301860     0.589319
    1.000000     0.500000     0.597141
    0.000000     0.500000     0.597141
    0.972726     0.846994     0.562032
    0.027274     0.846994     0.562032
    0.027274     0.153006     0.562032
    0.972726     0.153006     0.562032
    0.936886     0.885045     0.402859
    0.063114     0.885045     0.402859
    0.063114     0.114955     0.402859
    0.936886     0.114955     0.402859
    0.640405     0.641589     0.485729
    0.359595     0.641589     0.485729
    0.359595     0.358411     0.485729
    0.640405     0.358411     0.485729
    0.500000     0.877868     0.413921
    0.500000     0.122132     0.413921
    0.916988     0.589865     0.591951
    0.083012     0.589865     0.591951
    0.083012     0.410135     0.591951
    0.916988     0.410135     0.591951
    0.757074     0.500000     0.565152
    0.242926     0.500000     0.565152
    0.831992     1.000000     0.503282
    0.168008     1.000000     0.503282
    0.168008     0.000000     0.503282
    0.831992     0.000000     0.503282
    0.500000     0.875449     0.574353
    0.500000     0.124551     0.574353
    0.673356     0.896120     0.548333
    0.326644     0.896120     0.548333
    0.326644     0.103880     0.548333
    0.673356     0.103880     0.548333
    0.852022     0.500000     0.465848
    0.147978     0.500000     0.465848
EA55    9.374  8.350  9.750 90.00 90.00 90.00 Sym.group:    0
1.0000
    9.374382     0.000000     0.000000
    0.000000     8.350292     0.000000
    0.000000     0.000000     9.749972
   O  Cu
  12   24 
Direct
    0.146168     0.174801     0.494158
    0.341823     0.248346     0.180304
    0.695655     0.451309     0.186144
    0.216375     0.190507     0.293967
    0.825977     0.544721     0.341224
    0.542352     0.357464     0.135191
    0.693798     0.501419     0.643898
    0.864057     0.499687     0.528627
    0.255854     0.152120     0.508506
    0.649814     0.847880     0.664105
    0.191847     0.383121     0.507964
    0.709558     0.616012     0.678484
    0.157322     0.325980     0.394457
    0.678999     0.609852     0.277096
    0.462720     0.799091     0.355744
    0.182176     0.646432     0.418858
    0.308430     0.704643     0.304464
    0.221486     0.702542     0.492436
    0.258673     0.710862     0.386399
    0.364889     0.768659     0.362504
    0.433917     0.818137     0.444644
    0.327380     0.188176     0.272001
    0.627494     0.351484     0.204484
    0.822536     0.491287     0.436578
    0.424732     0.376732     0.786581
    0.360229     0.598732     0.777843
    0.459011     0.570789     0.864303
    0.293658     0.398111     0.804942
    0.279401     0.469756     0.720586
    0.520165     0.508677     0.796430
    0.750009     0.462659     0.710790
    0.135943     0.533333     0.525820
    0.703870     0.718230     0.571704
    0.753263     0.594977     0.601902
    0.663389     0.617132     0.564828
    0.478639     0.505245     0.502542
EA56    9.340  9.100  8.791 90.00 90.00 90.00 Sym.group:    0
1.0000
    9.340120     0.000000     0.000000
    0.000000     9.100028     0.000000
    0.000000     0.000000     8.790521
   O  Cu
  12   24 
Direct
    0.148870     0.431885     0.387170
    0.300015     0.747842     0.315475
    0.232301     0.344060     0.342162
    0.391894     0.696828     0.238755
    0.578137     0.754504     0.399390
    0.377494     0.592839     0.730815
    0.865736     0.343146     0.597281
    0.134264     0.478717     0.535913
    0.347624     0.817801     0.708606
    0.273821     0.691543     0.509404
    0.274524     0.565295     0.705619
    0.646423     0.660808     0.709028
    0.338924     0.279552     0.476548
    0.388091     0.518875     0.255709
    0.728220     0.732856     0.494123
    0.407747     0.289753     0.318032
    0.544932     0.598489     0.221190
    0.526939     0.424145     0.140231
    0.759056     0.720907     0.302742
    0.475558     0.139368     0.421177
    0.702971     0.256809     0.414610
    0.716745     0.363274     0.295720
    0.808084     0.486717     0.350025
    0.532191     0.284401     0.801265
    0.399204     0.191821     0.639854
    0.347913     0.232831     0.779329
    0.565128     0.150922     0.744168
    0.548039     0.177127     0.622098
    0.391657     0.340917     0.781763
    0.358904     0.609379     0.838727
    0.298465     0.655636     0.669234
    0.239227     0.607564     0.550515
    0.468426     0.251855     0.708315
    0.332953     0.593322     0.581422
    0.514667     0.484824     0.500768
    0.221301     0.628436     0.362154
EA57   10.071  8.713  9.258 90.00 90.00 90.00 Sym.group:    0
1.0000
   10.071474     0.000000     0.000000
    0.000000     8.712621     0.000000
    0.000000     0.000000     9.257526
   O  Cu
  12   24 
Direct
    0.265157     0.407263     0.230947
    0.262403     0.205434     0.479963
    0.464082     0.850233     0.359474
    0.187813     0.704072     0.447923
    0.185058     0.502243     0.696939
    0.458573     0.446576     0.857502
    0.833532     0.447593     0.513488
    0.685857     0.581114     0.518691
    0.504880     0.235774     0.843052
    0.786296     0.705464     0.391355
    0.881839     0.646448     0.574840
    0.812187     0.295928     0.552077
    0.368038     0.556834     0.182983
    0.198288     0.350337     0.381835
    0.355898     0.195079     0.626901
    0.316742     0.753682     0.326885
    0.146992     0.547186     0.525736
    0.304602     0.391928     0.770802
    0.306603     0.556985     0.276928
    0.225348     0.363597     0.489192
    0.429861     0.263965     0.681086
    0.284376     0.642283     0.339283
    0.203121     0.448895     0.551547
    0.407633     0.349263     0.743440
    0.584027     0.554404     0.788032
    0.543642     0.810729     0.460659
    0.801072     0.407190     0.637799
    0.768907     0.563770     0.682742
    0.767227     0.652554     0.604810
    0.513254     0.765771     0.256089
    0.732880     0.452763     0.726861
    0.752040     0.349712     0.850375
    0.614946     0.846846     0.190946
    0.746897     0.668109     0.700831
    0.647003     0.671562     0.538169
    0.279383     0.592787     0.614519
EA58   11.473  9.786  8.721 90.00 90.00 90.00 Sym.group:    0
1.0000
   11.472989     0.000000     0.000000
    0.000000     9.785806     0.000000
    0.000000     0.000000     8.721010
   O  Cu
  12   24 
Direct
    0.243143     0.389510     0.589320
    0.452316     0.719716     0.257469
    0.201739     0.683503     0.474968
    0.419165     0.203771     0.847302
    0.153200     0.785538     0.375678
    0.234668     0.486633     0.480587
    0.636808     0.709045     0.159980
    0.668122     0.184134     0.649225
    0.811962     0.441385     0.377157
    0.771757     0.694473     0.376146
    0.794323     0.391299     0.657811
    0.529597     0.245033     0.849617
    0.375794     0.726550     0.422978
    0.367253     0.419174     0.698716
    0.130328     0.511040     0.344634
    0.182384     0.461601     0.694833
    0.495107     0.844565     0.297467
    0.194056     0.595274     0.687583
    0.208116     0.241964     0.764176
    0.309065     0.859918     0.194899
    0.124186     0.422121     0.537746
    0.277745     0.588866     0.495343
    0.358714     0.294017     0.426798
    0.386449     0.514969     0.224740
    0.650871     0.805458     0.295884
    0.682185     0.280547     0.785129
    0.826025     0.537798     0.513061
    0.757694     0.598060     0.240242
    0.780259     0.294886     0.521907
    0.515534     0.148620     0.713713
    0.566857     0.306976     0.668681
    0.705011     0.443423     0.511824
    0.638154     0.636447     0.343143
    0.628033     0.130355     0.823027
    0.892600     0.391654     0.522644
    0.764569     0.761299     0.199617
EA59    8.899  8.945 11.066 90.00 90.00 90.00 Sym.group:    0
1.0000
    8.899206     0.000000     0.000000
    0.000000     8.945368     0.000000
    0.000000     0.000000    11.066222
   O  Cu
  12   24 
Direct
    0.290232     0.561320     0.251033
    0.569830     0.848060     0.417382
    0.422085     0.145781     0.445563
    0.679724     0.415797     0.239664
    0.565807     0.297742     0.248050
    0.845405     0.584482     0.414399
    0.596470     0.384842     0.807172
    0.538559     0.533095     0.680053
    0.207097     0.176257     0.514164
    0.677172     0.658197     0.772260
    0.519583     0.558242     0.883428
    0.434193     0.702258     0.751950
    0.146510     0.409360     0.448546
    0.404149     0.679376     0.242646
    0.444989     0.362733     0.266921
    0.734751     0.660775     0.384905
    0.526843     0.615813     0.255592
    0.253446     0.330235     0.415036
    0.360559     0.443488     0.267835
    0.650321     0.741530     0.385819
    0.611273     0.535058     0.254678
    0.337876     0.249481     0.414123
    0.182992     0.177245     0.165670
    0.774991     0.790753     0.122086
    0.241489     0.478656     0.616693
    0.534416     0.782748     0.559648
    0.466458     0.330751     0.788921
    0.392535     0.477964     0.780944
    0.460599     0.575780     0.777964
    0.352954     0.369798     0.740564
    0.244190     0.248430     0.765181
    0.823339     0.850654     0.594587
    0.355297     0.578066     0.773422
    0.497642     0.622106     0.655033
    0.639441     0.556512     0.732165
    0.555011     0.637267     0.733079
EA60   10.352  9.719  9.139 90.00 90.00 90.00 Sym.group:    0
1.0000
   10.352382     0.000000     0.000000
    0.000000     9.718685     0.000000
    0.000000     0.000000     9.138892
   O  Cu
  12   24 
Direct
    0.621486     0.257871     0.550690
    0.417739     0.311728     0.774843
    0.306349     0.282149     0.853362
    0.873260     0.414668     0.379929
    0.501820     0.260918     0.597165
    0.697946     0.796683     0.142298
    0.128280     0.805668     0.472337
    0.824099     0.613538     0.152644
    0.236868     0.862827     0.275470
    0.451665     0.728135     0.366097
    0.299594     0.549767     0.617919
    0.707795     0.525695     0.397397
    0.346700     0.477600     0.683923
    0.708584     0.441265     0.162981
    0.401027     0.136523     0.634915
    0.673565     0.260829     0.682857
    0.611048     0.326066     0.781227
    0.129468     0.408741     0.754854
    0.814454     0.211307     0.513101
    0.580226     0.146619     0.633095
    0.465937     0.348218     0.658196
    0.289734     0.343564     0.438192
    0.405332     0.499220     0.222831
    0.532850     0.280344     0.346058
    0.268021     0.572926     0.504021
    0.502560     0.665827     0.280651
    0.351685     0.864878     0.309482
    0.831713     0.582646     0.280133
    0.132060     0.680706     0.479239
    0.586068     0.754418     0.142963
    0.734155     0.570431     0.493297
    0.510272     0.774699     0.441199
    0.345653     0.627620     0.672131
    0.445399     0.599479     0.222607
    0.722827     0.678311     0.194417
    0.226019     0.789221     0.388892
EA61    6.619  9.945  9.670 90.00 90.00 90.00 Sym.group:    0
1.0000
    6.618962     0.000000     0.000000
    0.000000     9.944523     0.000000
    0.000000     0.000000     9.669816
   O  Cu
  12   24 
Direct
    0.389114     0.876910     0.723881
    0.202274     0.687838     0.132558
    0.483329     0.259640     0.126381
    0.272366     0.849314     0.256934
    0.332711     0.700165     0.462504
    0.374560     0.440036     0.294331
    0.689952     0.645241     0.672813
    0.622167     0.390246     0.241667
    0.691943     0.855508     0.610969
    0.802759     0.217446     0.263629
    0.592034     0.663355     0.765036
    0.502655     0.327517     0.196935
    0.441818     0.534987     0.274344
    0.469725     0.724868     0.523314
    0.225046     0.818165     0.365630
    0.355498     0.333685     0.165788
    0.349910     0.617965     0.140057
    0.457780     0.862446     0.615942
    0.403730     0.280165     0.551911
    0.381773     0.508399     0.731334
    0.206485     0.666911     0.510401
    0.228442     0.438678     0.330978
    0.274069     0.731568     0.237311
    0.489315     0.776910     0.747121
    0.524402     0.280204     0.756706
    0.802537     0.310436     0.671593
    0.734467     0.177483     0.665008
    0.652050     0.341447     0.847175
    0.703932     0.418522     0.770455
    0.596061     0.204551     0.619906
    0.798985     0.670412     0.729108
    0.680188     0.399355     0.148882
    0.588661     0.275152     0.248409
    0.585619     0.732050     0.696180
    0.509689     0.312896     0.330549
    0.504511     0.486647     0.490342
EA62    9.082  9.781  9.322 90.00 90.00 90.00 Sym.group:    0
1.0000
    9.082063     0.000000     0.000000
    0.000000     9.781170     0.000000
    0.000000     0.000000     9.321824
   O  Cu
  12   24 
Direct
    0.283435     0.474679     0.837912
    0.137999     0.469304     0.478619
    0.365699     0.380606     0.844222
    0.187384     0.356911     0.450093
    0.561800     0.810145     0.285389
    0.369774     0.623684     0.842286
    0.507544     0.618867     0.316236
    0.327046     0.582711     0.652506
    0.636421     0.601159     0.160127
    0.197140     0.739090     0.674501
    0.153127     0.606222     0.824603
    0.470932     0.746437     0.129512
    0.528745     0.444576     0.813771
    0.304976     0.314376     0.591670
    0.331009     0.459682     0.264479
    0.488956     0.287614     0.755299
    0.328571     0.262075     0.412267
    0.411119     0.308160     0.155778
    0.669578     0.307812     0.821142
    0.390917     0.139127     0.562316
    0.722456     0.270811     0.559164
    0.608826     0.197255     0.466562
    0.608158     0.257496     0.301451
    0.792017     0.376514     0.451284
    0.498606     0.499932     0.509247
    0.212504     0.607857     0.418470
    0.390836     0.500997     0.852064
    0.433050     0.832543     0.338654
    0.352961     0.726619     0.269080
    0.199678     0.542351     0.719749
    0.418760     0.658968     0.213727
    0.320013     0.770672     0.365494
    0.211961     0.869277     0.417748
    0.311922     0.653221     0.222772
    0.262258     0.561657     0.585135
    0.464591     0.540480     0.291221
EA63   10.050 10.263  5.977 90.00 90.00 90.00 Sym.group:    0
1.0000
   10.049870     0.000000     0.000000
    0.000000    10.263420     0.000000
    0.000000     0.000000     5.977394
   O  Cu
  12   24 
Direct
    0.538928     0.264857     0.318369
    0.671904     0.331400     0.660662
    0.731803     0.244311     0.207601
    0.583705     0.145170     0.760093
    0.553563     0.185233     0.438275
    0.723795     0.279612     0.533550
    0.398177     0.796431     0.764960
    0.482420     0.688246     0.530883
    0.611857     0.809774     0.550534
    0.435295     0.884895     0.490805
    0.142545     0.266724     0.468930
    0.261581     0.776263     0.243364
    0.250512     0.338052     0.660136
    0.230005     0.375566     0.347365
    0.136876     0.436433     0.466442
    0.246054     0.221589     0.542140
    0.318642     0.257519     0.432922
    0.206011     0.481244     0.574089
    0.517956     0.194067     0.221521
    0.741112     0.306907     0.752286
    0.652054     0.229748     0.579183
    0.631417     0.223015     0.391981
    0.604936     0.299079     0.489567
    0.295347     0.586228     0.258051
    0.654766     0.606596     0.244625
    0.827939     0.516315     0.644868
    0.296398     0.756709     0.679477
    0.341073     0.760995     0.433940
    0.437762     0.779344     0.401200
    0.787232     0.569380     0.479548
    0.265633     0.702796     0.507921
    0.126422     0.697369     0.522421
    0.852039     0.682254     0.492249
    0.379486     0.763370     0.281375
    0.516653     0.671868     0.385744
    0.756441     0.787066     0.546976
EA64   11.507 11.295  6.698 90.00 90.00 90.00 Sym.group:    0
1.0000
   11.506608     0.000000     0.000000
    0.000000    11.294513     0.000000
    0.000000     0.000000     6.697873
   O  Cu
  12   24 
Direct
    0.734162     0.420656     0.392894
    0.313821     0.713704     0.284417
    0.316128     0.733566     0.483539
    0.135361     0.548273     0.672857
    0.277105     0.211650     0.762197
    0.864639     0.451727     0.675306
    0.722895     0.788350     0.585966
    0.358257     0.836624     0.584741
    0.169684     0.341888     0.729401
    0.195072     0.704927     0.627051
    0.525387     0.863039     0.571732
    0.804928     0.295073     0.721112
    0.590749     0.748194     0.215676
    0.629265     0.157080     0.478710
    0.099327     0.421875     0.388894
    0.718798     0.637684     0.258247
    0.130230     0.587761     0.312799
    0.593902     0.775334     0.487767
    0.351252     0.544300     0.462435
    0.562356     0.489578     0.475445
    0.456475     0.580958     0.440243
    0.357009     0.695933     0.394106
    0.285885     0.898295     0.307225
    0.184398     0.426575     0.548516
    0.385434     0.182836     0.609894
    0.698216     0.232271     0.585547
    0.256908     0.312545     0.797669
    0.552501     0.200764     0.818972
    0.796727     0.397863     0.755650
    0.745359     0.706743     0.671024
    0.449767     0.818524     0.649721
    0.205541     0.621425     0.713043
    0.509467     0.316573     0.240928
    0.690548     0.408081     0.504996
    0.137511     0.101848     0.672571
    0.541898     0.379768     0.525818
EA65    9.620  8.661 10.573 90.00 90.00 90.00 Sym.group:    0
1.0000
    9.620211     0.000000     0.000000
    0.000000     8.661245     0.000000
    0.000000     0.000000    10.572769
   O  Cu
  12   24 
Direct
    0.436649     0.685485     0.755874
    0.389414     0.586130     0.306354
    0.206386     0.678314     0.523409
    0.137484     0.781842     0.601763
    0.355965     0.671141     0.405741
    0.737807     0.154350     0.261785
    0.737219     0.353536     0.856879
    0.863078     0.265702     0.699431
    0.623192     0.295177     0.122917
    0.652136     0.309832     0.536929
    0.606435     0.414727     0.826978
    0.580230     0.276356     0.313651
    0.424803     0.410961     0.353072
    0.322314     0.600499     0.662130
    0.308671     0.849515     0.415261
    0.373910     0.611938     0.848602
    0.263960     0.533266     0.286056
    0.188307     0.518249     0.385025
    0.406070     0.472482     0.860072
    0.402175     0.481023     0.126826
    0.262039     0.818398     0.797384
    0.298543     0.704439     0.284074
    0.316336     0.620274     0.492219
    0.585986     0.539405     0.704688
    0.683014     0.362901     0.444819
    0.506239     0.312652     0.164794
    0.780937     0.211812     0.623991
    0.698209     0.484362     0.827050
    0.779705     0.246506     0.340335
    0.573876     0.228318     0.534319
    0.628457     0.643647     0.676202
    0.741476     0.463240     0.448957
    0.517588     0.614912     0.282858
    0.755767     0.337804     0.739593
    0.653005     0.264924     0.236467
    0.423742     0.432294     0.729314
EA66   10.103 11.244  8.972 90.00 90.00 90.00 Sym.group:    0
1.0000
   10.103333     0.000000     0.000000
    0.000000    11.243645     0.000000
    0.000000     0.000000     8.971649
   O  Cu
  12   24 
Direct
    0.873982     0.492753     0.273822
    0.209153     0.477632     0.844693
    0.754727     0.404034     0.140149
    0.837862     0.374418     0.258664
    0.284320     0.292158     0.702010
    0.578699     0.259073     0.240506
    0.476201     0.778309     0.554857
    0.302972     0.580150     0.775264
    0.755009     0.719907     0.427497
    0.254272     0.689929     0.844411
    0.861375     0.726801     0.318155
    0.562961     0.748387     0.441682
    0.204959     0.320429     0.588875
    0.658060     0.230802     0.353641
    0.424640     0.136129     0.339212
    0.352817     0.134785     0.567398
    0.493028     0.111767     0.436705
    0.284428     0.159147     0.469905
    0.691279     0.366905     0.281748
    0.249602     0.439414     0.693443
    0.315871     0.445595     0.548730
    0.630815     0.379739     0.428896
    0.389558     0.419346     0.653776
    0.557128     0.405989     0.323851
    0.463293     0.662088     0.682464
    0.728262     0.539823     0.398481
    0.136280     0.566797     0.614528
    0.616864     0.827771     0.288907
    0.569553     0.822210     0.651717
    0.687343     0.770724     0.643389
    0.362382     0.869406     0.729846
    0.863720     0.543936     0.155589
    0.547057     0.875774     0.485287
    0.352598     0.529877     0.659622
    0.338606     0.685450     0.408450
    0.520992     0.577027     0.203454
EA67    7.064 11.681 11.339 90.00 90.00 90.00 Sym.group:    0
1.0000
    7.064494     0.000000     0.000000
    0.000000    11.680565     0.000000
    0.000000     0.000000    11.339365
   O  Cu
  12   24 
Direct
    0.320294     0.512672     0.118901
    0.303756     0.416449     0.132650
    0.232617     0.602544     0.269144
    0.194898     0.383085     0.300504
    0.639747     0.210057     0.646852
    0.812781     0.489529     0.786070
    0.768568     0.769853     0.612405
    0.629149     0.674407     0.785364
    0.557838     0.351229     0.809652
    0.333154     0.186440     0.551101
    0.475776     0.832797     0.502525
    0.630447     0.148763     0.685691
    0.581903     0.882667     0.445480
    0.262423     0.280058     0.233370
    0.329987     0.673163     0.177196
    0.342220     0.475543     0.218211
    0.293973     0.411714     0.436017
    0.326375     0.600232     0.409078
    0.498793     0.878476     0.365343
    0.259961     0.205836     0.291261
    0.367972     0.117333     0.474108
    0.355020     0.758908     0.212229
    0.356730     0.492611     0.347367
    0.448678     0.229294     0.700477
    0.621712     0.508766     0.839695
    0.577499     0.789090     0.666031
    0.820218     0.655170     0.731738
    0.748907     0.331992     0.756026
    0.625322     0.446153     0.701439
    0.634486     0.650224     0.634503
    0.490836     0.295929     0.566936
    0.739994     0.396881     0.885760
    0.757543     0.787682     0.757577
    0.482452     0.109199     0.628185
    0.370851     0.325593     0.214636
    0.412885     0.672179     0.501209
EA68   11.066  9.758  9.129 90.00 90.00 90.00 Sym.group:    0
1.0000
   11.066399     0.000000     0.000000
    0.000000     9.757691     0.000000
    0.000000     0.000000     9.129342
   O  Cu
  12   24 
Direct
    0.499005     0.809541     0.140006
    0.190430     0.617086     0.284437
    0.194132     0.278733     0.618316
    0.370825     0.125710     0.859994
    0.229158     0.770937     0.203593
    0.099984     0.396648     0.553425
    0.685525     0.169922     0.556328
    0.848467     0.394061     0.371273
    0.678047     0.597919     0.169415
    0.655313     0.422364     0.847385
    0.818256     0.646503     0.662330
    0.647836     0.850361     0.460472
    0.451789     0.633110     0.249276
    0.303407     0.484352     0.374108
    0.356726     0.296905     0.566581
    0.361622     0.628279     0.202041
    0.242319     0.397167     0.412262
    0.387418     0.197369     0.630339
    0.445693     0.664768     0.440482
    0.357540     0.556275     0.534463
    0.407660     0.436058     0.660234
    0.274671     0.611654     0.425941
    0.294277     0.380520     0.656519
    0.477948     0.757159     0.312350
    0.510094     0.161151     0.633669
    0.807880     0.304026     0.536124
    0.807804     0.559163     0.305939
    0.509943     0.671426     0.173298
    0.787843     0.471449     0.729158
    0.787768     0.726587     0.498972
    0.803409     0.420518     0.528647
    0.722196     0.637780     0.324089
    0.585555     0.246467     0.662734
    0.794727     0.493066     0.612291
    0.713513     0.710327     0.407734
    0.576873     0.319014     0.746378
EA69    9.892  9.331 11.197 90.00 90.00 90.00 Sym.group:    0
1.0000
    9.892495     0.000000     0.000000
    0.000000     9.331069     0.000000
    0.000000     0.000000    11.197339
   O  Cu
  12   24 
Direct
    0.865671     0.234558     0.586121
    0.856107     0.286224     0.672275
    0.419216     0.437887     0.115687
    0.678318     0.180051     0.523613
    0.420953     0.297264     0.252428
    0.694903     0.574756     0.814829
    0.393836     0.826668     0.719379
    0.249635     0.810449     0.384557
    0.406501     0.542318     0.145186
    0.437750     0.609160     0.850126
    0.194455     0.573754     0.268232
    0.182908     0.741452     0.598366
    0.531799     0.283064     0.169097
    0.751362     0.376349     0.793594
    0.790433     0.165274     0.441622
    0.766080     0.303329     0.604165
    0.395783     0.471974     0.213980
    0.457090     0.325412     0.394346
    0.527169     0.386186     0.656726
    0.304617     0.487543     0.422218
    0.425910     0.493860     0.675237
    0.545907     0.284961     0.487933
    0.602335     0.208665     0.202816
    0.403642     0.447952     0.339348
    0.628016     0.345766     0.575773
    0.292432     0.709594     0.759363
    0.148231     0.693375     0.424542
    0.539155     0.726234     0.810142
    0.295859     0.690829     0.228247
    0.284312     0.858526     0.558381
    0.443051     0.647373     0.692575
    0.308118     0.686622     0.494226
    0.365066     0.539249     0.301651
    0.390944     0.782222     0.868785
    0.132541     0.857386     0.488942
    0.241598     0.575164     0.120159
EA70   11.133 11.969  6.757 90.00 90.00 90.00 Sym.group:    0
1.0000
   11.132684     0.000000     0.000000
    0.000000    11.969219     0.000000
    0.000000     0.000000     6.756723
   O  Cu
  12   24 
Direct
    0.516247     0.817476     0.361789
    0.242187     0.645701     0.201995
    0.249981     0.325341     0.235074
    0.155144     0.484990     0.402006
    0.304892     0.771186     0.472444
    0.851743     0.697232     0.635375
    0.602327     0.125991     0.529813
    0.794969     0.772278     0.593700
    0.388476     0.226448     0.607862
    0.748720     0.583785     0.800579
    0.619233     0.754945     0.705528
    0.604941     0.254487     0.739726
    0.194105     0.651470     0.412260
    0.201900     0.331110     0.445338
    0.374293     0.210920     0.324430
    0.203226     0.479222     0.191742
    0.673788     0.783312     0.465306
    0.298847     0.435865     0.377281
    0.452000     0.294896     0.487367
    0.346848     0.640969     0.389914
    0.114788     0.377181     0.264990
    0.206709     0.769957     0.289182
    0.725651     0.212242     0.674951
    0.638196     0.849756     0.565843
    0.870141     0.543165     0.736104
    0.743629     0.682055     0.609036
    0.571938     0.395032     0.714019
    0.510324     0.655703     0.653368
    0.312121     0.468589     0.546520
    0.385990     0.370945     0.600745
    0.386834     0.639707     0.578142
    0.794740     0.266087     0.736913
    0.550872     0.886304     0.532268
    0.877202     0.454951     0.771814
    0.631824     0.613080     0.628614
    0.506476     0.325992     0.575562
EA71    9.874 10.820  8.049 90.00 90.00 90.00 Sym.group:    0
1.0000
    9.873748     0.000000     0.000000
    0.000000    10.820283     0.000000
    0.000000     0.000000     8.048678
   O  Cu
  12   24 
Direct
    0.125538     0.539347     0.160424
    0.489581     0.887786     0.586481
    0.296254     0.855635     0.490783
    0.142799     0.352950     0.188846
    0.382902     0.371582     0.304241
    0.363236     0.646861     0.382349
    0.545747     0.134651     0.513031
    0.802247     0.532312     0.831072
    0.743700     0.679015     0.830132
    0.674088     0.179878     0.625775
    0.773608     0.356554     0.696747
    0.599304     0.793312     0.693946
    0.291266     0.577671     0.406017
    0.405331     0.315642     0.411878
    0.256071     0.331095     0.176004
    0.309012     0.788915     0.377957
    0.417593     0.167697     0.378945
    0.455451     0.384207     0.222535
    0.413019     0.641159     0.275189
    0.491287     0.626272     0.738074
    0.258819     0.570674     0.523394
    0.342841     0.319559     0.507734
    0.406130     0.818628     0.531495
    0.183899     0.453128     0.218871
    0.752021     0.252183     0.483195
    0.788833     0.706284     0.648637
    0.855974     0.538051     0.649717
    0.604845     0.200316     0.353905
    0.599651     0.323493     0.239312
    0.822934     0.503828     0.466130
    0.626890     0.772237     0.395746
    0.740416     0.710594     0.464804
    0.659701     0.224615     0.448917
    0.801678     0.615048     0.676349
    0.580605     0.330117     0.506169
    0.667100     0.567975     0.644724
EA72    7.797 12.048 12.148 90.00 90.00 90.00 Sym.group:    0
1.0000
    7.796666     0.000000     0.000000
    0.000000    12.047973     0.000000
    0.000000     0.000000    12.147646
   O  Cu
  12   24 
Direct
    0.371436     0.708886     0.641458
    0.174797     0.409234     0.629426
    0.246580     0.402265     0.320909
    0.443219     0.701917     0.332942
    0.601988     0.722346     0.235675
    0.599841     0.832715     0.566594
    0.821367     0.764924     0.411461
    0.712846     0.527179     0.172783
    0.703613     0.711262     0.748404
    0.477338     0.419854     0.846668
    0.402762     0.636853     0.821194
    0.368817     0.182109     0.607989
    0.295649     0.614738     0.694211
    0.456424     0.759094     0.433398
    0.322367     0.496413     0.268157
    0.161592     0.352057     0.528970
    0.436137     0.360702     0.670974
    0.480201     0.314659     0.369276
    0.299830     0.311294     0.512809
    0.409174     0.547914     0.707727
    0.473795     0.486140     0.280744
    0.319105     0.394756     0.659444
    0.363169     0.348713     0.357746
    0.416861     0.277240     0.524339
    0.337388     0.403936     0.898095
    0.268766     0.106797     0.376046
    0.597238     0.363147     0.178806
    0.592945     0.583886     0.840645
    0.631183     0.817891     0.392011
    0.522662     0.580146     0.153332
    0.513429     0.764228     0.728953
    0.606459     0.584375     0.299974
    0.642429     0.702088     0.492580
    0.535970     0.617713     0.692606
    0.703870     0.661579     0.116945
    0.772755     0.887003     0.485789
EA73    9.648  8.881  8.981 90.00 90.00 90.00 Sym.group:    0
1.0000
    9.647556     0.000000     0.000000
    0.000000     8.880998     0.000000
    0.000000     0.000000     8.980926
   O  Cu
  12   24 
Direct
    0.163245     0.791852     0.561122
    0.207058     0.848766     0.473398
    0.491176     0.196761     0.862789
    0.176346     0.579266     0.530354
    0.365386     0.236219     0.704253
    0.276271     0.709069     0.330283
    0.567724     0.286775     0.809108
    0.817756     0.339768     0.563216
    0.794503     0.615830     0.319634
    0.521219     0.838900     0.321944
    0.743926     0.406012     0.238353
    0.680292     0.169274     0.512630
    0.311509     0.855879     0.308635
    0.322490     0.278631     0.841769
    0.132518     0.623372     0.667010
    0.251767     0.737256     0.503496
    0.393632     0.587554     0.345535
    0.373032     0.357665     0.577412
    0.307794     0.476051     0.517399
    0.236101     0.336707     0.831108
    0.379509     0.860579     0.227160
    0.127680     0.533459     0.731369
    0.496117     0.316011     0.624218
    0.331310     0.615086     0.472608
    0.728813     0.214093     0.432165
    0.705560     0.490156     0.188583
    0.608106     0.799574     0.291248
    0.832869     0.531686     0.369404
    0.769235     0.294949     0.643682
    0.721494     0.281660     0.533730
    0.739451     0.509713     0.303428
    0.517958     0.728053     0.269698
    0.824496     0.180124     0.549417
    0.850804     0.514231     0.212014
    0.526308     0.834107     0.162597
    0.640129     0.503080     0.335878
EA74    8.174  9.308  8.999 90.00 90.00 90.00 Sym.group:    0
1.0000
    8.174374     0.000000     0.000000
    0.000000     9.308210     0.000000
    0.000000     0.000000     8.998658
   O  Cu
  12   24 
Direct
    0.376959     0.193624     0.360458
    0.357504     0.515139     0.148974
    0.566574     0.821516     0.279600
    0.708719     0.861001     0.464548
    0.455365     0.712002     0.179677
    0.332677     0.351000     0.206216
    0.502679     0.211417     0.788420
    0.684963     0.755527     0.746304
    0.630446     0.855282     0.619687
    0.602244     0.338674     0.855547
    0.396283     0.158663     0.593110
    0.692704     0.537530     0.792955
    0.316515     0.634855     0.262757
    0.524641     0.839809     0.449763
    0.270053     0.327670     0.369886
    0.482926     0.192258     0.418681
    0.416652     0.427790     0.187838
    0.563114     0.722417     0.233790
    0.739772     0.331619     0.743807
    0.744348     0.784132     0.509998
    0.806867     0.669738     0.655199
    0.625595     0.185683     0.666831
    0.667078     0.215118     0.508993
    0.834771     0.532379     0.567463
    0.807406     0.394479     0.603601
    0.651835     0.270315     0.718259
    0.743472     0.732113     0.597238
    0.552602     0.366434     0.649202
    0.608429     0.647768     0.575474
    0.417477     0.613683     0.335370
    0.757933     0.672974     0.389005
    0.664335     0.656267     0.271314
    0.639841     0.430393     0.851026
    0.229401     0.684139     0.612672
    0.182864     0.650630     0.525853
    0.201021     0.496506     0.678108
EA75    8.990  9.519  8.999 90.00 90.00 90.00 Sym.group:    0
1.0000
    8.990349     0.000000     0.000000
    0.000000     9.518868     0.000000
    0.000000     0.000000     8.999060
   O  Cu
  12   24 
Direct
    0.168367     0.349234     0.218233
    0.316541     0.859635     0.398978
    0.223757     0.766427     0.281616
    0.230984     0.215245     0.301075
    0.224743     0.560307     0.211131
    0.411166     0.161402     0.457766
    0.228700     0.644289     0.689124
    0.242406     0.362395     0.715810
    0.477889     0.138459     0.566091
    0.780217     0.608577     0.699160
    0.549533     0.703100     0.815332
    0.686703     0.258594     0.704350
    0.411331     0.229395     0.245557
    0.490852     0.828333     0.336552
    0.339523     0.383048     0.150555
    0.648979     0.739007     0.352512
    0.499884     0.469622     0.166132
    0.682539     0.256004     0.404508
    0.588140     0.280777     0.282893
    0.518209     0.607635     0.187101
    0.743378     0.714234     0.474126
    0.347727     0.309189     0.220318
    0.409091     0.771363     0.290536
    0.400952     0.665429     0.392476
    0.363568     0.383866     0.349698
    0.292680     0.409912     0.794249
    0.178426     0.596772     0.610684
    0.755123     0.700502     0.657928
    0.558522     0.137440     0.504357
    0.574627     0.611175     0.856564
    0.305819     0.586405     0.852523
    0.130527     0.420718     0.579024
    0.447127     0.180487     0.751739
    0.631964     0.826343     0.702272
    0.728284     0.176934     0.536479
    0.719460     0.505821     0.846037
EA76   10.040 10.122  9.973 90.00 90.00 90.00 Sym.group:    0
1.0000
   10.040280     0.000000     0.000000
    0.000000    10.121633     0.000000
    0.000000     0.000000     9.973007
   O  Cu
  12   24 
Direct
    0.174586     0.540412     0.790133
    0.210469     0.349706     0.790188
    0.257647     0.456500     0.867387
    0.127408     0.433618     0.712934
    0.367035     0.709892     0.781998
    0.267407     0.224788     0.562978
    0.759972     0.532433     0.379833
    0.681069     0.770583     0.553984
    0.531821     0.334828     0.230157
    0.697698     0.862626     0.659956
    0.633027     0.326667     0.132235
    0.744383     0.594738     0.496139
    0.446325     0.629790     0.855745
    0.188117     0.304890     0.489231
    0.389068     0.217776     0.165695
    0.251927     0.193271     0.295115
    0.457396     0.148749     0.229245
    0.322605     0.548799     0.767019
    0.453641     0.520545     0.702555
    0.310383     0.437289     0.520134
    0.380020     0.594920     0.634082
    0.384004     0.362914     0.588608
    0.608840     0.502012     0.310884
    0.512514     0.690726     0.626346
    0.597319     0.151493     0.329263
    0.857167     0.651484     0.604379
    0.758193     0.646146     0.307852
    0.684849     0.744470     0.353335
    0.558349     0.794656     0.845240
    0.825346     0.468350     0.190440
    0.864059     0.620256     0.419697
    0.503796     0.355255     0.347256
    0.652728     0.653219     0.517655
    0.647006     0.478457     0.729429
    0.509651     0.253586     0.627999
    0.735153     0.356487     0.497357
EA77    7.411 10.997 11.465 90.00 90.00 90.00 Sym.group:    0
1.0000
    7.411323     0.000000     0.000000
    0.000000    10.996580     0.000000
    0.000000     0.000000    11.465425
   O  Cu
  12   24 
Direct
    0.706569     0.255286     0.600167
    0.454610     0.465905     0.249353
    0.541813     0.468135     0.794671
    0.513877     0.176663     0.373543
    0.632385     0.391191     0.879257
    0.501577     0.134748     0.253019
    0.680551     0.254891     0.481199
    0.386188     0.667266     0.215243
    0.625652     0.692752     0.766751
    0.416216     0.837999     0.498626
    0.179477     0.741843     0.366667
    0.315193     0.761001     0.685263
    0.398593     0.344208     0.340687
    0.541263     0.332275     0.669641
    0.797274     0.190715     0.369990
    0.612787     0.149620     0.622492
    0.285966     0.463247     0.216530
    0.481316     0.129391     0.551490
    0.769079     0.208179     0.781000
    0.440911     0.315027     0.120743
    0.775656     0.150750     0.536179
    0.548000     0.265498     0.443978
    0.709743     0.464710     0.324451
    0.194940     0.623229     0.248507
    0.434404     0.648715     0.800015
    0.224968     0.793962     0.531890
    0.459908     0.502860     0.164772
    0.370725     0.785880     0.333403
    0.506441     0.805038     0.651999
    0.731340     0.541177     0.801964
    0.556046     0.564210     0.703556
    0.409178     0.702548     0.562181
    0.353132     0.638338     0.358625
    0.607328     0.622965     0.889813
    0.326074     0.887884     0.619078
    0.218745     0.764921     0.229265
EA78    9.381  9.700  8.885 90.00 90.00 90.00 Sym.group:    0
1.0000
    9.380554     0.000000     0.000000
    0.000000     9.699687     0.000000
    0.000000     0.000000     8.884975
   O  Cu
  12   24 
Direct
    0.299956     0.476375     0.316977
    0.345780     0.282909     0.548281
    0.306874     0.303457     0.166904
    0.145048     0.344370     0.620692
    0.211605     0.436005     0.390531
    0.310956     0.252443     0.425369
    0.638903     0.693135     0.231904
    0.584978     0.419754     0.840436
    0.846447     0.524366     0.617736
    0.647969     0.241162     0.304647
    0.729497     0.766046     0.568362
    0.694518     0.211601     0.576604
    0.315289     0.704085     0.683691
    0.379344     0.784308     0.456948
    0.420237     0.857841     0.588439
    0.210833     0.725366     0.574664
    0.262756     0.674744     0.473923
    0.460625     0.770767     0.656555
    0.237173     0.512215     0.237284
    0.319253     0.195708     0.592186
    0.251220     0.313424     0.474708
    0.260017     0.368515     0.336655
    0.323759     0.380153     0.432985
    0.532761     0.503185     0.858540
    0.691119     0.609703     0.213800
    0.713315     0.737087     0.663896
    0.735777     0.285437     0.333019
    0.606710     0.167326     0.548232
    0.862629     0.553324     0.522202
    0.534472     0.253329     0.802348
    0.647590     0.455763     0.134526
    0.778689     0.604262     0.765723
    0.835583     0.285587     0.486187
    0.529415     0.131206     0.387259
    0.835113     0.705238     0.432607
    0.516905     0.491224     0.510380
EA79    9.860  9.486 10.351 90.00 90.00 90.00 Sym.group:    0
1.0000
    9.860318     0.000000     0.000000
    0.000000     9.485599     0.000000
    0.000000     0.000000    10.351278
   O  Cu
  12   24 
Direct
    0.855348     0.385433     0.401504
    0.718611     0.261224     0.710132
    0.740349     0.176136     0.499666
    0.721367     0.414954     0.216872
    0.195954     0.475387     0.718964
    0.477643     0.206352     0.750711
    0.472833     0.503108     0.141142
    0.217577     0.603438     0.295950
    0.856874     0.526025     0.429292
    0.676067     0.755822     0.309339
    0.420811     0.856153     0.464146
    0.346360     0.726690     0.738905
    0.772670     0.275775     0.337340
    0.635932     0.151565     0.645968
    0.321923     0.320961     0.776546
    0.823028     0.285795     0.563829
    0.560321     0.316011     0.814875
    0.695012     0.432503     0.370957
    0.655194     0.309746     0.570942
    0.460182     0.377244     0.699986
    0.873452     0.370742     0.252878
    0.797202     0.135660     0.635855
    0.423747     0.264920     0.882977
    0.173908     0.614490     0.461373
    0.372623     0.628820     0.207142
    0.308696     0.782094     0.572923
    0.368679     0.569472     0.810006
    0.766109     0.598132     0.301545
    0.507411     0.796424     0.318693
    0.599843     0.532106     0.225225
    0.356423     0.673280     0.307043
    0.227377     0.604863     0.557648
    0.658249     0.604732     0.273561
    0.414829     0.745906     0.355380
    0.285783     0.677489     0.605984
    0.259651     0.823864     0.500334
EA80   19.130 18.959 13.295 90.00 90.00 90.00 Sym.group:    0
1.0000
   19.129546     0.000000     0.000000
    0.000000    18.959321     0.000000
    0.000000     0.000000    13.295211
   O  Cu
  12   24 
Direct
    0.556760     0.571625     0.623173
    0.533097     0.414590     0.623173
    0.410142     0.513785     0.623173
    0.457010     0.419200     0.376827
    0.590847     0.502835     0.376827
    0.452143     0.577964     0.376827
    0.501828     0.713317     0.418201
    0.682180     0.391744     0.418201
    0.315992     0.394939     0.418201
    0.306289     0.414521     0.581799
    0.670224     0.373475     0.581799
    0.523487     0.712004     0.581799
    0.345908     0.465897     0.561267
    0.547775     0.651697     0.561267
    0.606317     0.382406     0.561267
    0.470562     0.656376     0.438733
    0.380499     0.396089     0.438733
    0.648939     0.447536     0.438733
    0.651430     0.310809     0.463414
    0.261899     0.462276     0.463414
    0.586672     0.726915     0.463414
    0.731916     0.433796     0.536586
    0.440866     0.735750     0.536586
    0.327218     0.330454     0.536586
    0.391254     0.319322     0.534710
    0.399294     0.685361     0.534710
    0.709452     0.495316     0.534710
    0.621968     0.671869     0.465290
    0.291498     0.520642     0.465290
    0.586534     0.307490     0.465290
    0.627520     0.597737     0.551552
    0.520130     0.339704     0.551552
    0.352350     0.562559     0.551552
    0.461002     0.343287     0.448448
    0.654009     0.544280     0.448448
    0.384989     0.612433     0.448448
EA81   19.220 19.184 13.885 90.00 90.00 90.00 Sym.group:    0
1.0000
   19.219587     0.000000     0.000000
    0.000000    19.183781     0.000000
    0.000000     0.000000    13.885206
   O  Cu
  12   24 
Direct
    0.444176     0.499225     0.360816
    0.471417     0.548048     0.360816
    0.527242     0.548823     0.360816
    0.555824     0.500775     0.360816
    0.528583     0.451952     0.360816
    0.472758     0.451177     0.360816
    0.498932     0.555924     0.639184
    0.451125     0.527035     0.639184
    0.452193     0.471111     0.639184
    0.501068     0.444076     0.639184
    0.548875     0.472965     0.639184
    0.547807     0.528889     0.639184
    0.586132     0.612434     0.412549
    0.640255     0.481485     0.412549
    0.554123     0.369051     0.412549
    0.413868     0.387566     0.412549
    0.359745     0.518515     0.412549
    0.445877     0.630949     0.412549
    0.390678     0.410044     0.587451
    0.523098     0.360170     0.587451
    0.632419     0.450126     0.587451
    0.609322     0.589956     0.587451
    0.476902     0.639830     0.587451
    0.367581     0.549874     0.587451
    0.598635     0.280185     0.472985
    0.359306     0.304513     0.472985
    0.260672     0.524328     0.472985
    0.401365     0.719815     0.472985
    0.640694     0.695487     0.472985
    0.739328     0.475672     0.472985
    0.722541     0.408488     0.527015
    0.690375     0.647330     0.527015
    0.467834     0.738842     0.527015
    0.277459     0.591512     0.527015
    0.309625     0.352670     0.527015
    0.532166     0.261158     0.527015
EA82   15.427 14.826 14.587 90.00 90.00 90.00 Sym.group:    0
1.0000
   15.427442     0.000000     0.000000
    0.000000    14.826133     0.000000
    0.000000     0.000000    14.586835
   O  Cu
  12   24 
Direct
    0.675254     0.470872     0.445259
    0.675254     0.467922     0.553010
    0.675254     0.561206     0.501732
    0.324746     0.561114     0.496177
    0.324746     0.472700     0.555706
    0.324746     0.466185     0.448117
    0.675254     0.527300     0.444294
    0.675254     0.438886     0.503823
    0.675254     0.533815     0.551883
    0.324746     0.532078     0.446990
    0.324746     0.529128     0.554741
    0.324746     0.438794     0.498268
    0.547610     0.549730     0.643782
    0.547610     0.597645     0.384335
    0.547610     0.352626     0.471882
    0.452390     0.353640     0.533140
    0.452390     0.544943     0.354599
    0.452390     0.601417     0.612261
    0.547610     0.455057     0.645401
    0.547610     0.646360     0.466860
    0.547610     0.398583     0.387739
    0.452390     0.402355     0.615665
    0.452390     0.450270     0.356218
    0.452390     0.647374     0.528118
    0.633330     0.661205     0.470717
    0.633330     0.394447     0.372743
    0.633330     0.444348     0.656540
    0.366670     0.439199     0.345452
    0.366670     0.662083     0.523755
    0.366670     0.398718     0.630793
    0.633330     0.337917     0.476245
    0.633330     0.560801     0.654548
    0.633330     0.601282     0.369207
    0.366670     0.605553     0.627257
    0.366670     0.338795     0.529283
    0.366670     0.555652     0.343460
EA83   16.645 14.767 17.060 90.00 90.00 90.00 Sym.group:    0
1.0000
   16.644933     0.000000     0.000000
    0.000000    14.767455     0.000000
    0.000000     0.000000    17.060292
   O  Cu
  12   24 
Direct
    0.543050     0.370347     0.372521
    0.456950     0.370347     0.627479
    0.543050     0.629653     0.372521
    0.456950     0.629653     0.627479
    0.646335     0.633309     0.582190
    0.353665     0.633309     0.417810
    0.646335     0.366691     0.582190
    0.353665     0.366691     0.417810
    0.639392     0.347635     0.428298
    0.360608     0.347635     0.571702
    0.639392     0.652365     0.428298
    0.360608     0.652365     0.571702
    0.413188     0.500000     0.293664
    0.586812     0.500000     0.706336
    0.349436     0.447796     0.576207
    0.650564     0.447796     0.423793
    0.349436     0.552204     0.576207
    0.650564     0.552204     0.423793
    0.569630     0.339260     0.511841
    0.430370     0.339260     0.488159
    0.569630     0.660740     0.511841
    0.430370     0.660740     0.488159
    0.699007     0.458667     0.522512
    0.300993     0.458667     0.477488
    0.699007     0.541333     0.522512
    0.300993     0.541333     0.477488
    0.500000     0.620484     0.500000
    0.500000     0.379516     0.500000
    0.604115     0.441471     0.372002
    0.395885     0.441471     0.627998
    0.604115     0.558529     0.372002
    0.395885     0.558529     0.627998
    0.308574     0.413867     0.426891
    0.691426     0.413867     0.573109
    0.308574     0.586133     0.426891
    0.691426     0.586133     0.573109
EA84   17.949 18.394 11.085 90.00 90.00 90.00 Sym.group:    0
1.0000
   17.949328     0.000000     0.000000
    0.000000    18.393702     0.000000
    0.000000     0.000000    11.085172
   O  Cu
  12   24 
Direct
    0.537745     0.272376     0.451955
    0.316864     0.354290     0.451955
    0.279119     0.581914     0.451955
    0.462255     0.727624     0.451955
    0.683136     0.645710     0.451955
    0.720881     0.418086     0.451955
    0.316864     0.645710     0.548045
    0.279119     0.418086     0.548045
    0.462255     0.272376     0.548045
    0.683136     0.354290     0.548045
    0.720881     0.581914     0.548045
    0.537745     0.727624     0.548045
    0.537745     0.272376     0.548045
    0.316864     0.354290     0.548045
    0.279119     0.581914     0.548045
    0.462255     0.727624     0.548045
    0.683136     0.645710     0.548045
    0.720881     0.418086     0.548045
    0.316864     0.645710     0.451955
    0.279119     0.418086     0.451955
    0.462255     0.272376     0.451955
    0.683136     0.354290     0.451955
    0.720881     0.581914     0.451955
    0.537745     0.727624     0.451955
    0.637040     0.500000     0.500000
    0.568520     0.384187     0.500000
    0.431480     0.384187     0.500000
    0.362960     0.500000     0.500000
    0.431480     0.615813     0.500000
    0.568520     0.615813     0.500000
    0.716768     0.500000     0.500000
    0.608384     0.316809     0.500000
    0.391616     0.316809     0.500000
    0.283232     0.500000     0.500000
    0.391616     0.683191     0.500000
    0.608384     0.683191     0.500000
EA85   17.740 17.965 12.112 90.00 90.00 90.00 Sym.group:    0
1.0000
   17.740495     0.000000     0.000000
    0.000000    17.964831     0.000000
    0.000000     0.000000    12.112309
   O  Cu
  12   24 
Direct
    0.631696     0.321166     0.413629
    0.368465     0.321051     0.413629
    0.287011     0.568237     0.413629
    0.499901     0.721122     0.413629
    0.712928     0.568424     0.413629
    0.516991     0.279516     0.586371
    0.717595     0.447824     0.586371
    0.617490     0.688238     0.586371
    0.355018     0.668513     0.586371
    0.292906     0.415909     0.586371
    0.443875     0.650732     0.500000
    0.627824     0.599291     0.500000
    0.635125     0.410633     0.500000
    0.455688     0.345478     0.500000
    0.337489     0.493867     0.500000
    0.452952     0.299453     0.422300
    0.292317     0.482214     0.422300
    0.418693     0.689555     0.422300
    0.657432     0.634937     0.422300
    0.678605     0.393841     0.422300
    0.667402     0.377322     0.577700
    0.669879     0.619311     0.577700
    0.437589     0.696416     0.577700
    0.291549     0.502081     0.577700
    0.433581     0.304870     0.577700
    0.576698     0.678423     0.516708
    0.695537     0.483102     0.516708
    0.544150     0.311133     0.516708
    0.331749     0.400172     0.516708
    0.351865     0.627169     0.516708
    0.324524     0.586856     0.483292
    0.362126     0.362037     0.483292
    0.590265     0.327878     0.483292
    0.693661     0.531586     0.483292
    0.529424     0.691643     0.483292
    0.500000     0.500000     0.500000
EA86   20.503 22.125 13.245 90.00 90.00 90.00 Sym.group:    0
1.0000
   20.503467     0.000000     0.000000
    0.000000    22.125265     0.000000
    0.000000     0.000000    13.245136
   O  Cu
  12   24 
Direct
    0.373437     0.459330     0.621748
    0.474725     0.378093     0.621748
    0.601289     0.418762     0.621748
    0.626563     0.540670     0.621748
    0.525275     0.621907     0.621748
    0.398711     0.581238     0.621748
    0.525275     0.378093     0.378252
    0.398711     0.418762     0.378252
    0.373437     0.540670     0.378252
    0.474725     0.621907     0.378252
    0.601289     0.581238     0.378252
    0.626563     0.459330     0.378252
    0.373437     0.459330     0.378252
    0.474725     0.378093     0.378252
    0.601289     0.418762     0.378252
    0.626563     0.540670     0.378252
    0.525275     0.621907     0.378252
    0.398711     0.581238     0.378252
    0.525275     0.378093     0.621748
    0.398711     0.418762     0.621748
    0.373437     0.540670     0.621748
    0.474725     0.621907     0.621748
    0.601289     0.581238     0.621748
    0.626563     0.459330     0.621748
    0.500000     0.710902     0.500000
    0.302906     0.605451     0.500000
    0.302906     0.394549     0.500000
    0.500000     0.289098     0.500000
    0.697094     0.394549     0.500000
    0.697094     0.605451     0.500000
    0.500000     0.773562     0.500000
    0.244349     0.636781     0.500000
    0.244349     0.363219     0.500000
    0.500000     0.226438     0.500000
    0.755651     0.363219     0.500000
    0.755651     0.636781     0.500000
EA87   17.254 17.254 17.254 90.00 90.00 90.00 Sym.group:    0
1.0000
   17.254068     0.000000     0.000000
    0.000000    17.254068     0.000000
    0.000000     0.000000    17.254068
   O  Cu
  12   24 
Direct
    0.415222     0.636391     0.450088
    0.415222     0.450088     0.363609
    0.415222     0.363609     0.549912
    0.415222     0.549912     0.636391
    0.357554     0.442341     0.568306
    0.584778     0.393093     0.598308
    0.642446     0.587143     0.480091
    0.471665     0.577542     0.353489
    0.584778     0.606907     0.401692
    0.528335     0.665757     0.498291
    0.584778     0.401692     0.393093
    0.584778     0.598308     0.606907
    0.642446     0.412857     0.519909
    0.357554     0.557659     0.431694
    0.471665     0.422458     0.646511
    0.528335     0.334243     0.501709
    0.642446     0.519909     0.587143
    0.471665     0.353489     0.422458
    0.357554     0.431694     0.442341
    0.528335     0.498291     0.334243
    0.642446     0.480091     0.412857
    0.528335     0.501709     0.665757
    0.357554     0.568306     0.557659
    0.471665     0.646511     0.577542
    0.705487     0.500000     0.500000
    0.294513     0.500000     0.500000
    0.500000     0.675487     0.393092
    0.500000     0.324513     0.606908
    0.500000     0.393092     0.324513
    0.500000     0.606908     0.675487
    0.399702     0.500000     0.500000
    0.600298     0.500000     0.500000
    0.500000     0.414345     0.552182
    0.500000     0.585655     0.447818
    0.500000     0.552182     0.585655
    0.500000     0.447818     0.414345
EA88    9.563 11.743  6.676 90.00 90.00 90.00 Sym.group:    0
1.0000
    9.562921     0.000000     0.000000
    0.000000    11.742977     0.000000
    0.000000     0.000000     6.676462
   O  Cu
  12   24 
Direct
    0.378702     0.405954     0.233334
    0.262054     0.613308     0.219409
    0.525742     0.741520     0.253939
    0.790680     0.641139     0.205356
    0.683882     0.417886     0.238042
    0.613594     0.112408     0.728327
    0.712246     0.508084     0.757268
    0.609084     0.728359     0.769237
    0.250600     0.860437     0.748659
    0.513424     0.557911     0.793385
    0.538224     0.419075     0.802291
    0.319588     0.683133     0.763092
    0.471976     0.774439     0.801326
    0.720813     0.628416     0.741858
    0.638874     0.386431     0.788920
    0.542581     0.382391     0.272229
    0.793489     0.521227     0.212006
    0.676672     0.739972     0.224040
    0.366793     0.701747     0.266991
    0.254889     0.477313     0.197709
    0.798903     0.664777     0.459784
    0.725192     0.374521     0.509984
    0.389126     0.344901     0.504693
    0.231024     0.624534     0.479127
    0.486327     0.814838     0.539808
    0.326427     0.783475     0.559404
    0.262393     0.492166     0.436586
    0.538509     0.286047     0.568000
    0.810704     0.487796     0.471400
    0.695026     0.767334     0.482765
    0.832037     0.773245     0.447172
    0.861967     0.384068     0.470296
    0.414581     0.232685     0.590159
    0.138033     0.540975     0.385696
    0.380413     0.887592     0.591658
    0.522447     0.564478     0.519865
EA89    9.664  9.090  9.780 90.00 90.00 90.00 Sym.group:    0
1.0000
    9.663773     0.000000     0.000000
    0.000000     9.090048     0.000000
    0.000000     0.000000     9.779838
   O  Cu
  12   24 
Direct
    0.523525     0.500000     0.865028
    0.136593     0.500000     0.538925
    0.486785     0.500000     0.134972
    0.863407     0.500000     0.464292
    0.644358     0.145233     0.554631
    0.769072     0.500000     0.258525
    0.644358     0.854767     0.554631
    0.380094     0.336189     0.809318
    0.236668     0.500000     0.753610
    0.380094     0.663811     0.809318
    0.232205     0.500000     0.249166
    0.767664     0.500000     0.753999
    0.355529     0.854786     0.448444
    0.355529     0.145214     0.448444
    0.627951     0.336189     0.196757
    0.627951     0.663811     0.196757
    0.553675     0.854780     0.358839
    0.184365     0.336199     0.394053
    0.553675     0.145220     0.358839
    0.184365     0.663801     0.394053
    0.446210     0.854780     0.644236
    0.815534     0.663817     0.609126
    0.446210     0.145220     0.644236
    0.815534     0.336183     0.609126
    0.499991     0.407533     0.501555
    0.499991     0.592467     0.501555
    0.530403     0.500000     0.421034
    0.469576     0.500000     0.582075
    0.581464     0.500000     0.531644
    0.418519     0.500000     0.471467
    0.499941     0.797676     0.501537
    0.499941     0.202324     0.501537
    0.399757     0.500000     0.759914
    0.606106     0.500000     0.245359
    0.235518     0.500000     0.410492
    0.764433     0.500000     0.592678
EA90   17.277  8.736  5.845 90.00 90.00 90.00 Sym.group:    0
1.0000
   17.276865     0.000000     0.000000
    0.000000     8.736180     0.000000
    0.000000     0.000000     5.845324
   O  Cu
  12   24 
Direct
    0.583410     0.561908     0.508885
    0.416590     0.438092     0.508885
    0.635654     0.754025     0.448463
    0.364346     0.245975     0.448463
    0.490312     0.693725     0.774178
    0.509688     0.306275     0.774178
    0.229970     0.254679     0.466972
    0.770030     0.745321     0.466972
    0.244735     0.392238     0.511554
    0.755265     0.607762     0.511554
    0.266094     0.508053     0.702854
    0.733906     0.491947     0.702854
    0.674916     0.698816     0.322205
    0.325084     0.301184     0.322205
    0.637358     0.405290     0.558625
    0.362642     0.594710     0.558625
    0.573137     0.440594     0.225822
    0.426863     0.559406     0.225822
    0.850679     0.628768     0.490919
    0.149321     0.371232     0.490919
    0.603333     0.151096     0.542301
    0.396667     0.848904     0.542301
    0.923597     0.385553     0.449852
    0.076403     0.614447     0.449852
    0.770889     0.524821     0.369437
    0.229111     0.475179     0.369437
    0.717936     0.308009     0.671635
    0.282064     0.691991     0.671635
    0.794456     0.347456     0.354085
    0.205544     0.652544     0.354085
    0.575044     0.455595     0.385692
    0.424956     0.544405     0.385692
    0.689407     0.444841     0.366694
    0.310593     0.555159     0.366694
    0.449813     0.771554     0.681051
    0.550187     0.228446     0.681051
EA91   11.356 11.494  4.143 90.00 90.00 90.00 Sym.group:    0
1.0000
   11.355823     0.000000     0.000000
    0.000000    11.494153     0.000000
    0.000000     0.000000     4.142977
   O  Cu
  12   24 
Direct
    0.123487     0.357729     0.328742
    0.798884     0.246672     0.355998
    0.567677     0.881607     0.326791
    0.470960     0.885159     0.343614
    0.851803     0.326722     0.349307
    0.166971     0.272313     0.318611
    0.666859     0.256101     0.677390
    0.619293     0.760454     0.650203
    0.201678     0.469082     0.665048
    0.786571     0.439134     0.667057
    0.302365     0.274898     0.649404
    0.398828     0.771230     0.676180
    0.317143     0.825065     0.473853
    0.295125     0.172326     0.426034
    0.876805     0.485726     0.451845
    0.116240     0.520690     0.455773
    0.712148     0.808312     0.424471
    0.661389     0.158240     0.471487
    0.749868     0.334763     0.405965
    0.514606     0.794258     0.394671
    0.225873     0.356004     0.387211
    0.407944     0.625621     0.681389
    0.426391     0.354465     0.670991
    0.654910     0.505359     0.670939
    0.339743     0.521066     0.679241
    0.597291     0.615982     0.667688
    0.552134     0.347939     0.676389
    0.883760     0.575881     0.479817
    0.234289     0.784810     0.517700
    0.371571     0.122028     0.460394
    0.580735     0.114841     0.505751
    0.119710     0.611848     0.499659
    0.789981     0.760747     0.452502
    0.332501     0.411109     0.517412
    0.650043     0.397695     0.522308
    0.506993     0.676358     0.519360
EA92   12.732 12.740  4.637 90.00 90.00 90.00 Sym.group:    0
1.0000
   12.731782     0.000000     0.000000
    0.000000    12.740106     0.000000
    0.000000     0.000000     4.637063
   O  Cu
  12   24 
Direct
    0.769403     0.423390     0.665438
    0.575179     0.769775     0.650464
    0.230597     0.576610     0.665438
    0.424821     0.230225     0.650464
    0.256996     0.359991     0.337249
    0.362144     0.743355     0.346575
    0.743004     0.640009     0.337249
    0.637856     0.256645     0.346575
    0.292401     0.767033     0.670881
    0.239051     0.297886     0.645899
    0.707599     0.232967     0.670881
    0.760949     0.702114     0.645899
    0.638496     0.807420     0.326526
    0.804078     0.368864     0.356421
    0.361504     0.192580     0.326526
    0.195922     0.631136     0.356421
    0.354426     0.349574     0.285216
    0.643814     0.357234     0.284663
    0.645574     0.650426     0.285216
    0.356186     0.642766     0.284663
    0.675653     0.389078     0.715337
    0.395281     0.324631     0.714510
    0.324347     0.610922     0.715337
    0.604719     0.675369     0.714510
    0.893178     0.562977     0.406582
    0.439058     0.892928     0.401121
    0.106822     0.437023     0.406582
    0.560942     0.107072     0.401121
    0.103678     0.466048     0.600995
    0.463780     0.896390     0.591027
    0.896322     0.533952     0.600995
    0.536220     0.103610     0.591027
    0.864775     0.219019     0.529132
    0.784260     0.858922     0.470731
    0.135225     0.780981     0.529132
    0.215740     0.141078     0.470731
EA93    9.701  9.442  6.590 90.00 90.00 90.00 Sym.group:    0
1.0000
    9.701056     0.000000     0.000000
    0.000000     9.442392     0.000000
    0.000000     0.000000     6.590139
   O  Cu
  12   24 
Direct
    0.136068     0.603606     0.715754
    0.231234     0.236514     0.722354
    0.591642     0.142432     0.735488
    0.863932     0.396394     0.715754
    0.768766     0.763486     0.722354
    0.408358     0.857568     0.735488
    0.141486     0.385318     0.718194
    0.220488     0.755701     0.719287
    0.578521     0.860205     0.736114
    0.858514     0.614682     0.718194
    0.779512     0.244299     0.719287
    0.421479     0.139795     0.736114
    0.654399     0.783351     0.558672
    0.335479     0.778541     0.557206
    0.176983     0.494522     0.548941
    0.345601     0.216649     0.558672
    0.664521     0.221459     0.557206
    0.823017     0.505478     0.548941
    0.588271     0.349151     0.228021
    0.671652     0.503019     0.225320
    0.583131     0.653825     0.228500
    0.411729     0.650849     0.228021
    0.328348     0.496981     0.225320
    0.416869     0.346175     0.228500
    0.596357     0.559462     0.200430
    0.498069     0.615483     0.201169
    0.401711     0.556022     0.200299
    0.403643     0.440538     0.200430
    0.501931     0.384517     0.201169
    0.598289     0.443978     0.200299
    0.220659     0.333694     0.790066
    0.505981     0.187885     0.799701
    0.787312     0.341300     0.788358
    0.779341     0.666306     0.790066
    0.494019     0.812115     0.799701
    0.212688     0.658700     0.788358
EA94   18.924 12.658  7.044 90.00 90.00 90.00 Sym.group:    0
1.0000
   18.924437     0.000000     0.000000
    0.000000    12.658251     0.000000
    0.000000     0.000000     7.043764
   O  Cu
  12   24 
Direct
    0.260487     0.558319     0.202021
    0.467525     0.419554     0.309328
    0.739513     0.441681     0.202021
    0.532475     0.580446     0.309328
    0.069751     0.598298     0.812600
    0.348872     0.289701     0.676647
    0.930249     0.401702     0.812600
    0.651128     0.710299     0.676647
    0.254366     0.401932     0.686706
    0.362921     0.428706     0.802540
    0.745634     0.598068     0.686706
    0.637079     0.571294     0.802540
    0.174315     0.589127     0.300250
    0.355006     0.446028     0.211099
    0.825685     0.410873     0.300250
    0.644994     0.553972     0.211099
    0.658138     0.572614     0.640366
    0.272597     0.425001     0.509735
    0.341862     0.427386     0.640366
    0.727403     0.574999     0.509735
    0.657908     0.651150     0.359422
    0.128381     0.555182     0.491073
    0.342092     0.348850     0.359422
    0.871619     0.444818     0.491073
    0.624226     0.575539     0.490573
    0.274554     0.475701     0.359922
    0.375774     0.424461     0.490573
    0.725446     0.524299     0.359922
    0.659641     0.701638     0.509370
    0.094611     0.557773     0.640731
    0.340359     0.298362     0.509370
    0.905389     0.442227     0.640731
    0.777860     0.895720     0.634777
    0.421535     0.523309     0.187400
    0.222140     0.104280     0.634777
    0.578465     0.476691     0.187400
EA95    9.582 10.450  4.459 90.00 90.00 90.00 Sym.group:    0
1.0000
    9.582260     0.000000     0.000000
    0.000000    10.449523     0.000000
    0.000000     0.000000     4.459481
   O  Cu
  12   24 
Direct
    0.791764     0.624076     0.295999
    0.760200     0.335372     0.304059
    0.470819     0.215855     0.325092
    0.208236     0.375924     0.295999
    0.239800     0.664628     0.304059
    0.529181     0.784145     0.325092
    0.437221     0.789658     0.704001
    0.204562     0.591767     0.677797
    0.265709     0.306938     0.678175
    0.562779     0.210342     0.704001
    0.795438     0.408233     0.677797
    0.734291     0.693062     0.678175
    0.783356     0.622880     0.674216
    0.753996     0.334039     0.682305
    0.472105     0.204320     0.703453
    0.216644     0.377120     0.674216
    0.246004     0.665961     0.682305
    0.527895     0.795680     0.703453
    0.438500     0.778120     0.325814
    0.198346     0.590443     0.299484
    0.257309     0.305752     0.299852
    0.561500     0.221880     0.325814
    0.801654     0.409557     0.299484
    0.742691     0.694248     0.299852
    0.733908     0.641414     0.490334
    0.747007     0.386256     0.492980
    0.514349     0.244757     0.509248
    0.266092     0.358586     0.490334
    0.252993     0.613744     0.492980
    0.485651     0.755243     0.509248
    0.842918     0.705489     0.478115
    0.862245     0.332107     0.485259
    0.523731     0.126322     0.529188
    0.157082     0.294511     0.478115
    0.137755     0.667893     0.485259
    0.476269     0.873678     0.529188
EA96   12.517 11.973  8.093 90.00 90.00 90.00 Sym.group:    0
1.0000
   12.517234     0.000000     0.000000
    0.000000    11.972873     0.000000
    0.000000     0.000000     8.092553
   O  Cu
  12   24 
Direct
    0.498804     0.234224     0.542479
    0.799720     0.261134     0.163977
    0.809215     0.588175     0.415736
    0.501196     0.765776     0.542479
    0.200280     0.738866     0.163977
    0.190785     0.411825     0.415736
    0.725827     0.826842     0.788117
    0.797891     0.493702     0.459966
    0.566494     0.228463     0.449136
    0.274173     0.173158     0.788117
    0.202109     0.506298     0.459966
    0.433506     0.771537     0.449136
    0.410565     0.110249     0.731672
    0.695840     0.337786     0.356907
    0.777835     0.661807     0.608641
    0.589435     0.889751     0.731672
    0.304160     0.662214     0.356907
    0.222165     0.338193     0.608641
    0.654828     0.694022     0.594598
    0.832134     0.423777     0.267770
    0.681820     0.163737     0.259823
    0.345172     0.305978     0.594598
    0.167866     0.576223     0.267770
    0.318180     0.836263     0.259823
    0.706386     0.527422     0.464634
    0.574407     0.700977     0.502015
    0.378163     0.673308     0.443056
    0.293614     0.472578     0.464634
    0.425593     0.299023     0.502015
    0.621837     0.326692     0.443056
    0.894545     0.554444     0.409705
    0.653371     0.880338     0.836887
    0.258736     0.825894     0.163113
    0.105455     0.445556     0.409705
    0.346629     0.119662     0.836887
    0.741264     0.174106     0.163113
EA97   11.274 10.333  5.698 90.00 90.00 90.00 Sym.group:    0
1.0000
   11.274092     0.000000     0.000000
    0.000000    10.332777     0.000000
    0.000000     0.000000     5.698307
   O  Cu
  12   24 
Direct
    0.266091     0.480866     0.768346
    0.663811     0.367039     0.768352
    0.555302     0.799780     0.768320
    0.458013     0.805082     0.768320
    0.716664     0.456315     0.768341
    0.310528     0.386289     0.768352
    0.698147     0.323991     0.612474
    0.572311     0.853735     0.612470
    0.214758     0.469947     0.612471
    0.766745     0.439870     0.612473
    0.272433     0.347191     0.612474
    0.446016     0.860617     0.612475
    0.324594     0.848506     0.474716
    0.342759     0.238504     0.474699
    0.817852     0.560663     0.474693
    0.174934     0.595695     0.474690
    0.692021     0.828485     0.474714
    0.618244     0.223493     0.474698
    0.634435     0.451005     0.609477
    0.503344     0.730037     0.609451
    0.347425     0.466645     0.609478
    0.406046     0.695018     0.338389
    0.423863     0.392215     0.338391
    0.655295     0.560452     0.338392
    0.336663     0.577812     0.338395
    0.596960     0.684615     0.338388
    0.551582     0.385255     0.338384
    0.882917     0.636124     0.231654
    0.232166     0.872251     0.231698
    0.370120     0.139290     0.231651
    0.581960     0.127749     0.231661
    0.117083     0.677854     0.231648
    0.786157     0.842066     0.231698
    0.400950     0.496583     0.385159
    0.583912     0.486614     0.385158
    0.500343     0.664490     0.385146
EA98   13.198 13.282  4.399 90.00 90.00 90.00 Sym.group:    0
1.0000
   13.198265     0.000000     0.000000
    0.000000    13.281600     0.000000
    0.000000     0.000000     4.398584
   O  Cu
  12   24 
Direct
    0.746030     0.383374     0.371160
    0.375798     0.724122     0.339292
    0.250119     0.224714     0.361386
    0.420546     0.735433     0.652619
    0.722630     0.309332     0.621981
    0.214045     0.272871     0.647077
    0.742549     0.367120     0.654440
    0.360214     0.723742     0.622572
    0.254421     0.226813     0.644666
    0.436118     0.735871     0.369339
    0.726049     0.325607     0.338701
    0.209740     0.270769     0.363797
    0.762982     0.596540     0.699903
    0.167946     0.628993     0.687941
    0.435481     0.102034     0.689548
    0.648855     0.721426     0.312624
    0.601891     0.132384     0.300097
    0.111173     0.469311     0.303404
    0.760402     0.594265     0.312815
    0.166934     0.628670     0.300852
    0.435385     0.099386     0.302460
    0.651491     0.723794     0.699712
    0.602216     0.133772     0.687185
    0.113506     0.469199     0.690493
    0.377931     0.541619     0.487252
    0.406193     0.325461     0.478802
    0.580443     0.457861     0.530705
    0.543966     0.352227     0.483370
    0.332370     0.409670     0.482319
    0.488230     0.563047     0.531073
    0.405870     0.690648     0.499268
    0.262345     0.274992     0.498294
    0.696350     0.359303     0.499196
    0.364564     0.900614     0.481365
    0.100013     0.134460     0.530384
    0.899987     0.289867     0.485006
EA99   18.157 11.387  8.252 90.00 90.00 90.00 Sym.group:    0
1.0000
   18.156916     0.000000     0.000000
    0.000000    11.386913     0.000000
    0.000000     0.000000     8.252336
   O  Cu
  12   24 
Direct
    0.569695     0.422419     0.647537
    0.430305     0.577581     0.647537
    0.596670     0.594582     0.654191
    0.403330     0.405418     0.654191
    0.418090     0.852651     0.840045
    0.581910     0.147349     0.840045
    0.288548     0.330815     0.500600
    0.711452     0.669185     0.500600
    0.273954     0.448507     0.511164
    0.726046     0.551493     0.511164
    0.249532     0.571556     0.635100
    0.750468     0.428444     0.635100
    0.607572     0.600091     0.471059
    0.392428     0.399909     0.471059
    0.653001     0.326109     0.594220
    0.346999     0.673891     0.594220
    0.541192     0.358749     0.424940
    0.458808     0.641251     0.424940
    0.811062     0.621134     0.418996
    0.188938     0.378866     0.418996
    0.663394     0.115923     0.541828
    0.336606     0.884077     0.541828
    0.927300     0.503658     0.159955
    0.072700     0.496342     0.159955
    0.734832     0.514921     0.375981
    0.265168     0.485079     0.375981
    0.762215     0.283859     0.581075
    0.237785     0.716141     0.581075
    0.785346     0.395296     0.301220
    0.214654     0.604704     0.301220
    0.560961     0.353560     0.539744
    0.439039     0.646440     0.539744
    0.670051     0.409605     0.424894
    0.329949     0.590395     0.424894
    0.382661     0.874818     0.704972
    0.617339     0.125182     0.704972
EA100  12.636 12.619  7.054 90.00 90.00 90.00 Sym.group:    0
1.0000
   12.636111     0.000000     0.000000
    0.000000    12.618782     0.000000
    0.000000     0.000000     7.053603
   O  Cu
  12   24 
Direct
    0.206038     0.437482     0.807260
    0.640174     0.264931     0.806599
    0.572150     0.727688     0.806679
    0.478527     0.895394     0.187405
    0.831952     0.262303     0.187612
    0.107612     0.272306     0.187138
    0.665594     0.277510     0.669759
    0.548539     0.743407     0.669874
    0.204123     0.408960     0.669946
    0.734045     0.469667     0.579950
    0.336065     0.253496     0.579793
    0.348088     0.706706     0.579968
    0.301348     0.866499     0.362544
    0.221131     0.133017     0.362222
    0.895537     0.430382     0.362602
    0.215023     0.529690     0.636568
    0.647480     0.673781     0.636312
    0.555923     0.226502     0.636142
    0.725294     0.365500     0.467324
    0.442563     0.751265     0.467310
    0.250369     0.313134     0.467318
    0.344482     0.576854     0.703603
    0.450188     0.315254     0.703394
    0.623543     0.537728     0.703428
    0.335202     0.447961     0.558295
    0.516748     0.610241     0.558414
    0.566298     0.371635     0.558193
    0.791938     0.554135     0.812251
    0.246133     0.714690     0.812549
    0.380174     0.161166     0.812862
    0.565648     0.104606     0.228050
    0.104463     0.582138     0.227485
    0.748062     0.743233     0.227992
    0.342529     0.368711     0.539966
    0.631146     0.417620     0.539948
    0.444554     0.643528     0.540081
EA101  12.322  8.553  6.549 90.00 90.00 90.00 Sym.group:    0
1.0000
   12.322060     0.000000     0.000000
    0.000000     8.553228     0.000000
    0.000000     0.000000     6.548727
   O  Cu
  12   24 
Direct
    0.275608     0.744633     0.689692
    0.517171     0.719577     0.784079
    0.791774     0.480348     0.798434
    0.724392     0.255367     0.689692
    0.482829     0.280423     0.784079
    0.208226     0.519652     0.798434
    0.275608     0.744633     0.310308
    0.517171     0.719577     0.215921
    0.791774     0.480348     0.201566
    0.724392     0.255367     0.310308
    0.482829     0.280423     0.215921
    0.208226     0.519652     0.201566
    0.397669     0.433707     0.671877
    0.113276     0.702148     0.669262
    0.389389     0.780310     0.670995
    0.602331     0.566293     0.671877
    0.886724     0.297852     0.669262
    0.610611     0.219690     0.670995
    0.397669     0.433707     0.328123
    0.113276     0.702148     0.330738
    0.389389     0.780310     0.329005
    0.602331     0.566293     0.328123
    0.886724     0.297852     0.330738
    0.610611     0.219690     0.329005
    0.614338     0.471829     0.573849
    0.892875     0.154328     0.574175
    0.566156     0.344073     0.573891
    0.385662     0.528171     0.573849
    0.107125     0.845672     0.574175
    0.433844     0.655927     0.573891
    0.614338     0.471829     0.426151
    0.892875     0.154328     0.425825
    0.566156     0.344073     0.426109
    0.385662     0.528171     0.426151
    0.107125     0.845672     0.425825
    0.433844     0.655927     0.426109
EA102   9.619 10.445  4.402 90.00 90.00 90.00 Sym.group:    0
1.0000
    9.619344     0.000000     0.000000
    0.000000    10.444920     0.000000
    0.000000     0.000000     4.402262
   O  Cu
  12   24 
Direct
    0.792199     0.628221     0.312930
    0.754079     0.337564     0.305339
    0.472170     0.224224     0.300406
    0.220889     0.383249     0.303065
    0.238064     0.670736     0.310656
    0.527464     0.802369     0.315589
    0.439329     0.772238     0.697966
    0.211595     0.586084     0.697749
    0.264480     0.305282     0.690972
    0.564855     0.203484     0.684411
    0.809189     0.401823     0.684628
    0.736549     0.689775     0.691405
    0.789218     0.621894     0.696615
    0.762558     0.329909     0.687650
    0.473671     0.208093     0.682223
    0.217908     0.376922     0.685762
    0.246542     0.663082     0.694727
    0.528965     0.786238     0.700154
    0.437407     0.788360     0.316149
    0.203057     0.593488     0.315440
    0.267448     0.311768     0.307290
    0.562933     0.219607     0.299846
    0.800650     0.409226     0.300554
    0.739516     0.696260     0.308704
    0.736139     0.640831     0.505070
    0.751720     0.385495     0.489787
    0.519441     0.245710     0.484309
    0.272128     0.360893     0.494116
    0.256476     0.615609     0.509399
    0.488209     0.755762     0.514877
    0.841245     0.709827     0.495028
    0.862777     0.324519     0.507767
    0.512561     0.126377     0.512333
    0.161450     0.299710     0.504158
    0.137223     0.661648     0.491419
    0.466803     0.873623     0.486853
EA103   9.680 10.461  4.394 90.00 90.00 90.00 Sym.group:    0
1.0000
    9.679710     0.000000     0.000000
    0.000000    10.460648     0.000000
    0.000000     0.000000     4.393957
   O  Cu
  12   24 
Direct
    0.788881     0.625484     0.313848
    0.761718     0.331787     0.314350
    0.471150     0.222177     0.303062
    0.211119     0.374516     0.313848
    0.238282     0.668213     0.314350
    0.528850     0.777823     0.303062
    0.437680     0.794840     0.686979
    0.208396     0.589370     0.697738
    0.270530     0.310481     0.698289
    0.562320     0.205160     0.686979
    0.791604     0.410630     0.697738
    0.729470     0.689519     0.698289
    0.783668     0.622910     0.699091
    0.756410     0.333829     0.699587
    0.471695     0.211426     0.684327
    0.216332     0.377090     0.699091
    0.243590     0.666171     0.699587
    0.528305     0.788574     0.684327
    0.438447     0.784100     0.300413
    0.202937     0.591368     0.315142
    0.265471     0.307878     0.315705
    0.561553     0.215900     0.300413
    0.797063     0.408632     0.315142
    0.734529     0.692122     0.315705
    0.731247     0.638997     0.509059
    0.745490     0.384294     0.509015
    0.517642     0.245468     0.489054
    0.268753     0.361003     0.509059
    0.254510     0.615706     0.509015
    0.482358     0.754532     0.489054
    0.833925     0.710415     0.499800
    0.863632     0.337679     0.499817
    0.508337     0.126187     0.507531
    0.166075     0.289585     0.499800
    0.136368     0.662321     0.499817
    0.491663     0.873813     0.507531
EA104  13.463 12.204  4.578 90.00 90.00 90.00 Sym.group:    0
1.0000
   13.463213     0.000000     0.000000
    0.000000    12.203846     0.000000
    0.000000     0.000000     4.577549
   O  Cu
  12   24 
Direct
    0.418165     0.878403     0.545778
    0.760423     0.766288     0.566078
    0.834061     0.384517     0.532479
    0.581835     0.121597     0.545778
    0.239577     0.233712     0.566078
    0.165939     0.615483     0.532479
    0.283102     0.869496     0.428825
    0.692013     0.891837     0.477242
    0.901955     0.511101     0.438094
    0.716898     0.130504     0.428825
    0.307987     0.108163     0.477242
    0.098045     0.488899     0.438094
    0.492694     0.270471     0.641091
    0.319132     0.387748     0.641914
    0.327681     0.614454     0.627253
    0.507306     0.729529     0.641091
    0.680868     0.612252     0.641914
    0.672319     0.385546     0.627253
    0.590464     0.775765     0.711636
    0.756053     0.553838     0.697475
    0.664072     0.284710     0.680149
    0.409536     0.224235     0.711636
    0.243947     0.446162     0.697475
    0.335928     0.715290     0.680149
    0.626666     0.558794     0.294319
    0.607889     0.408344     0.288364
    0.481726     0.347388     0.297330
    0.373334     0.441206     0.294319
    0.392111     0.591656     0.288364
    0.518274     0.652612     0.297330
    0.310356     0.331313     0.367119
    0.275192     0.596246     0.347489
    0.460698     0.765193     0.358420
    0.689644     0.668687     0.367119
    0.724808     0.403754     0.347489
    0.539302     0.234807     0.358420
EA105  20.445 19.616 14.327 90.00 90.00 90.00 Sym.group:    0
1.0000
   20.445337     0.000000     0.000000
    0.000000    19.616015     0.000000
    0.000000     0.000000    14.326909
   O  Cu
  12   24 
Direct
    0.365602     0.434780     0.441128
    0.378610     0.588702     0.441128
    0.513008     0.653922     0.441128
    0.634398     0.565220     0.441128
    0.621390     0.411298     0.441128
    0.486992     0.346078     0.441128
    0.529529     0.348578     0.558872
    0.640581     0.450943     0.558872
    0.611052     0.602365     0.558872
    0.470471     0.651422     0.558872
    0.359419     0.549057     0.558872
    0.388948     0.397635     0.558872
    0.365602     0.434780     0.558872
    0.378610     0.588702     0.558872
    0.513008     0.653922     0.558872
    0.634398     0.565220     0.558872
    0.621390     0.411298     0.558872
    0.486992     0.346078     0.558872
    0.529529     0.348578     0.441128
    0.640581     0.450943     0.441128
    0.611052     0.602365     0.441128
    0.470471     0.651422     0.441128
    0.359419     0.549057     0.441128
    0.388948     0.397635     0.441128
    0.390843     0.425471     0.500000
    0.383496     0.561264     0.500000
    0.492653     0.635793     0.500000
    0.609157     0.574529     0.500000
    0.616504     0.438736     0.500000
    0.507347     0.364207     0.500000
    0.340081     0.390813     0.500000
    0.329317     0.589755     0.500000
    0.489236     0.698943     0.500000
    0.659919     0.609187     0.500000
    0.670683     0.410245     0.500000
    0.510764     0.301057     0.500000
EA106  21.372 21.561 14.037 90.00 90.00 90.00 Sym.group:    0
1.0000
   21.372068     0.000000     0.000000
    0.000000    21.561377     0.000000
    0.000000     0.000000    14.037263
   O  Cu
  12   24 
Direct
    0.697722     0.571831     0.448491
    0.338380     0.633814     0.448491
    0.463896     0.294355     0.448491
    0.515253     0.291813     0.448491
    0.310482     0.591000     0.448491
    0.674266     0.617187     0.448491
    0.409356     0.627227     0.545013
    0.434164     0.358577     0.545013
    0.656479     0.514197     0.545013
    0.345726     0.529580     0.545013
    0.602981     0.617642     0.545013
    0.551293     0.352778     0.545013
    0.596268     0.323418     0.481960
    0.606145     0.670929     0.481960
    0.297587     0.505652     0.481960
    0.701974     0.485634     0.481960
    0.386462     0.333804     0.481960
    0.411565     0.680561     0.481960
    0.364722     0.586611     0.465837
    0.491967     0.340569     0.465837
    0.643310     0.572820     0.465837
    0.546931     0.430479     0.548031
    0.537275     0.575046     0.548031
    0.415795     0.494474     0.548031
    0.583231     0.486186     0.548031
    0.446315     0.435460     0.548031
    0.470454     0.578354     0.548031
    0.294229     0.457367     0.492406
    0.640134     0.344678     0.492406
    0.565637     0.697956     0.492406
    0.454586     0.703453     0.492406
    0.700462     0.437258     0.492406
    0.344951     0.359290     0.492406
    0.586836     0.544124     0.502359
    0.418031     0.552480     0.502359
    0.495133     0.403396     0.502359
EA107  21.993 21.993 15.350 90.00 90.00 90.00 Sym.group:    0
1.0000
   21.993113     0.000000     0.000000
    0.000000    21.993113     0.000000
    0.000000     0.000000    15.349794
   O  Cu
  12   24 
Direct
    0.707248     0.547589     0.517118
    0.452411     0.707248     0.517118
    0.292752     0.452411     0.517118
    0.547589     0.292752     0.517118
    0.550131     0.706648     0.482882
    0.706648     0.449869     0.482882
    0.449869     0.293352     0.482882
    0.293352     0.550131     0.482882
    0.412597     0.560590     0.523705
    0.439410     0.412597     0.523705
    0.587403     0.439410     0.523705
    0.560590     0.587403     0.523705
    0.559512     0.411860     0.476295
    0.411860     0.440488     0.476295
    0.440488     0.588140     0.476295
    0.588140     0.559512     0.476295
    0.333363     0.573399     0.527050
    0.426601     0.333363     0.527050
    0.666637     0.426601     0.527050
    0.573399     0.666637     0.527050
    0.571347     0.332473     0.472950
    0.332473     0.428653     0.472950
    0.428653     0.667527     0.472950
    0.667527     0.571347     0.472950
    0.564249     0.575603     0.588268
    0.424397     0.564249     0.588268
    0.435751     0.424397     0.588268
    0.575603     0.435751     0.588268
    0.576387     0.563315     0.411732
    0.563315     0.423613     0.411732
    0.423613     0.436685     0.411732
    0.436685     0.576387     0.411732
    0.498909     0.322260     0.500000
    0.677740     0.498909     0.500000
    0.501091     0.677740     0.500000
    0.322260     0.501091     0.500000
EA108  18.465 18.647 16.011 90.00 90.00 90.00 Sym.group:    0
1.0000
   18.465134     0.000000     0.000000
    0.000000    18.646880     0.000000
    0.000000     0.000000    16.011278
   O  Cu
  12   24 
Direct
    0.607186     0.385374     0.605278
    0.453348     0.350766     0.605278
    0.346161     0.465391     0.605278
    0.392814     0.614626     0.605278
    0.546652     0.649234     0.605278
    0.653839     0.534609     0.605278
    0.607186     0.385374     0.394722
    0.453348     0.350766     0.394722
    0.346161     0.465391     0.394722
    0.392814     0.614626     0.394722
    0.546652     0.649234     0.394722
    0.653839     0.534609     0.394722
    0.617985     0.610984     0.569822
    0.656053     0.454310     0.569822
    0.538068     0.343327     0.569822
    0.382015     0.389016     0.569822
    0.343947     0.545690     0.569822
    0.461932     0.656673     0.569822
    0.617985     0.610984     0.430178
    0.656053     0.454310     0.430178
    0.538068     0.343327     0.430178
    0.382015     0.389016     0.430178
    0.343947     0.545690     0.430178
    0.461932     0.656673     0.430178
    0.371157     0.431248     0.530255
    0.375451     0.576119     0.530255
    0.504295     0.644870     0.530255
    0.628843     0.568752     0.530255
    0.624549     0.423881     0.530255
    0.495705     0.355130     0.530255
    0.371157     0.431248     0.469745
    0.375451     0.576119     0.469745
    0.504295     0.644870     0.469745
    0.628843     0.568752     0.469745
    0.624549     0.423881     0.469745
    0.495705     0.355130     0.469745
EA109  21.460 20.547 15.444 90.00 90.00 90.00 Sym.group:    0
1.0000
   21.459832     0.000000     0.000000
    0.000000    20.547168     0.000000
    0.000000     0.000000    15.444149
   O  Cu
  12   24 
Direct
    0.451488     0.666827     0.601274
    0.662589     0.460465     0.601274
    0.385923     0.372708     0.601274
    0.495771     0.606167     0.519588
    0.590148     0.450741     0.519588
    0.414081     0.443092     0.519588
    0.556897     0.676130     0.526223
    0.617598     0.360472     0.526223
    0.325505     0.463398     0.526223
    0.336995     0.365274     0.500432
    0.469788     0.714800     0.500432
    0.693217     0.419927     0.500432
    0.582960     0.561331     0.419707
    0.509375     0.394298     0.419707
    0.407665     0.544372     0.419707
    0.430414     0.340970     0.569499
    0.402926     0.642455     0.569499
    0.666660     0.516575     0.569499
    0.417697     0.361271     0.480837
    0.426119     0.643807     0.480837
    0.656185     0.494921     0.480837
    0.384574     0.398123     0.469996
    0.473238     0.655340     0.469996
    0.642188     0.446537     0.469996
    0.463329     0.344970     0.507768
    0.389784     0.610683     0.507768
    0.646885     0.544348     0.507768
    0.676627     0.608410     0.511099
    0.501580     0.286038     0.511099
    0.321794     0.605553     0.511099
    0.445738     0.644656     0.425909
    0.647079     0.476751     0.425909
    0.407183     0.378593     0.425909
    0.573249     0.439416     0.467669
    0.413140     0.464039     0.467669
    0.513611     0.596545     0.467669
EA110  21.218 22.545 14.191 90.00 90.00 90.00 Sym.group:    0
1.0000
   21.217830     0.000000     0.000000
    0.000000    22.544825     0.000000
    0.000000     0.000000    14.191136
   O  Cu
  12   24 
Direct
    0.525716     0.673594     0.445348
    0.353119     0.607756     0.445348
    0.327403     0.434163     0.445348
    0.474284     0.326406     0.445348
    0.646881     0.392244     0.445348
    0.672597     0.565837     0.445348
    0.387582     0.360262     0.554652
    0.315206     0.521757     0.554652
    0.427624     0.661495     0.554652
    0.612418     0.639738     0.554652
    0.684794     0.478243     0.554652
    0.572376     0.338505     0.554652
    0.525716     0.673594     0.554652
    0.353119     0.607756     0.554652
    0.327403     0.434163     0.554652
    0.474284     0.326406     0.554652
    0.646881     0.392244     0.554652
    0.672597     0.565837     0.554652
    0.387582     0.360262     0.445348
    0.315206     0.521757     0.445348
    0.427624     0.661495     0.445348
    0.612418     0.639738     0.445348
    0.684794     0.478243     0.445348
    0.572376     0.338505     0.445348
    0.379151     0.485095     0.500000
    0.453291     0.394049     0.500000
    0.574140     0.408954     0.500000
    0.620849     0.514905     0.500000
    0.546709     0.605951     0.500000
    0.425860     0.591046     0.500000
    0.268571     0.471456     0.500000
    0.410551     0.297101     0.500000
    0.641981     0.325645     0.500000
    0.731429     0.528544     0.500000
    0.589449     0.702899     0.500000
    0.358019     0.674355     0.500000
EA111  21.319 21.604 14.098 90.00 90.00 90.00 Sym.group:    0
1.0000
   21.318695     0.000000     0.000000
    0.000000    21.603925     0.000000
    0.000000     0.000000    14.098289
   O  Cu
  12   24 
Direct
    0.703547     0.533672     0.551719
    0.296453     0.466328     0.551719
    0.296453     0.533672     0.448281
    0.703547     0.466328     0.448281
    0.703547     0.533672     0.448281
    0.296453     0.466328     0.448281
    0.296453     0.533672     0.551719
    0.703547     0.466328     0.551719
    0.379000     0.372303     0.549371
    0.621000     0.627697     0.549371
    0.621000     0.372303     0.450629
    0.379000     0.627697     0.450629
    0.379000     0.372303     0.450629
    0.621000     0.627697     0.450629
    0.621000     0.372303     0.549371
    0.379000     0.627697     0.549371
    0.545394     0.292539     0.457455
    0.454606     0.707461     0.457455
    0.454606     0.292539     0.542545
    0.545394     0.707461     0.542545
    0.545394     0.292539     0.542545
    0.454606     0.707461     0.542545
    0.454606     0.292539     0.457455
    0.545394     0.707461     0.457455
    0.357005     0.555112     0.500000
    0.642995     0.444888     0.500000
    0.642995     0.555112     0.500000
    0.357005     0.444888     0.500000
    0.421892     0.450299     0.454159
    0.578108     0.549701     0.454159
    0.578108     0.450299     0.545841
    0.421892     0.549701     0.545841
    0.421892     0.450299     0.545841
    0.578108     0.549701     0.545841
    0.578108     0.450299     0.454159
    0.421892     0.549701     0.454159
EA112  22.615 23.366 14.485 90.00 90.00 90.00 Sym.group:    0
1.0000
   22.615392     0.000000     0.000000
    0.000000    23.366125     0.000000
    0.000000     0.000000    14.485134
   O  Cu
  12   24 
Direct
    0.547037     0.302008     0.516239
    0.346361     0.361578     0.516239
    0.299323     0.559569     0.516239
    0.452963     0.697992     0.516239
    0.653639     0.638422     0.516239
    0.700677     0.440431     0.516239
    0.626640     0.303735     0.484619
    0.387706     0.295719     0.484619
    0.261068     0.491983     0.484619
    0.373360     0.696265     0.484619
    0.612294     0.704281     0.484619
    0.738932     0.508017     0.484619
    0.502641     0.618440     0.544251
    0.607298     0.557006     0.544251
    0.604656     0.438566     0.544251
    0.497359     0.381560     0.544251
    0.392702     0.442994     0.544251
    0.395344     0.561434     0.544251
    0.447771     0.358684     0.563107
    0.347440     0.473119     0.563107
    0.399668     0.614436     0.563107
    0.552229     0.641316     0.563107
    0.652560     0.526881     0.563107
    0.600332     0.385564     0.563107
    0.424296     0.469552     0.435726
    0.434904     0.548232     0.435726
    0.510608     0.578679     0.435726
    0.575704     0.530448     0.435726
    0.565096     0.451768     0.435726
    0.489392     0.421321     0.435726
    0.612342     0.588004     0.456058
    0.634915     0.449837     0.456058
    0.522573     0.361833     0.456058
    0.387658     0.411996     0.456058
    0.365085     0.550163     0.456058
    0.477427     0.638167     0.456058
EA113  10.158 10.628  6.466 90.00 90.00 90.00 Sym.group:    0
1.0000
   10.158240     0.000000     0.000000
    0.000000    10.627741     0.000000
    0.000000     0.000000     6.465572
   O  Cu
  12   24 
Direct
    0.260912     0.615162     0.223176
    0.487665     0.798549     0.367582
    0.574699     0.206969     0.385473
    0.304429     0.319372     0.232122
    0.179622     0.526322     0.454211
    0.874929     0.379470     0.638914
    0.796329     0.754212     0.612571
    0.440809     0.119028     0.527410
    0.784038     0.268285     0.750069
    0.825052     0.647664     0.798466
    0.522841     0.877784     0.624206
    0.592148     0.225321     0.680940
    0.198548     0.609643     0.470121
    0.242065     0.313853     0.479066
    0.365315     0.259920     0.264733
    0.654511     0.230839     0.433995
    0.697048     0.745598     0.488322
    0.407852     0.774679     0.319060
    0.241986     0.531841     0.207266
    0.251193     0.562920     0.356527
    0.425801     0.752472     0.470465
    0.325393     0.310448     0.386062
    0.135490     0.592182     0.289807
    0.244195     0.222299     0.333076
    0.838579     0.376282     0.790530
    0.560425     0.123664     0.602151
    0.403225     0.873148     0.549465
    0.759979     0.751024     0.764187
    0.820388     0.271472     0.598453
    0.861403     0.650852     0.646850
    0.599011     0.696053     0.573452
    0.717145     0.508417     0.635682
    0.618134     0.312364     0.562230
    0.656614     0.810114     0.616184
    0.843473     0.513315     0.714618
    0.686861     0.203200     0.598434
EA114  10.363  8.012 10.605 90.00 90.00 90.00 Sym.group:    0
1.0000
   10.363225     0.000000     0.000000
    0.000000     8.011624     0.000000
    0.000000     0.000000    10.604501
   O  Cu
  12   24 
Direct
    0.438612     0.321193     0.133412
    0.611784     0.257028     0.166689
    0.497090     0.180338     0.183429
    0.553306     0.397882     0.116672
    0.269586     0.296447     0.299840
    0.760372     0.452823     0.284101
    0.714594     0.641589     0.712196
    0.435322     0.502009     0.803482
    0.260433     0.275081     0.628985
    0.193415     0.514691     0.640884
    0.428841     0.748472     0.763607
    0.700836     0.826853     0.587171
    0.325409     0.161987     0.347586
    0.704549     0.587283     0.236354
    0.883000     0.631284     0.390959
    0.128239     0.274653     0.452954
    0.834895     0.747154     0.349814
    0.176344     0.158783     0.494099
    0.611563     0.414607     0.240456
    0.423840     0.289087     0.267855
    0.450939     0.300053     0.400233
    0.568400     0.538096     0.331192
    0.399107     0.424899     0.355901
    0.620231     0.413249     0.375524
    0.638379     0.827166     0.653663
    0.350626     0.686265     0.752828
    0.174465     0.452841     0.568249
    0.279625     0.336402     0.701637
    0.513751     0.562674     0.814720
    0.777300     0.640524     0.646255
    0.687160     0.705928     0.632935
    0.443875     0.609138     0.753832
    0.258210     0.405934     0.621305
    0.763079     0.811301     0.697606
    0.397202     0.666171     0.865294
    0.141170     0.363465     0.671396
EA115  10.080  8.710 10.579 90.00 90.00 90.00 Sym.group:    0
1.0000
   10.080019     0.000000     0.000000
    0.000000     8.709866     0.000000
    0.000000     0.000000    10.579467
   O  Cu
  12   24 
Direct
    0.845594     0.420605     0.422219
    0.712261     0.396888     0.239399
    0.514052     0.190894     0.805203
    0.773772     0.184546     0.539633
    0.135343     0.369861     0.606947
    0.128658     0.636995     0.399385
    0.477697     0.576093     0.123513
    0.744931     0.643077     0.226399
    0.334980     0.851045     0.305834
    0.208028     0.705042     0.707611
    0.242364     0.631958     0.541860
    0.426505     0.664880     0.279709
    0.787056     0.276311     0.367444
    0.677148     0.154315     0.694567
    0.832309     0.328841     0.594407
    0.682747     0.430317     0.396052
    0.666383     0.317263     0.608189
    0.866608     0.389082     0.271329
    0.835269     0.172580     0.677577
    0.245087     0.322525     0.734594
    0.645930     0.388245     0.822378
    0.354686     0.342714     0.760478
    0.400118     0.440292     0.798428
    0.130957     0.574433     0.534989
    0.352233     0.630076     0.191140
    0.813509     0.534508     0.319379
    0.462119     0.793016     0.243613
    0.211877     0.764359     0.571042
    0.289356     0.743343     0.340431
    0.644669     0.592249     0.219317
    0.230709     0.581741     0.694819
    0.555716     0.605577     0.193394
    0.224892     0.697546     0.393482
    0.780441     0.346081     0.693634
    0.256130     0.488512     0.733738
    0.549775     0.330771     0.792728
EA116   9.635  8.066  9.088 90.00 90.00 90.00 Sym.group:    0
1.0000
    9.634794     0.000000     0.000000
    0.000000     8.065865     0.000000
    0.000000     0.000000     9.087686
   O  Cu
  12   24 
Direct
    0.412914     0.428402     0.172766
    0.246583     0.685761     0.341944
    0.367256     0.836120     0.620743
    0.226729     0.673743     0.660095
    0.197369     0.466717     0.382725
    0.424304     0.226485     0.286209
    0.665894     0.313075     0.252757
    0.688867     0.704799     0.714793
    0.819188     0.443048     0.520081
    0.740102     0.363158     0.698011
    0.543424     0.614396     0.828865
    0.661105     0.173936     0.421677
    0.345392     0.280956     0.283838
    0.177429     0.538019     0.451468
    0.286247     0.695958     0.729848
    0.307700     0.813834     0.551034
    0.266524     0.614489     0.273180
    0.491846     0.373982     0.175117
    0.427217     0.346648     0.260405
    0.252448     0.568339     0.378443
    0.320206     0.729550     0.625012
    0.394913     0.274901     0.144716
    0.138431     0.597982     0.318230
    0.233185     0.824420     0.682524
    0.594747     0.163423     0.357820
    0.617721     0.555147     0.819856
    0.748041     0.293396     0.625144
    0.811248     0.512810     0.592948
    0.614570     0.764048     0.723802
    0.732251     0.323587     0.316614
    0.645424     0.271863     0.355214
    0.603305     0.641952     0.741775
    0.748729     0.413815     0.596990
    0.713050     0.165771     0.287883
    0.651347     0.707966     0.854211
    0.864397     0.373736     0.642094
EA117  11.046 10.997  7.202 90.00 90.00 90.00 Sym.group:    0
1.0000
   11.046461     0.000000     0.000000
    0.000000    10.996713     0.000000
    0.000000     0.000000     7.202293
   O  Cu
  12   24 
Direct
    0.430464     0.265192     0.453905
    0.397891     0.221576     0.828868
    0.400011     0.212876     0.571102
    0.120683     0.492312     0.469524
    0.471570     0.816629     0.171132
    0.593491     0.179877     0.585778
    0.844304     0.403873     0.482204
    0.756025     0.703165     0.287530
    0.745035     0.307734     0.772414
    0.583847     0.823981     0.435438
    0.834094     0.610884     0.598956
    0.254399     0.255173     0.494678
    0.236939     0.531485     0.614377
    0.245119     0.517439     0.366414
    0.201075     0.635961     0.412973
    0.177341     0.415829     0.562678
    0.253591     0.389926     0.488050
    0.275341     0.657701     0.495065
    0.380475     0.199591     0.399522
    0.480195     0.197050     0.543677
    0.495919     0.290974     0.585563
    0.402657     0.644135     0.249833
    0.481359     0.860354     0.508076
    0.433473     0.800443     0.390801
    0.322300     0.868328     0.369823
    0.583067     0.221538     0.803570
    0.833880     0.445534     0.699996
    0.745601     0.744827     0.505322
    0.755459     0.266073     0.554622
    0.594271     0.782320     0.217646
    0.844518     0.569223     0.381164
    0.699282     0.402482     0.586098
    0.500264     0.703712     0.375519
    0.881628     0.313249     0.664879
    0.882134     0.703364     0.426494
    0.500506     0.890113     0.261615
EA118   9.714  6.818 10.188 90.00 90.00 90.00 Sym.group:    0
1.0000
    9.714244     0.000000     0.000000
    0.000000     6.818176     0.000000
    0.000000     0.000000    10.187590
   O  Cu
  12   24 
Direct
    0.292540     0.458200     0.246315
    0.185758     0.451432     0.546974
    0.343819     0.351990     0.767883
    0.248129     0.196598     0.486117
    0.710959     0.460291     0.263340
    0.771160     0.544791     0.215879
    0.831859     0.608027     0.282306
    0.584134     0.635347     0.228132
    0.722568     0.779563     0.379629
    0.808120     0.624404     0.587116
    0.405042     0.731311     0.778632
    0.152825     0.512446     0.628405
    0.360904     0.233059     0.282114
    0.244029     0.217947     0.576447
    0.412605     0.410610     0.808712
    0.189890     0.429977     0.456652
    0.363244     0.494975     0.197094
    0.377207     0.380001     0.268736
    0.246918     0.347194     0.515210
    0.320549     0.320132     0.159813
    0.134795     0.260347     0.520001
    0.297162     0.493533     0.861087
    0.853419     0.744102     0.421182
    0.720618     0.581841     0.304569
    0.595357     0.735829     0.465529
    0.351055     0.542130     0.364405
    0.476441     0.611943     0.335388
    0.862980     0.802546     0.503227
    0.605939     0.611858     0.374590
    0.200773     0.568246     0.695834
    0.766755     0.626435     0.666337
    0.487214     0.627661     0.757972
    0.718304     0.719155     0.597025
    0.492629     0.675224     0.878571
    0.831183     0.809265     0.642778
    0.488687     0.643329     0.666228
EA119   9.902  6.694  9.689 90.00 90.00 90.00 Sym.group:    0
1.0000
    9.902226     0.000000     0.000000
    0.000000     6.694306     0.000000
    0.000000     0.000000     9.689319
   O  Cu
  12   24 
Direct
    0.222378     0.495561     0.326675
    0.763870     0.541319     0.309986
    0.494050     0.416807     0.169775
    0.587831     0.219101     0.274602
    0.793352     0.367698     0.465930
    0.292181     0.237357     0.340123
    0.290215     0.736146     0.681333
    0.587398     0.801323     0.734084
    0.791853     0.679505     0.516389
    0.771895     0.498864     0.667086
    0.511861     0.574245     0.822723
    0.245295     0.461054     0.691999
    0.235514     0.270850     0.404736
    0.765779     0.315748     0.388892
    0.502037     0.197262     0.257334
    0.580327     0.437064     0.187583
    0.791528     0.592384     0.387598
    0.279101     0.461380     0.262093
    0.283254     0.379991     0.352890
    0.746960     0.455502     0.399946
    0.533857     0.332666     0.254164
    0.186699     0.328286     0.279146
    0.866089     0.452204     0.357205
    0.563714     0.276795     0.135254
    0.300874     0.507490     0.754057
    0.598057     0.572667     0.806808
    0.802512     0.450849     0.589113
    0.761236     0.727520     0.594362
    0.501201     0.802901     0.749999
    0.234636     0.689710     0.619275
    0.293431     0.587698     0.666028
    0.544143     0.667023     0.747623
    0.750712     0.579324     0.581595
    0.197370     0.628482     0.743238
    0.564672     0.744696     0.862778
    0.867302     0.616213     0.619540
EA120   6.307 10.270 10.652 90.00 90.00 90.00 Sym.group:    0
1.0000
    6.307260     0.000000     0.000000
    0.000000    10.270042     0.000000
    0.000000     0.000000    10.652094
   O  Cu
  12   24 
Direct
    0.429100     0.128925     0.375242
    0.300219     0.446140     0.208510
    0.281618     0.211600     0.793082
    0.793934     0.286342     0.761153
    0.805566     0.191086     0.470547
    0.413586     0.810372     0.255438
    0.400002     0.860905     0.336360
    0.257261     0.647928     0.267720
    0.226283     0.763180     0.452276
    0.661222     0.529104     0.788668
    0.540042     0.788568     0.624059
    0.282290     0.731424     0.748406
    0.364231     0.269944     0.247801
    0.513274     0.475683     0.202370
    0.446350     0.396165     0.333098
    0.431826     0.351527     0.126617
    0.389092     0.131281     0.660175
    0.329255     0.364006     0.873383
    0.728867     0.180851     0.638999
    0.691948     0.237008     0.334958
    0.669030     0.413577     0.852206
    0.441984     0.314409     0.810543
    0.475703     0.159437     0.571707
    0.589215     0.335888     0.801366
    0.622934     0.180918     0.562531
    0.697630     0.142503     0.722417
    0.332049     0.871191     0.496450
    0.387538     0.664748     0.165865
    0.403933     0.753114     0.341580
    0.279012     0.628021     0.512294
    0.305623     0.529019     0.353755
    0.315173     0.872023     0.586298
    0.393243     0.581574     0.121187
    0.370433     0.640001     0.402736
    0.410328     0.715366     0.644096
    0.373146     0.819791     0.715897
EA121  10.302  7.953 11.357 90.00 90.00 90.00 Sym.group:    0
1.0000
   10.301635     0.000000     0.000000
    0.000000     7.953446     0.000000
    0.000000     0.000000    11.356690
   O  Cu
  12   24 
Direct
    0.857515     0.182302     0.381302
    0.761989     0.478512     0.297560
    0.837637     0.380442     0.497398
    0.447151     0.377436     0.810767
    0.683510     0.423691     0.787299
    0.450891     0.379009     0.881995
    0.293706     0.509217     0.838392
    0.125997     0.711640     0.517029
    0.306342     0.646098     0.171906
    0.463008     0.687693     0.134602
    0.197956     0.835537     0.407924
    0.260896     0.704169     0.780054
    0.869732     0.210394     0.547537
    0.734228     0.386061     0.189579
    0.768807     0.286754     0.375186
    0.696436     0.482548     0.541143
    0.863199     0.218494     0.639191
    0.728761     0.283530     0.804731
    0.672555     0.465643     0.135569
    0.683321     0.417936     0.426960
    0.548789     0.432751     0.701048
    0.580409     0.371220     0.888360
    0.803204     0.167396     0.497835
    0.345603     0.621866     0.851854
    0.177893     0.824289     0.530491
    0.358239     0.758747     0.185368
    0.411111     0.575044     0.121140
    0.146060     0.722888     0.394462
    0.208999     0.591520     0.766592
    0.346227     0.649410     0.369657
    0.536421     0.520421     0.277498
    0.309806     0.628989     0.592159
    0.256765     0.736333     0.293827
    0.557609     0.532301     0.148053
    0.199155     0.704033     0.645775
    0.284407     0.511478     0.762989
EA122  10.989  5.418 10.619 90.00 90.00 90.00 Sym.group:    0
1.0000
   10.989450     0.000000     0.000000
    0.000000     5.417852     0.000000
    0.000000     0.000000    10.619282
   O  Cu
  12   24 
Direct
    0.460408     0.335850     0.817834
    0.192151     0.456642     0.635627
    0.214565     0.459113     0.308420
    0.186814     0.753894     0.466620
    0.324649     0.684398     0.762741
    0.444268     0.694906     0.207694
    0.770803     0.241996     0.535111
    0.595394     0.286641     0.790037
    0.660082     0.303601     0.241388
    0.618330     0.636512     0.204688
    0.697258     0.567914     0.749793
    0.800262     0.552674     0.450795
    0.218493     0.734142     0.637702
    0.240909     0.736613     0.310496
    0.344989     0.407816     0.194509
    0.160472     0.476393     0.464545
    0.296284     0.564606     0.421234
    0.456966     0.501408     0.280892
    0.335313     0.540271     0.632008
    0.113544     0.644697     0.356788
    0.188284     0.598095     0.760423
    0.359024     0.732466     0.453202
    0.437417     0.700954     0.355225
    0.426185     0.696177     0.629905
    0.801456     0.545501     0.542483
    0.626047     0.590147     0.797409
    0.690735     0.607107     0.248760
    0.587677     0.333007     0.197316
    0.666605     0.264408     0.742420
    0.769609     0.249168     0.443422
    0.753964     0.408685     0.493731
    0.630148     0.435318     0.740073
    0.623817     0.473367     0.253658
    0.872067     0.366220     0.490817
    0.690672     0.405238     0.851718
    0.681395     0.460982     0.139099
EA123   9.609  8.263 10.810 90.00 90.00 90.00 Sym.group:    0
1.0000
    9.609042     0.000000     0.000000
    0.000000     8.262614     0.000000
    0.000000     0.000000    10.809957
   O  Cu
  12   24 
Direct
    0.127209     0.315108     0.594959
    0.158608     0.417121     0.386802
    0.576800     0.416816     0.743844
    0.261078     0.360562     0.658256
    0.251620     0.291674     0.774722
    0.671071     0.487171     0.678207
    0.570725     0.554705     0.197100
    0.819375     0.637903     0.397514
    0.515535     0.502823     0.811355
    0.738254     0.733986     0.657141
    0.674403     0.823454     0.369548
    0.387834     0.681759     0.236169
    0.223283     0.294362     0.356769
    0.227187     0.329562     0.502907
    0.354443     0.358025     0.452475
    0.294392     0.472008     0.480363
    0.424391     0.476161     0.699768
    0.306478     0.147513     0.566964
    0.836804     0.476207     0.684275
    0.461122     0.314398     0.884147
    0.700007     0.439890     0.801117
    0.333457     0.398175     0.571819
    0.582127     0.264473     0.594729
    0.734256     0.436332     0.432722
    0.203034     0.509094     0.323347
    0.474094     0.739287     0.244623
    0.722744     0.822485     0.445038
    0.700335     0.675488     0.724176
    0.834885     0.549404     0.609617
    0.771034     0.638872     0.322024
    0.481571     0.605162     0.247962
    0.719593     0.705175     0.396407
    0.738022     0.600014     0.648445
    0.473000     0.654065     0.130754
    0.821713     0.800589     0.348234
    0.848713     0.646524     0.717479
EA124   7.971 10.213 10.734 90.00 90.00 90.00 Sym.group:    0
1.0000
    7.970523     0.000000     0.000000
    0.000000    10.213277     0.000000
    0.000000     0.000000    10.734445
   O  Cu
  12   24 
Direct
    0.705973     0.387770     0.849400
    0.829691     0.175156     0.528640
    0.683468     0.312140     0.175608
    0.650687     0.242885     0.786123
    0.481878     0.362079     0.129086
    0.692316     0.129717     0.411575
    0.605974     0.504480     0.124074
    0.383784     0.867020     0.345350
    0.381447     0.524863     0.875926
    0.161081     0.797768     0.561243
    0.259475     0.590391     0.174604
    0.362615     0.677335     0.314724
    0.586472     0.338262     0.856666
    0.710190     0.125647     0.535906
    0.563967     0.262631     0.182874
    0.770188     0.292394     0.778857
    0.601379     0.411587     0.121820
    0.811817     0.179225     0.404309
    0.532447     0.492611     0.725705
    0.649020     0.319468     0.597644
    0.616573     0.326856     0.371939
    0.551324     0.488313     0.857016
    0.735716     0.214440     0.654451
    0.361544     0.730013     0.629712
    0.660041     0.519336     0.839119
    0.429569     0.761540     0.243631
    0.415545     0.847152     0.644247
    0.228376     0.740881     0.686829
    0.217097     0.691600     0.280873
    0.392950     0.571047     0.191821
    0.272929     0.797463     0.499844
    0.440832     0.601380     0.812662
    0.433906     0.688843     0.774290
    0.316153     0.803836     0.416081
    0.485943     0.515041     0.174540
    0.502747     0.501696     0.501908
EA125  11.012  6.369 11.268 90.00 90.00 90.00 Sym.group:    0
1.0000
   11.011941     0.000000     0.000000
    0.000000     6.368809     0.000000
    0.000000     0.000000    11.268034
   O  Cu
  12   24 
Direct
    0.187929     0.370849     0.321656
    0.879856     0.295782     0.642499
    0.257858     0.321165     0.224638
    0.851846     0.236099     0.421798
    0.502265     0.441945     0.151820
    0.746651     0.372906     0.681916
    0.237620     0.484404     0.585024
    0.762270     0.426254     0.805918
    0.177391     0.615322     0.296978
    0.514123     0.736573     0.861437
    0.616717     0.519056     0.865294
    0.119635     0.502461     0.427216
    0.872016     0.426858     0.400222
    0.699214     0.365200     0.116006
    0.820548     0.195154     0.227788
    0.681833     0.200815     0.134599
    0.837928     0.359537     0.209195
    0.383203     0.401489     0.244602
    0.820167     0.383655     0.538157
    0.724772     0.480254     0.469331
    0.467361     0.312875     0.329018
    0.706043     0.303133     0.489365
    0.486089     0.489992     0.308983
    0.562208     0.407656     0.687309
    0.320043     0.393682     0.431693
    0.407807     0.482288     0.788945
    0.332116     0.363455     0.732036
    0.694332     0.410008     0.583508
    0.166719     0.594453     0.688741
    0.497593     0.564945     0.881655
    0.633247     0.690684     0.845077
    0.261148     0.778959     0.762185
    0.136164     0.674090     0.406999
    0.425159     0.606684     0.699728
    0.641413     0.523378     0.670028
    0.381617     0.668750     0.815925
EA126   9.258  8.444 10.472 90.00 90.00 90.00 Sym.group:    0
1.0000
    9.257824     0.000000     0.000000
    0.000000     8.444198     0.000000
    0.000000     0.000000    10.472022
   O  Cu
  12   24 
Direct
    0.424076     0.587574     0.209342
    0.283643     0.819698     0.416558
    0.410896     0.794255     0.693390
    0.481000     0.461311     0.812033
    0.233290     0.662296     0.663181
    0.178162     0.607434     0.372113
    0.370077     0.349070     0.219718
    0.712030     0.496634     0.848737
    0.866116     0.253128     0.541731
    0.688429     0.300019     0.182657
    0.519118     0.286809     0.144139
    0.776201     0.145099     0.438468
    0.296180     0.424280     0.232155
    0.166065     0.650752     0.450372
    0.291613     0.627121     0.727787
    0.352588     0.829466     0.628787
    0.295783     0.776419     0.338297
    0.497920     0.512284     0.196920
    0.408382     0.473073     0.245523
    0.259149     0.688315     0.405512
    0.340592     0.701682     0.658083
    0.366219     0.455068     0.129541
    0.153475     0.782871     0.363803
    0.271449     0.801161     0.733726
    0.643344     0.409584     0.869411
    0.797429     0.166079     0.562405
    0.619742     0.212969     0.203331
    0.587804     0.373858     0.123464
    0.844887     0.232148     0.417793
    0.791428     0.401814     0.783993
    0.538537     0.538087     0.724990
    0.682671     0.365955     0.607458
    0.644134     0.327868     0.382467
    0.560956     0.560245     0.855883
    0.788946     0.287970     0.669974
    0.727989     0.227725     0.314090
EA127   9.338 10.070  9.479 90.00 90.00 90.00 Sym.group:    0
1.0000
    9.337804     0.000000     0.000000
    0.000000    10.070210     0.000000
    0.000000     0.000000     9.478929
   O  Cu
  12   24 
Direct
    0.863758     0.303699     0.401860
    0.714351     0.224773     0.599289
    0.247822     0.372472     0.763364
    0.790130     0.430310     0.362373
    0.865460     0.472817     0.240916
    0.607565     0.854294     0.461224
    0.832163     0.634377     0.376939
    0.418916     0.515437     0.856707
    0.400940     0.794823     0.701110
    0.356486     0.704479     0.227578
    0.149861     0.645009     0.467464
    0.453628     0.694635     0.339459
    0.626772     0.178079     0.508661
    0.356945     0.192704     0.785663
    0.574583     0.160015     0.768208
    0.432418     0.232942     0.863762
    0.499112     0.119777     0.690112
    0.718949     0.295017     0.443821
    0.577721     0.333755     0.463554
    0.659039     0.377112     0.547702
    0.333101     0.459239     0.627970
    0.672279     0.291424     0.246577
    0.675371     0.423181     0.425442
    0.458123     0.493553     0.246285
    0.326702     0.641557     0.772566
    0.436093     0.846233     0.538163
    0.692651     0.754356     0.343076
    0.160183     0.542197     0.617608
    0.269574     0.746873     0.383206
    0.526131     0.654996     0.188119
    0.308269     0.669550     0.665596
    0.458210     0.794269     0.440938
    0.686018     0.646244     0.308917
    0.236114     0.626496     0.598451
    0.386054     0.751215     0.373793
    0.613863     0.603190     0.241771
EA128   8.386  9.354 10.219 90.00 90.00 90.00 Sym.group:    0
1.0000
    8.386052     0.000000     0.000000
    0.000000     9.354286     0.000000
    0.000000     0.000000    10.219309
   O  Cu
  12   24 
Direct
    0.830522     0.183726     0.351700
    0.840002     0.151157     0.442003
    0.596865     0.234225     0.313525
    0.390215     0.383066     0.775624
    0.618486     0.159945     0.519475
    0.184139     0.639466     0.317507
    0.155280     0.616597     0.646608
    0.691732     0.628950     0.191768
    0.509882     0.851630     0.359247
    0.481023     0.828761     0.688348
    0.634011     0.583214     0.849972
    0.844720     0.383403     0.353392
    0.755240     0.134856     0.595264
    0.525842     0.359077     0.852678
    0.716512     0.267909     0.226358
    0.740700     0.234797     0.419115
    0.498282     0.295064     0.544516
    0.388599     0.478246     0.338508
    0.419504     0.372065     0.632914
    0.479710     0.358872     0.367601
    0.713908     0.139406     0.681031
    0.582987     0.267373     0.827941
    0.659422     0.326600     0.162005
    0.596620     0.313017     0.446784
    0.264495     0.551857     0.779750
    0.320451     0.586561     0.191733
    0.192965     0.708774     0.485324
    0.480532     0.692567     0.807432
    0.536489     0.727272     0.219416
    0.409002     0.849484     0.513007
    0.346631     0.660378     0.278359
    0.272847     0.707037     0.573387
    0.379408     0.516176     0.789030
    0.440244     0.721350     0.290354
    0.366460     0.768010     0.585382
    0.473020     0.577148     0.801025
EA129  10.818  8.968  8.533 90.00 90.00 90.00 Sym.group:    0
1.0000
   10.817867     0.000000     0.000000
    0.000000     8.968097     0.000000
    0.000000     0.000000     8.532948
   O  Cu
  12   24 
Direct
    0.681450     0.235556     0.147212
    0.121938     0.426606     0.429779
    0.759118     0.289346     0.188525
    0.576069     0.183532     0.320846
    0.753208     0.306214     0.415071
    0.253532     0.293665     0.483736
    0.300974     0.740011     0.647233
    0.594896     0.827782     0.664954
    0.773983     0.565088     0.672322
    0.520565     0.690860     0.835562
    0.250796     0.545047     0.754656
    0.495177     0.162807     0.321901
    0.203563     0.274748     0.336577
    0.844992     0.383825     0.341663
    0.527691     0.164070     0.172883
    0.207819     0.463871     0.490684
    0.671886     0.305409     0.256318
    0.395680     0.325516     0.499087
    0.506989     0.287509     0.442874
    0.254535     0.201746     0.277664
    0.885942     0.447760     0.421703
    0.439522     0.138581     0.184241
    0.609354     0.348576     0.388730
    0.214279     0.357180     0.559567
    0.306943     0.607507     0.806677
    0.605595     0.683316     0.811823
    0.801800     0.493465     0.601219
    0.761718     0.708243     0.524342
    0.509864     0.835354     0.688642
    0.244830     0.677483     0.595279
    0.300929     0.627656     0.678381
    0.551181     0.729294     0.724341
    0.750439     0.588524     0.557195
    0.207095     0.683115     0.762729
    0.575803     0.841642     0.821244
    0.867624     0.634555     0.578054
EA130  11.672  7.876 10.457 90.00 90.00 90.00 Sym.group:    0
1.0000
   11.671565     0.000000     0.000000
    0.000000     7.875559     0.000000
    0.000000     0.000000    10.457094
   O  Cu
  12   24 
Direct
    0.231496     0.608283     0.715360
    0.190177     0.376922     0.385784
    0.439146     0.351433     0.139505
    0.331603     0.164437     0.289106
    0.207644     0.309818     0.620371
    0.395575     0.562587     0.862184
    0.522418     0.799853     0.866931
    0.805931     0.538116     0.218756
    0.746011     0.458164     0.160485
    0.791880     0.447452     0.399651
    0.682023     0.616191     0.758287
    0.655786     0.270451     0.262645
    0.270565     0.442696     0.777198
    0.229246     0.211335     0.447623
    0.478216     0.185846     0.201344
    0.292534     0.330024     0.227268
    0.168574     0.475405     0.558532
    0.356506     0.728174     0.800345
    0.296377     0.394073     0.502081
    0.422481     0.336294     0.306788
    0.373897     0.557779     0.695294
    0.110058     0.297149     0.503987
    0.351547     0.186500     0.129996
    0.258509     0.610648     0.873991
    0.616541     0.294179     0.137168
    0.750523     0.774366     0.739947
    0.861838     0.612200     0.380141
    0.556462     0.726153     0.775760
    0.717597     0.481889     0.267403
    0.561441     0.298639     0.384603
    0.640927     0.506049     0.627069
    0.679012     0.446762     0.504004
    0.820747     0.751899     0.677196
    0.538432     0.219236     0.126506
    0.883644     0.664743     0.469421
    0.644537     0.438208     0.377102
EA131  10.177  7.989  8.301 90.00 90.00 90.00 Sym.group:    0
1.0000
   10.177138     0.000000     0.000000
    0.000000     7.988727     0.000000
    0.000000     0.000000     8.300794
   O  Cu
  12   24 
Direct
    0.387743     0.243286     0.157309
    0.263866     0.542067     0.354328
    0.258423     0.411953     0.160447
    0.132668     0.317024     0.574110
    0.186203     0.481807     0.408289
    0.677659     0.772378     0.675606
    0.796463     0.526690     0.429719
    0.627077     0.337183     0.187780
    0.680758     0.203478     0.369676
    0.776323     0.434726     0.642646
    0.587291     0.648376     0.839302
    0.596712     0.222945     0.179883
    0.478960     0.182480     0.303647
    0.402920     0.221611     0.686018
    0.345623     0.356891     0.164546
    0.350770     0.809585     0.584350
    0.299717     0.657518     0.751419
    0.202336     0.720522     0.674967
    0.395118     0.840611     0.720909
    0.431225     0.726676     0.742509
    0.243247     0.697902     0.566079
    0.205526     0.608239     0.305119
    0.221096     0.326169     0.430078
    0.225283     0.426908     0.333075
    0.286703     0.404217     0.414422
    0.466737     0.482681     0.507528
    0.661113     0.606636     0.808271
    0.610531     0.171441     0.320445
    0.697304     0.369220     0.237011
    0.792868     0.600467     0.509981
    0.603837     0.814118     0.706638
    0.617828     0.687119     0.728991
    0.754729     0.482840     0.532181
    0.636901     0.295721     0.303190
    0.873189     0.474859     0.547146
    0.700565     0.200724     0.211667
EA132   8.340 10.207 11.505 90.00 90.00 90.00 Sym.group:    0
1.0000
    8.339992     0.000000     0.000000
    0.000000    10.206972     0.000000
    0.000000     0.000000    11.504509
   O  Cu
  12   24 
Direct
    0.317976     0.721307     0.277001
    0.574799     0.426210     0.184917
    0.694879     0.159722     0.400610
    0.815245     0.343164     0.293968
    0.599584     0.666961     0.218279
    0.403646     0.838124     0.472465
    0.701404     0.127644     0.573582
    0.447376     0.328548     0.846279
    0.193103     0.673319     0.763144
    0.460551     0.490416     0.881742
    0.747956     0.210794     0.702889
    0.265462     0.807208     0.688407
    0.723096     0.505178     0.213993
    0.843176     0.238691     0.429687
    0.666948     0.264197     0.264891
    0.222397     0.778618     0.417004
    0.676446     0.330063     0.399065
    0.562917     0.529663     0.300536
    0.826729     0.179775     0.300088
    0.609320     0.562012     0.111403
    0.283697     0.868973     0.383658
    0.522029     0.698258     0.458622
    0.733951     0.433022     0.434134
    0.614754     0.618082     0.377520
    0.342095     0.862630     0.301736
    0.553113     0.383719     0.865385
    0.298841     0.728490     0.782251
    0.354813     0.435246     0.862635
    0.642219     0.155624     0.683782
    0.159724     0.752038     0.669301
    0.560594     0.357098     0.670359
    0.392558     0.550793     0.700053
    0.331964     0.693695     0.529694
    0.595847     0.273960     0.769471
    0.330052     0.580342     0.816438
    0.234204     0.806383     0.546968
EA133  10.239 10.091  7.806 90.00 90.00 90.00 Sym.group:    0
1.0000
   10.239125     0.000000     0.000000
    0.000000    10.090570     0.000000
    0.000000     0.000000     7.805572
   O  Cu
  12   24 
Direct
    0.424887     0.203051     0.743492
    0.298555     0.492088     0.839379
    0.452318     0.774588     0.779826
    0.267589     0.231953     0.375612
    0.141257     0.520990     0.471499
    0.295020     0.803490     0.411946
    0.697152     0.755412     0.280299
    0.758576     0.429882     0.178522
    0.828003     0.585231     0.384284
    0.626440     0.829173     0.575294
    0.667169     0.249769     0.477429
    0.701445     0.507912     0.160621
    0.295459     0.322287     0.748760
    0.308116     0.662722     0.772438
    0.435181     0.169149     0.354330
    0.191136     0.341455     0.504776
    0.203794     0.681890     0.528454
    0.268292     0.419783     0.686602
    0.347496     0.714675     0.669386
    0.443398     0.200958     0.570078
    0.223087     0.428089     0.580880
    0.302291     0.722981     0.563664
    0.398193     0.209264     0.464356
    0.755822     0.741531     0.464645
    0.817245     0.416002     0.362869
    0.666757     0.277268     0.219790
    0.769333     0.599111     0.199939
    0.696577     0.509730     0.353130
    0.583458     0.321706     0.403968
    0.607650     0.702292     0.452133
    0.881453     0.505578     0.216017
    0.711157     0.874338     0.405610
    0.687232     0.515675     0.516960
    0.638940     0.395279     0.530301
    0.580527     0.666107     0.620785
    0.529260     0.328855     0.498700
EA134   9.327  8.764  8.838 90.00 90.00 90.00 Sym.group:    0
1.0000
    9.327289     0.000000     0.000000
    0.000000     8.763821     0.000000
    0.000000     0.000000     8.837655
   O  Cu
  12   24 
Direct
    0.748833     0.333621     0.706836
    0.455195     0.159570     0.664671
    0.249964     0.232115     0.384484
    0.202254     0.316705     0.596393
    0.451850     0.309988     0.839871
    0.535435     0.847041     0.298852
    0.779492     0.754943     0.585467
    0.772194     0.738418     0.337691
    0.439401     0.673251     0.145744
    0.856095     0.506478     0.645032
    0.417193     0.856770     0.379605
    0.164805     0.649575     0.374826
    0.656021     0.463464     0.827513
    0.367350     0.281899     0.797858
    0.171087     0.367878     0.510580
    0.280120     0.428521     0.199717
    0.281163     0.180916     0.470259
    0.539661     0.187722     0.706743
    0.801911     0.410576     0.664279
    0.702808     0.443475     0.718446
    0.458396     0.261482     0.722605
    0.255382     0.298528     0.492102
    0.800589     0.419286     0.821191
    0.440338     0.161677     0.833741
    0.145836     0.208349     0.485737
    0.613869     0.745809     0.206343
    0.857926     0.653713     0.492955
    0.693762     0.839649     0.430202
    0.777661     0.607708     0.737543
    0.486338     0.673321     0.311980
    0.681397     0.664214     0.473802
    0.488400     0.839297     0.140542
    0.861944     0.821860     0.450433
    0.303112     0.739730     0.292832
    0.339896     0.549036     0.218161
    0.290154     0.620977     0.284723
EA135  11.548  5.769 11.218 90.00 90.00 90.00 Sym.group:    0
1.0000
   11.547897     0.000000     0.000000
    0.000000     5.769233     0.000000
    0.000000     0.000000    11.218452
   O  Cu
  12   24 
Direct
    0.798134     0.550936     0.233808
    0.851888     0.509967     0.314955
    0.667664     0.775940     0.278180
    0.790264     0.682501     0.463252
    0.213588     0.461333     0.368498
    0.317476     0.773260     0.260523
    0.231821     0.233874     0.756082
    0.882819     0.234089     0.658127
    0.169947     0.284391     0.680016
    0.374283     0.473033     0.764066
    0.233161     0.588243     0.590579
    0.749558     0.473156     0.707598
    0.298126     0.665373     0.178194
    0.879960     0.508408     0.488053
    0.660354     0.675779     0.156542
    0.751258     0.547081     0.329740
    0.555860     0.735872     0.373338
    0.372671     0.716660     0.129302
    0.579402     0.722597     0.116946
    0.653895     0.601662     0.407291
    0.213720     0.707163     0.402209
    0.304809     0.536471     0.478908
    0.111629     0.551576     0.458105
    0.837941     0.412523     0.435730
    0.431468     0.732298     0.380772
    0.190874     0.305720     0.537562
    0.761571     0.258146     0.785938
    0.131658     0.464393     0.531926
    0.384445     0.258018     0.842686
    0.275750     0.328711     0.667158
    0.614283     0.532904     0.640488
    0.363547     0.631833     0.510945
    0.688068     0.255008     0.849160
    0.472837     0.254935     0.881546
    0.375569     0.453902     0.604679
    0.702738     0.454008     0.555450
EA136  10.342  9.037 10.194 90.00 90.00 90.00 Sym.group:    0
1.0000
   10.341910     0.000000     0.000000
    0.000000     9.037460     0.000000
    0.000000     0.000000    10.194074
   O  Cu
  12   24 
Direct
    0.431163     0.229543     0.858608
    0.427735     0.448556     0.845061
    0.708717     0.488062     0.207472
    0.740352     0.210527     0.509082
    0.476800     0.182560     0.780026
    0.695006     0.276709     0.753974
    0.542396     0.851439     0.295102
    0.321863     0.546067     0.625494
    0.537442     0.627881     0.326244
    0.683254     0.638598     0.197220
    0.133801     0.531066     0.761867
    0.517657     0.759143     0.129885
    0.309400     0.381058     0.870829
    0.484941     0.292903     0.777345
    0.618969     0.468524     0.654734
    0.239108     0.460323     0.864786
    0.504043     0.419724     0.699821
    0.805229     0.331825     0.589007
    0.630130     0.155409     0.674047
    0.768167     0.328263     0.343948
    0.686639     0.391776     0.483279
    0.550844     0.323871     0.686518
    0.877913     0.273768     0.451162
    0.617863     0.143726     0.840368
    0.273257     0.545792     0.374645
    0.418521     0.845611     0.323192
    0.393747     0.709634     0.246716
    0.477095     0.650607     0.207920
    0.334170     0.750607     0.332847
    0.208988     0.833664     0.359408
    0.388112     0.618860     0.198150
    0.526687     0.531219     0.298463
    0.288479     0.507243     0.549203
    0.401928     0.250002     0.610678
    0.365000     0.359701     0.774461
    0.737652     0.650787     0.129171
EA137   9.172 10.598  9.949 90.00 90.00 90.00 Sym.group:    0
1.0000
    9.172489     0.000000     0.000000
    0.000000    10.598016     0.000000
    0.000000     0.000000     9.948819
   O  Cu
  12   24 
Direct
    0.156294     0.538040     0.141894
    0.643976     0.120819     0.296497
    0.216959     0.342523     0.129757
    0.748772     0.121941     0.491842
    0.446758     0.376845     0.289270
    0.338483     0.646001     0.400665
    0.839105     0.360453     0.811008
    0.247110     0.864892     0.582133
    0.811865     0.451995     0.864135
    0.464440     0.835970     0.554498
    0.848861     0.382906     0.597399
    0.787503     0.593491     0.715460
    0.462943     0.303793     0.366262
    0.273868     0.559884     0.384193
    0.347242     0.338405     0.147189
    0.244433     0.786141     0.411595
    0.521078     0.157844     0.313787
    0.142212     0.560946     0.258873
    0.415835     0.665509     0.331501
    0.754614     0.425541     0.480061
    0.538621     0.414301     0.249769
    0.216331     0.527978     0.463399
    0.374715     0.282525     0.422844
    0.666997     0.173271     0.406946
    0.229194     0.447165     0.185064
    0.745237     0.628268     0.860270
    0.854216     0.251855     0.647231
    0.424984     0.871354     0.690166
    0.291049     0.775203     0.519295
    0.763084     0.435089     0.750060
    0.665327     0.610945     0.586404
    0.552590     0.693844     0.531984
    0.694724     0.720640     0.857727
    0.517576     0.862357     0.754974
    0.847491     0.190703     0.558984
    0.694452     0.481031     0.621919
EA138  11.434  9.148  9.287 90.00 90.00 90.00 Sym.group:    0
1.0000
   11.433858     0.000000     0.000000
    0.000000     9.147974     0.000000
    0.000000     0.000000     9.286871
   O  Cu
  12   24 
Direct
    0.294879     0.276362     0.248875
    0.622475     0.311136     0.160189
    0.216812     0.258062     0.489288
    0.784931     0.325684     0.342453
    0.487527     0.140364     0.276541
    0.880576     0.560681     0.344944
    0.336284     0.834790     0.831166
    0.252325     0.774959     0.804347
    0.881217     0.648929     0.432687
    0.474950     0.685406     0.849851
    0.283461     0.548948     0.788686
    0.789081     0.578263     0.620142
    0.186619     0.408606     0.643887
    0.323310     0.163124     0.359275
    0.650906     0.197898     0.270588
    0.188381     0.371300     0.378888
    0.756500     0.438922     0.232054
    0.459096     0.253602     0.166142
    0.334881     0.342568     0.411461
    0.537196     0.314528     0.309533
    0.702315     0.471960     0.398072
    0.183793     0.198515     0.330447
    0.571232     0.144817     0.135252
    0.887437     0.446302     0.304806
    0.823890     0.736044     0.618912
    0.165204     0.599286     0.740193
    0.508207     0.843714     0.849752
    0.343542     0.723196     0.756927
    0.795516     0.569039     0.426423
    0.643156     0.533258     0.639283
    0.534749     0.570233     0.718556
    0.120169     0.507276     0.690076
    0.782916     0.789721     0.712475
    0.602749     0.851171     0.844221
    0.686235     0.506972     0.491235
    0.412370     0.600380     0.691497
EA139  10.972 10.744  5.798 90.00 90.00 90.00 Sym.group:    0
1.0000
   10.971559     0.000000     0.000000
    0.000000    10.744395     0.000000
    0.000000     0.000000     5.798337
   O  Cu
  12   24 
Direct
    0.332539     0.210091     0.528319
    0.197144     0.490573     0.610189
    0.362748     0.744468     0.754241
    0.225867     0.442208     0.272927
    0.432285     0.210633     0.228301
    0.519746     0.881350     0.582572
    0.842189     0.676582     0.542266
    0.826467     0.306225     0.369812
    0.737530     0.197104     0.496173
    0.872732     0.541424     0.676548
    0.631180     0.833328     0.770259
    0.181580     0.715763     0.450423
    0.417650     0.872639     0.632205
    0.353793     0.250567     0.225587
    0.218397     0.531050     0.307457
    0.291725     0.695563     0.716998
    0.204612     0.401732     0.575662
    0.411032     0.170155     0.531035
    0.396380     0.240639     0.394085
    0.244370     0.468361     0.450342
    0.356759     0.711948     0.577262
    0.344116     0.127361     0.335063
    0.121415     0.460986     0.417481
    0.331707     0.497711     0.431242
    0.511699     0.859362     0.762337
    0.834142     0.654593     0.722032
    0.818420     0.284237     0.549577
    0.745577     0.219092     0.316407
    0.880779     0.563412     0.496783
    0.639227     0.855316     0.590494
    0.646845     0.658181     0.596950
    0.716901     0.452738     0.514381
    0.570056     0.294558     0.417432
    0.732277     0.750207     0.653353
    0.843090     0.425243     0.522748
    0.610813     0.175037     0.369396
EA140  10.802  9.643  8.408 90.00 90.00 90.00 Sym.group:    0
1.0000
   10.802133     0.000000     0.000000
    0.000000     9.642945     0.000000
    0.000000     0.000000     8.408022
   O  Cu
  12   24 
Direct
    0.593926     0.186006     0.329752
    0.287034     0.206927     0.461716
    0.214891     0.395727     0.371011
    0.754783     0.745224     0.478270
    0.747450     0.458519     0.233812
    0.468428     0.286701     0.186138
    0.394166     0.651376     0.747848
    0.191576     0.482983     0.537907
    0.301796     0.345497     0.529235
    0.553553     0.757782     0.828169
    0.803954     0.633146     0.613096
    0.667873     0.821096     0.609411
    0.555730     0.309110     0.168658
    0.776056     0.539610     0.290674
    0.259479     0.335079     0.300307
    0.777601     0.341027     0.403067
    0.506379     0.163787     0.346766
    0.527866     0.266825     0.283324
    0.745700     0.444063     0.365018
    0.278602     0.324621     0.420055
    0.539003     0.152603     0.188058
    0.862615     0.432071     0.297341
    0.172937     0.240204     0.407777
    0.321227     0.608903     0.583776
    0.208931     0.317860     0.671008
    0.376082     0.769105     0.706768
    0.217345     0.690635     0.818032
    0.294371     0.446955     0.513453
    0.426257     0.458845     0.781840
    0.523287     0.845039     0.693650
    0.395435     0.700792     0.851107
    0.698138     0.733840     0.743931
    0.579869     0.696452     0.655162
    0.638830     0.874210     0.776795
    0.765087     0.264612     0.213549
    0.241894     0.268655     0.531541
EA141  10.570 11.155  5.527 90.00 90.00 90.00 Sym.group:    0
1.0000
   10.570279     0.000000     0.000000
    0.000000    11.155392     0.000000
    0.000000     0.000000     5.526568
   O  Cu
  12   24 
Direct
    0.120785     0.405971     0.325135
    0.777652     0.349712     0.417037
    0.479674     0.191062     0.279777
    0.184982     0.361062     0.237987
    0.807139     0.492597     0.751937
    0.629075     0.213672     0.616998
    0.259062     0.690876     0.352050
    0.544370     0.807004     0.451497
    0.809464     0.630742     0.453912
    0.718066     0.662724     0.759004
    0.429563     0.763658     0.732369
    0.184144     0.593440     0.624787
    0.215244     0.395076     0.393973
    0.390868     0.365778     0.648239
    0.614565     0.496614     0.747150
    0.312233     0.434434     0.526335
    0.461756     0.175120     0.554447
    0.304898     0.240789     0.240305
    0.646995     0.229613     0.342329
    0.689328     0.450479     0.561210
    0.528357     0.302515     0.469167
    0.313030     0.363780     0.420539
    0.886355     0.394422     0.605709
    0.578094     0.111068     0.429445
    0.165740     0.228390     0.336318
    0.231316     0.664288     0.651966
    0.520747     0.770386     0.750248
    0.774300     0.595920     0.751316
    0.752878     0.697696     0.463829
    0.452825     0.800092     0.434931
    0.212087     0.620178     0.324150
    0.251876     0.625929     0.487065
    0.489460     0.753381     0.586770
    0.735191     0.627927     0.601534
    0.139398     0.687597     0.491912
    0.477861     0.872672     0.606753
EA142   9.703  9.698  7.913 90.00 90.00 90.00 Sym.group:    0
1.0000
    9.702500     0.000000     0.000000
    0.000000     9.697856     0.000000
    0.000000     0.000000     7.912970
   O  Cu
  12   24 
Direct
    0.487458     0.182464     0.379639
    0.218021     0.344922     0.414188
    0.206831     0.624651     0.636486
    0.465080     0.741923     0.824237
    0.214783     0.644386     0.363727
    0.312155     0.368790     0.175763
    0.782817     0.318162     0.679446
    0.563905     0.142320     0.506230
    0.684999     0.580363     0.841566
    0.850643     0.509123     0.342749
    0.631731     0.333282     0.169533
    0.752825     0.771324     0.504868
    0.255414     0.436551     0.210185
    0.244223     0.716282     0.432484
    0.378898     0.737790     0.789902
    0.177391     0.552756     0.567732
    0.274763     0.277158     0.379767
    0.290501     0.373567     0.317636
    0.242223     0.620530     0.500088
    0.446687     0.754974     0.682390
    0.195419     0.311045     0.232858
    0.124689     0.672860     0.500159
    0.424236     0.869823     0.767236
    0.335749     0.613283     0.480851
    0.545460     0.698664     0.811198
    0.795198     0.493408     0.723540
    0.727246     0.231419     0.523993
    0.590444     0.825313     0.587895
    0.840181     0.620057     0.500237
    0.772229     0.358068     0.300690
    0.626531     0.679702     0.724865
    0.790739     0.458141     0.606359
    0.654459     0.251001     0.429875
    0.646023     0.734581     0.628104
    0.810231     0.513020     0.509598
    0.673951     0.305880     0.333114
EA143  10.127  8.017  8.061 90.00 90.00 90.00 Sym.group:    0
1.0000
   10.127462     0.000000     0.000000
    0.000000     8.016551     0.000000
    0.000000     0.000000     8.061041
   O  Cu
  12   24 
Direct
    0.276836     0.287937     0.643057
    0.217241     0.539520     0.383672
    0.420644     0.679309     0.166967
    0.364073     0.826227     0.345074
    0.207606     0.628155     0.606913
    0.357513     0.374902     0.834819
    0.759005     0.265831     0.511993
    0.510601     0.167032     0.701878
    0.732399     0.536822     0.254720
    0.710632     0.758900     0.335579
    0.617928     0.324124     0.807525
    0.808646     0.491736     0.569109
    0.295594     0.435881     0.790890
    0.228913     0.695445     0.524687
    0.442866     0.835720     0.304743
    0.341936     0.669382     0.206930
    0.195801     0.471462     0.464510
    0.338388     0.226389     0.686273
    0.337906     0.346922     0.710971
    0.243021     0.569221     0.494603
    0.403050     0.723528     0.282073
    0.258566     0.289624     0.814216
    0.128863     0.625655     0.493286
    0.364098     0.832655     0.183879
    0.781617     0.424275     0.646380
    0.534418     0.323836     0.837665
    0.769416     0.695679     0.384277
    0.673624     0.600119     0.206083
    0.594106     0.167284     0.671725
    0.786015     0.333251     0.434685
    0.753044     0.393745     0.536867
    0.557588     0.274954     0.727095
    0.697331     0.630252     0.317175
    0.868160     0.337652     0.550736
    0.582484     0.165031     0.830393
    0.787687     0.696336     0.234691
EA144  11.226  9.856  8.805 90.00 90.00 90.00 Sym.group:    0
1.0000
   11.226270     0.000000     0.000000
    0.000000     9.855594     0.000000
    0.000000     0.000000     8.804931
   O  Cu
  12   24 
Direct
    0.568010     0.184107     0.683403
    0.263243     0.332550     0.699078
    0.437338     0.318393     0.848886
    0.747410     0.310386     0.691833
    0.591274     0.128747     0.744784
    0.215160     0.799519     0.322990
    0.289428     0.834568     0.243929
    0.274460     0.760321     0.544625
    0.778008     0.627312     0.370539
    0.444976     0.840587     0.366707
    0.221791     0.573545     0.711820
    0.662189     0.759702     0.311583
    0.865663     0.470466     0.349163
    0.885319     0.397994     0.432158
    0.812188     0.246527     0.615543
    0.606091     0.275452     0.801478
    0.301324     0.423895     0.817153
    0.183709     0.482202     0.593744
    0.399257     0.227048     0.730811
    0.402904     0.388400     0.683907
    0.610809     0.335496     0.625501
    0.302327     0.268103     0.856095
    0.700467     0.166794     0.744246
    0.803854     0.466190     0.279639
    0.457823     0.860049     0.195352
    0.790634     0.646208     0.192714
    0.152978     0.715598     0.515124
    0.313227     0.752748     0.346216
    0.393077     0.516927     0.703664
    0.523123     0.707320     0.451420
    0.638085     0.634554     0.453676
    0.376044     0.637536     0.603057
    0.550360     0.859612     0.163054
    0.120968     0.656015     0.612417
    0.739654     0.734488     0.156894
    0.688648     0.500194     0.451687
EA145  10.631  9.457  8.749 90.00 90.00 90.00 Sym.group:    0
1.0000
   10.630897     0.000000     0.000000
    0.000000     9.456514     0.000000
    0.000000     0.000000     8.748913
   O  Cu
  12   24 
Direct
    0.737427     0.241533     0.445845
    0.486614     0.177601     0.667574
    0.228059     0.380783     0.640874
    0.337628     0.427969     0.834165
    0.626543     0.294072     0.769893
    0.339397     0.764897     0.256069
    0.649639     0.662111     0.159690
    0.805756     0.608386     0.341533
    0.114504     0.603079     0.592414
    0.127536     0.683600     0.510412
    0.261450     0.589426     0.723246
    0.291173     0.773076     0.536218
    0.793137     0.371193     0.589849
    0.543474     0.305443     0.812699
    0.280936     0.499336     0.797673
    0.284783     0.309467     0.677436
    0.569672     0.166199     0.624753
    0.766970     0.304943     0.368465
    0.750077     0.357262     0.481064
    0.551060     0.266083     0.693891
    0.306257     0.414737     0.708810
    0.862226     0.285403     0.474083
    0.571620     0.152917     0.786860
    0.218805     0.375837     0.816361
    0.695806     0.753280     0.274658
    0.759589     0.517217     0.226565
    0.222659     0.702097     0.386860
    0.567948     0.675001     0.312512
    0.626090     0.821287     0.140242
    0.226291     0.810917     0.405389
    0.213951     0.623805     0.550614
    0.429120     0.706543     0.520926
    0.682750     0.575545     0.488910
    0.540527     0.717223     0.444034
    0.283716     0.869886     0.338888
    0.342952     0.609691     0.564180
EA146  19.201 13.889 13.942 90.00 90.00 90.00 Sym.group:    0
1.0000
   19.201155     0.000000     0.000000
    0.000000    13.888508     0.000000
    0.000000     0.000000    13.942401
   O  Cu
  12   24 
Direct
    0.347347     0.623335     0.458953
    0.347347     0.402647     0.414125
    0.347347     0.474018     0.626922
    0.652653     0.402647     0.585875
    0.652653     0.474018     0.373078
    0.652653     0.623335     0.541047
    0.652653     0.623335     0.458953
    0.652653     0.402647     0.414125
    0.652653     0.474018     0.626922
    0.347347     0.402647     0.585875
    0.347347     0.474018     0.373078
    0.347347     0.623335     0.541047
    0.260922     0.572061     0.450756
    0.260922     0.421158     0.462456
    0.260922     0.506781     0.586787
    0.739078     0.421158     0.537544
    0.739078     0.506781     0.413213
    0.739078     0.572061     0.549244
    0.739078     0.572061     0.450756
    0.739078     0.421158     0.462456
    0.739078     0.506781     0.586787
    0.260922     0.421158     0.537544
    0.260922     0.506781     0.413213
    0.260922     0.572061     0.549244
    0.410814     0.533957     0.640664
    0.410814     0.605313     0.400374
    0.410814     0.360730     0.458962
    0.589186     0.605313     0.599626
    0.589186     0.360730     0.541038
    0.589186     0.533957     0.359336
    0.589186     0.533957     0.640664
    0.589186     0.605313     0.400374
    0.589186     0.360730     0.458962
    0.410814     0.605313     0.599626
    0.410814     0.360730     0.541038
    0.410814     0.533957     0.359336
EA147  16.360 14.999 14.973 90.00 90.00 90.00 Sym.group:    0
1.0000
   16.360457     0.000000     0.000000
    0.000000    14.998742     0.000000
    0.000000     0.000000    14.973476
   O  Cu
  12   24 
Direct
    0.459655     0.376000     0.384320
    0.459655     0.662013     0.450272
    0.459655     0.461986     0.665408
    0.459655     0.334028     0.465794
    0.459655     0.553412     0.661082
    0.459655     0.612560     0.373125
    0.617497     0.529493     0.370587
    0.617497     0.597140     0.590291
    0.617497     0.373367     0.539122
    0.617497     0.411791     0.599063
    0.617497     0.629751     0.526989
    0.617497     0.458458     0.373949
    0.406444     0.425325     0.394423
    0.406444     0.628616     0.488009
    0.406444     0.446059     0.617568
    0.406444     0.370828     0.500208
    0.406444     0.564766     0.611951
    0.406444     0.564406     0.387841
    0.354217     0.525508     0.353462
    0.354217     0.613938     0.595397
    0.354217     0.360554     0.551141
    0.354217     0.395548     0.605732
    0.354217     0.643638     0.537745
    0.354217     0.460814     0.356524
    0.568482     0.562059     0.595865
    0.568482     0.386089     0.505903
    0.568482     0.551852     0.398232
    0.568482     0.613960     0.495119
    0.568482     0.438800     0.403582
    0.568482     0.447240     0.601299
    0.693774     0.362346     0.428847
    0.693774     0.630344     0.416164
    0.693774     0.507310     0.654989
    0.493635     0.505054     0.607147
    0.493635     0.404837     0.450810
    0.493635     0.590109     0.442042
EA148  18.358 13.208 13.136 90.00 90.00 90.00 Sym.group:    0
1.0000
   18.358066     0.000000     0.000000
    0.000000    13.207869     0.000000
    0.000000     0.000000    13.136312
   O  Cu
  12   24 
Direct
    0.727095     0.455469     0.618614
    0.272905     0.544531     0.618614
    0.272905     0.455469     0.381386
    0.727095     0.544531     0.381386
    0.727095     0.455469     0.381386
    0.272905     0.544531     0.381386
    0.272905     0.455469     0.618614
    0.727095     0.544531     0.618614
    0.410704     0.440955     0.500000
    0.589296     0.559045     0.500000
    0.589296     0.440955     0.500000
    0.410704     0.559045     0.500000
    0.439569     0.437504     0.418048
    0.560431     0.562496     0.418048
    0.560431     0.437504     0.581952
    0.439569     0.562496     0.581952
    0.439569     0.437504     0.581952
    0.560431     0.562496     0.581952
    0.560431     0.437504     0.418048
    0.439569     0.562496     0.418048
    0.370950     0.620681     0.456801
    0.629050     0.379319     0.456801
    0.629050     0.620681     0.543199
    0.370950     0.379319     0.543199
    0.370950     0.620681     0.543199
    0.629050     0.379319     0.543199
    0.629050     0.620681     0.456801
    0.370950     0.379319     0.456801
    0.302729     0.425155     0.454254
    0.697271     0.574845     0.454254
    0.697271     0.425155     0.545746
    0.302729     0.574845     0.545746
    0.302729     0.425155     0.545746
    0.697271     0.574845     0.545746
    0.697271     0.425155     0.454254
    0.302729     0.574845     0.454254
EA149  15.103 14.898 14.390 90.00 90.00 90.00 Sym.group:    0
1.0000
   15.102936     0.000000     0.000000
    0.000000    14.897581     0.000000
    0.000000     0.000000    14.390493
   O  Cu
  12   24 
Direct
    0.459781     0.580340     0.554914
    0.459781     0.586108     0.455429
    0.459781     0.505768     0.400515
    0.459781     0.419660     0.445086
    0.459781     0.413892     0.544571
    0.459781     0.494232     0.599485
    0.385513     0.565112     0.544505
    0.385513     0.569787     0.463877
    0.385513     0.504675     0.419372
    0.385513     0.434888     0.455495
    0.385513     0.430213     0.536123
    0.385513     0.495325     0.580628
    0.390898     0.571829     0.387377
    0.390898     0.441700     0.379291
    0.390898     0.369871     0.491914
    0.390898     0.428171     0.612623
    0.390898     0.558300     0.620709
    0.390898     0.630129     0.508086
    0.481791     0.391160     0.493237
    0.481791     0.439922     0.594198
    0.481791     0.548762     0.600961
    0.481791     0.608840     0.506763
    0.481791     0.560078     0.405802
    0.481791     0.451238     0.399039
    0.613740     0.420461     0.495058
    0.613740     0.456096     0.568839
    0.613740     0.535635     0.573782
    0.613740     0.579539     0.504942
    0.613740     0.543904     0.431161
    0.613740     0.464365     0.426218
    0.668276     0.573342     0.651853
    0.668276     0.663704     0.510172
    0.668276     0.590361     0.358319
    0.668276     0.426658     0.348147
    0.668276     0.336296     0.489828
    0.668276     0.409639     0.641681
EA150  17.254 17.254 17.254 90.00 90.00 90.00 Sym.group:    0
1.0000
   17.254068     0.000000     0.000000
    0.000000    17.254068     0.000000
    0.000000     0.000000    17.254068
   O  Cu
  12   24 
Direct
    0.402200     0.546716     0.546716
    0.546716     0.597800     0.546716
    0.597800     0.453284     0.546716
    0.453284     0.402200     0.546716
    0.402200     0.546716     0.453284
    0.402200     0.453284     0.453284
    0.402200     0.453284     0.546716
    0.453284     0.546716     0.402200
    0.597800     0.546716     0.453284
    0.546716     0.546716     0.597800
    0.546716     0.402200     0.453284
    0.453284     0.597800     0.453284
    0.597800     0.546716     0.546716
    0.597800     0.453284     0.453284
    0.546716     0.453284     0.402200
    0.453284     0.453284     0.597800
    0.546716     0.402200     0.546716
    0.546716     0.546716     0.402200
    0.453284     0.402200     0.453284
    0.546716     0.453284     0.597800
    0.453284     0.597800     0.546716
    0.453284     0.546716     0.597800
    0.546716     0.597800     0.453284
    0.453284     0.453284     0.402200
    0.500000     0.500000     0.298152
    0.500000     0.500000     0.701848
    0.500000     0.298152     0.500000
    0.500000     0.701848     0.500000
    0.298152     0.500000     0.500000
    0.701848     0.500000     0.500000
    0.500000     0.500000     0.400463
    0.500000     0.500000     0.599537
    0.500000     0.400463     0.500000
    0.500000     0.599537     0.500000
    0.400463     0.500000     0.500000
    0.599537     0.500000     0.500000
EA151  11.374 11.811  6.042 90.00 90.00 90.00 Sym.group:    0
1.0000
   11.374127     0.000000     0.000000
    0.000000    11.810528     0.000000
    0.000000     0.000000     6.042379
   O  Cu
  12   24 
Direct
    0.226808     0.596882     0.477692
    0.470110     0.246663     0.465167
    0.454178     0.774348     0.608915
    0.192324     0.352196     0.626448
    0.363876     0.861125     0.580593
    0.157755     0.233309     0.604787
    0.229809     0.480647     0.449345
    0.667330     0.222424     0.418215
    0.642144     0.783231     0.373295
    0.816835     0.507041     0.425869
    0.782424     0.342380     0.684790
    0.772354     0.662077     0.662204
    0.370602     0.318188     0.642417
    0.330413     0.645159     0.648089
    0.145246     0.386355     0.298684
    0.147530     0.600269     0.657543
    0.505149     0.195522     0.638770
    0.154048     0.514332     0.781543
    0.172891     0.774236     0.526640
    0.336844     0.111765     0.494900
    0.116053     0.540249     0.433401
    0.266238     0.429200     0.572034
    0.413788     0.348709     0.218457
    0.671136     0.224634     0.673909
    0.642483     0.777063     0.629164
    0.821523     0.507437     0.681560
    0.502984     0.169344     0.395012
    0.778677     0.340562     0.429024
    0.767450     0.662645     0.406277
    0.481144     0.820680     0.352534
    0.539424     0.700906     0.504780
    0.696578     0.555878     0.531924
    0.649022     0.351227     0.538171
    0.581884     0.888235     0.477404
    0.883947     0.610980     0.556399
    0.793937     0.219847     0.564177
EA152  11.304 11.680  6.067 90.00 90.00 90.00 Sym.group:    0
1.0000
   11.303835     0.000000     0.000000
    0.000000    11.679966     0.000000
    0.000000     0.000000     6.067384
   O  Cu
  12   24 
Direct
    0.226156     0.603259     0.465935
    0.469941     0.248018     0.468506
    0.450258     0.779040     0.612305
    0.192400     0.354685     0.627526
    0.361809     0.868430     0.594998
    0.155146     0.235142     0.604142
    0.230871     0.486184     0.446729
    0.667936     0.222161     0.431579
    0.634285     0.773178     0.391070
    0.820911     0.508259     0.411658
    0.787284     0.336355     0.688805
    0.766594     0.663810     0.650692
    0.371351     0.320534     0.642202
    0.323364     0.652215     0.620512
    0.147857     0.390033     0.301243
    0.140447     0.602928     0.653958
    0.505548     0.194777     0.643753
    0.145404     0.513929     0.782443
    0.166357     0.781187     0.511963
    0.334363     0.113014     0.499077
    0.116775     0.545810     0.438327
    0.266377     0.433706     0.568309
    0.417222     0.355868     0.217557
    0.674445     0.217606     0.686010
    0.639047     0.784522     0.645425
    0.818356     0.506369     0.666728
    0.501525     0.169898     0.401585
    0.781278     0.341243     0.433717
    0.769991     0.663543     0.396371
    0.471712     0.809131     0.368890
    0.534064     0.697691     0.495686
    0.695871     0.555674     0.527060
    0.651733     0.349214     0.537931
    0.575724     0.886986     0.519588
    0.883225     0.613264     0.531818
    0.796822     0.215264     0.581576
EA153  12.054 11.635  4.703 90.00 90.00 90.00 Sym.group:    0
1.0000
   12.054180     0.000000     0.000000
    0.000000    11.634934     0.000000
    0.000000     0.000000     4.703318
   O  Cu
  12   24 
Direct
    0.662192     0.208927     0.331834
    0.329473     0.227663     0.337785
    0.178140     0.518203     0.291713
    0.217997     0.357602     0.634544
    0.486198     0.179292     0.681022
    0.890494     0.504495     0.377889
    0.392317     0.886549     0.359963
    0.880428     0.407682     0.381217
    0.296106     0.715820     0.654202
    0.775784     0.580900     0.676885
    0.752188     0.364905     0.690496
    0.496532     0.802536     0.672813
    0.332950     0.228700     0.660557
    0.182206     0.519921     0.614543
    0.227563     0.685712     0.280653
    0.213920     0.355952     0.311747
    0.777534     0.324278     0.322601
    0.295217     0.460687     0.471425
    0.356364     0.666886     0.458973
    0.437185     0.302220     0.501292
    0.109506     0.417133     0.455422
    0.381084     0.113451     0.516804
    0.553408     0.881217     0.483583
    0.797704     0.267584     0.490867
    0.840499     0.661688     0.466910
    0.796608     0.466437     0.445890
    0.536431     0.659745     0.696338
    0.611245     0.395105     0.718493
    0.351154     0.460104     0.696121
    0.366072     0.585943     0.684277
    0.498451     0.345359     0.719347
    0.642690     0.871439     0.525212
    0.745776     0.192407     0.527630
    0.806741     0.747590     0.492236
    0.678325     0.481046     0.572346
    0.428087     0.674760     0.542084
EA154  11.544 11.579  4.215 90.00 90.00 90.00 Sym.group:    0
1.0000
   11.544301     0.000000     0.000000
    0.000000    11.579096     0.000000
    0.000000     0.000000     4.214966
   O  Cu
  12   24 
Direct
    0.143769     0.331661     0.338574
    0.530657     0.886001     0.374181
    0.817616     0.280687     0.315688
    0.754324     0.210117     0.343267
    0.624102     0.867663     0.372088
    0.114342     0.421707     0.313170
    0.444540     0.785124     0.681838
    0.770833     0.401578     0.636549
    0.275338     0.312430     0.675241
    0.657556     0.741486     0.678566
    0.207074     0.518032     0.636338
    0.626745     0.239799     0.678750
    0.607124     0.144220     0.484460
    0.131946     0.582157     0.404584
    0.753871     0.773894     0.472377
    0.253221     0.214121     0.478718
    0.865623     0.433272     0.404005
    0.372404     0.850288     0.478566
    0.559362     0.790235     0.420792
    0.719786     0.303951     0.392202
    0.213555     0.404724     0.389915
    0.529128     0.347077     0.686830
    0.349061     0.548559     0.666103
    0.613831     0.603280     0.673161
    0.407848     0.372169     0.686198
    0.652882     0.486099     0.664988
    0.431177     0.640969     0.674963
    0.822370     0.715494     0.497341
    0.522030     0.113999     0.535336
    0.149185     0.670925     0.431515
    0.285866     0.823294     0.505615
    0.319851     0.153313     0.529715
    0.885658     0.520882     0.429005
    0.325417     0.442321     0.520193
    0.534643     0.675850     0.528443
    0.632122     0.380901     0.520748
EA155  11.450 10.558  6.749 90.00 90.00 90.00 Sym.group:    0
1.0000
   11.450204     0.000000     0.000000
    0.000000    10.558390     0.000000
    0.000000     0.000000     6.748820
   O  Cu
  12   24 
Direct
    0.613968     0.251865     0.804410
    0.185804     0.236255     0.456803
    0.331916     0.125019     0.490653
    0.884718     0.232854     0.692734
    0.669070     0.489198     0.376743
    0.470191     0.299619     0.393129
    0.664534     0.806999     0.572667
    0.182581     0.740824     0.667671
    0.115282     0.598324     0.652067
    0.535644     0.874981     0.613335
    0.354701     0.820323     0.588197
    0.156947     0.396934     0.547225
    0.539339     0.313020     0.485334
    0.653310     0.567923     0.496052
    0.798974     0.412773     0.312385
    0.409269     0.160041     0.381593
    0.753469     0.677289     0.490629
    0.663798     0.505879     0.243518
    0.488267     0.312932     0.250257
    0.296395     0.466363     0.711829
    0.517906     0.319160     0.630962
    0.640836     0.548867     0.635315
    0.288461     0.226053     0.475327
    0.733091     0.281307     0.420740
    0.512807     0.835743     0.395016
    0.145159     0.560946     0.421287
    0.222987     0.723931     0.438861
    0.661047     0.758935     0.348755
    0.631752     0.639837     0.195590
    0.329362     0.685353     0.267298
    0.261389     0.353911     0.219772
    0.232615     0.485122     0.248404
    0.584095     0.794245     0.415948
    0.187746     0.642076     0.473484
    0.530317     0.681918     0.496451
    0.289128     0.589538     0.530050
EA156  11.621 11.545  4.225 90.00 90.00 90.00 Sym.group:    0
1.0000
   11.620680     0.000000     0.000000
    0.000000    11.545415     0.000000
    0.000000     0.000000     4.225306
   O  Cu
  12   24 
Direct
    0.141509     0.331218     0.344438
    0.524546     0.885669     0.370561
    0.818286     0.279753     0.340483
    0.752513     0.210616     0.335436
    0.616710     0.865126     0.343049
    0.113591     0.421878     0.312403
    0.444066     0.784485     0.687597
    0.764935     0.398410     0.659661
    0.273910     0.311643     0.674918
    0.655362     0.741198     0.652073
    0.205974     0.517984     0.635311
    0.621779     0.236332     0.660860
    0.603509     0.144601     0.451371
    0.132190     0.582741     0.402813
    0.746720     0.770444     0.428003
    0.250078     0.212759     0.481458
    0.866240     0.430660     0.452072
    0.369160     0.851527     0.497782
    0.552637     0.788942     0.408965
    0.719574     0.304363     0.396461
    0.211861     0.404038     0.390672
    0.526503     0.345261     0.675532
    0.347162     0.547489     0.667578
    0.610573     0.603166     0.665217
    0.406083     0.370706     0.678645
    0.648777     0.485412     0.666234
    0.428952     0.639983     0.677468
    0.815280     0.712300     0.449947
    0.518215     0.114331     0.490943
    0.149640     0.671670     0.430376
    0.283580     0.825021     0.535620
    0.316496     0.151680     0.528704
    0.886409     0.518083     0.486149
    0.323314     0.441680     0.518601
    0.530236     0.674665     0.523055
    0.630214     0.380226     0.518477
EA157  11.055 10.532  4.716 90.00 90.00 90.00 Sym.group:    0
1.0000
   11.055067     0.000000     0.000000
    0.000000    10.532188     0.000000
    0.000000     0.000000     4.716488
   O  Cu
  12   24 
Direct
    0.119402     0.539953     0.640564
    0.119866     0.442375     0.625214
    0.649495     0.851468     0.594008
    0.235254     0.605510     0.365688
    0.539912     0.788754     0.334754
    0.234267     0.382519     0.338395
    0.655591     0.746540     0.704997
    0.802894     0.476234     0.711170
    0.636868     0.214643     0.668096
    0.338025     0.228148     0.683272
    0.702167     0.267873     0.286026
    0.780608     0.570342     0.331187
    0.185120     0.292924     0.506282
    0.492800     0.871256     0.513407
    0.184953     0.691503     0.557008
    0.206469     0.491950     0.575684
    0.375330     0.399021     0.319959
    0.481500     0.653302     0.331128
    0.376492     0.589998     0.338503
    0.404589     0.874670     0.492935
    0.227705     0.212204     0.463304
    0.228273     0.772778     0.530968
    0.587925     0.650059     0.451222
    0.321482     0.492860     0.462062
    0.789902     0.480862     0.321992
    0.632650     0.215446     0.279869
    0.416530     0.191634     0.673394
    0.706409     0.267053     0.674387
    0.793638     0.565713     0.720131
    0.759351     0.519670     0.517766
    0.650432     0.269120     0.482138
    0.389337     0.242542     0.487576
    0.880598     0.533429     0.530331
    0.721796     0.164780     0.463257
    0.340212     0.125330     0.474729
    0.586303     0.331254     0.431360
EA158  11.374 11.476  4.082 90.00 90.00 90.00 Sym.group:    0
1.0000
   11.374475     0.000000     0.000000
    0.000000    11.476390     0.000000
    0.000000     0.000000     4.081908
   O  Cu
  12   24 
Direct
    0.128053     0.358551     0.323378
    0.803653     0.242075     0.323378
    0.567630     0.880204     0.323379
    0.471126     0.884981     0.323379
    0.856077     0.322517     0.323379
    0.172130     0.273333     0.323380
    0.674024     0.259749     0.644548
    0.616999     0.760100     0.644549
    0.208313     0.460979     0.644548
    0.786513     0.432359     0.644548
    0.302891     0.278121     0.644548
    0.409930     0.770351     0.644549
    0.320447     0.830657     0.401011
    0.294936     0.171161     0.401010
    0.883951     0.479013     0.401010
    0.116049     0.517022     0.401009
    0.712098     0.811271     0.401012
    0.671185     0.152538     0.401012
    0.753413     0.331238     0.393842
    0.514839     0.792500     0.393842
    0.231082     0.357093     0.393843
    0.412130     0.623862     0.676621
    0.429791     0.353254     0.676622
    0.657413     0.503717     0.676622
    0.343944     0.519231     0.676621
    0.600084     0.614558     0.676622
    0.555307     0.347041     0.676621
    0.883467     0.571308     0.458859
    0.240041     0.784094     0.458858
    0.375826     0.125427     0.458860
    0.586103     0.115019     0.458859
    0.125809     0.608810     0.458861
    0.787423     0.757002     0.458858
    0.337986     0.411407     0.525744
    0.652503     0.395840     0.525744
    0.508846     0.673585     0.525744
EA159  10.993 10.740  7.025 90.00 90.00 90.00 Sym.group:    0
1.0000
   10.993255     0.000000     0.000000
    0.000000    10.739566     0.000000
    0.000000     0.000000     7.025410
   O  Cu
  12   24 
Direct
    0.329986     0.702782     0.667769
    0.626000     0.877090     0.812106
    0.690587     0.654291     0.667758
    0.690064     0.304738     0.812099
    0.469279     0.358868     0.667762
    0.173788     0.534110     0.812111
    0.329986     0.702782     0.332231
    0.626000     0.877090     0.187894
    0.690587     0.654291     0.332242
    0.690064     0.304738     0.187901
    0.469279     0.358868     0.332238
    0.173788     0.534110     0.187889
    0.383842     0.456772     0.659632
    0.126246     0.688263     0.658625
    0.455544     0.729556     0.659632
    0.780195     0.842168     0.658624
    0.650483     0.529603     0.659631
    0.583428     0.185499     0.658624
    0.383842     0.456772     0.340368
    0.126246     0.688263     0.341375
    0.455544     0.729556     0.340368
    0.780195     0.842168     0.341376
    0.650483     0.529603     0.340369
    0.583428     0.185499     0.341376
    0.879926     0.790522     0.569110
    0.538477     0.538171     0.568796
    0.489866     0.122910     0.569110
    0.447096     0.551776     0.568796
    0.120074     0.802497     0.569110
    0.504295     0.625978     0.568796
    0.879926     0.790522     0.430890
    0.538477     0.538171     0.431204
    0.489866     0.122910     0.430890
    0.447096     0.551776     0.431204
    0.120074     0.802497     0.430890
    0.504295     0.625978     0.431204
EA160  11.671 11.554  4.203 90.00 90.00 90.00 Sym.group:    0
1.0000
   11.670725     0.000000     0.000000
    0.000000    11.554204     0.000000
    0.000000     0.000000     4.203109
   O  Cu
  12   24 
Direct
    0.144168     0.334309     0.351596
    0.531334     0.885756     0.362027
    0.815174     0.285697     0.314053
    0.752771     0.214672     0.337645
    0.623268     0.865493     0.346866
    0.113104     0.424172     0.345746
    0.448409     0.787235     0.681328
    0.766435     0.400249     0.652337
    0.280538     0.308297     0.666010
    0.656679     0.743967     0.668938
    0.209974     0.522887     0.652936
    0.628629     0.243859     0.681234
    0.610467     0.146061     0.492874
    0.134520     0.586441     0.422024
    0.751430     0.772847     0.456332
    0.259565     0.216001     0.446211
    0.864514     0.434650     0.436498
    0.375734     0.853153     0.482649
    0.558807     0.789484     0.408472
    0.717935     0.308440     0.387019
    0.212377     0.407527     0.410637
    0.529062     0.348880     0.682972
    0.351133     0.550412     0.675668
    0.613332     0.605558     0.679221
    0.408935     0.373218     0.685947
    0.651608     0.487972     0.674028
    0.432593     0.642868     0.677060
    0.819760     0.715632     0.491265
    0.527108     0.114244     0.548185
    0.154650     0.675408     0.437098
    0.290120     0.827531     0.517930
    0.328451     0.156207     0.474293
    0.886896     0.520989     0.482563
    0.324687     0.444102     0.532395
    0.534839     0.676113     0.526678
    0.630814     0.384547     0.518576
EA161  11.520 11.599  4.275 90.00 90.00 90.00 Sym.group:    0
1.0000
   11.520101     0.000000     0.000000
    0.000000    11.598607     0.000000
    0.000000     0.000000     4.274845
   O  Cu
  12   24 
Direct
    0.143686     0.339086     0.332906
    0.525862     0.886193     0.341979
    0.823269     0.279099     0.339626
    0.756942     0.210256     0.334187
    0.619971     0.869158     0.362164
    0.114582     0.429133     0.308783
    0.440378     0.791264     0.661288
    0.765453     0.401558     0.637306
    0.275631     0.314030     0.661152
    0.651188     0.741213     0.659588
    0.203157     0.522469     0.643573
    0.626603     0.240285     0.658095
    0.610138     0.143433     0.469559
    0.131251     0.588434     0.410271
    0.748943     0.773432     0.460347
    0.256572     0.220760     0.447815
    0.869571     0.431246     0.436145
    0.367988     0.854824     0.457516
    0.554485     0.791511     0.401735
    0.722718     0.303985     0.383938
    0.212910     0.411495     0.394492
    0.527383     0.346099     0.654959
    0.345390     0.552334     0.691217
    0.606300     0.603600     0.644796
    0.406889     0.376506     0.688543
    0.647702     0.487480     0.625148
    0.424746     0.647475     0.671140
    0.816497     0.713576     0.480760
    0.524015     0.113807     0.510088
    0.144314     0.676757     0.458166
    0.281068     0.830214     0.493946
    0.322836     0.159223     0.495113
    0.885418     0.520234     0.447283
    0.323389     0.448354     0.534512
    0.526740     0.678452     0.511717
    0.630673     0.380093     0.491904
EA162  10.428  9.727  4.442 90.00 90.00 90.00 Sym.group:    0
1.0000
   10.427849     0.000000     0.000000
    0.000000     9.727375     0.000000
    0.000000     0.000000     4.441859
   O  Cu
  12   24 
Direct
    0.443016     0.799389     0.309470
    0.721977     0.711442     0.304103
    0.768203     0.410702     0.304452
    0.553883     0.211890     0.301589
    0.274004     0.278131     0.305719
    0.211375     0.591397     0.322733
    0.216610     0.500638     0.699048
    0.353289     0.238230     0.688313
    0.641028     0.236570     0.688922
    0.811697     0.492880     0.685052
    0.669172     0.775951     0.677575
    0.370115     0.757225     0.687624
    0.446927     0.792274     0.689685
    0.731403     0.715502     0.682993
    0.785833     0.406874     0.683057
    0.561831     0.207807     0.681093
    0.283895     0.288307     0.686989
    0.223499     0.590294     0.702827
    0.204331     0.501340     0.321450
    0.343587     0.227909     0.309149
    0.632879     0.240786     0.308629
    0.793976     0.496325     0.303259
    0.660048     0.771852     0.297173
    0.366083     0.764244     0.308363
    0.418742     0.746748     0.502199
    0.674599     0.718155     0.486435
    0.759235     0.461259     0.485819
    0.586896     0.256543     0.492136
    0.332008     0.286128     0.503705
    0.245613     0.542338     0.517057
    0.372191     0.864300     0.489365
    0.754709     0.812808     0.501658
    0.873416     0.422065     0.516683
    0.625389     0.135700     0.503097
    0.265157     0.180000     0.480349
    0.126584     0.553045     0.496063
EA163  19.582 20.450 14.459 90.00 90.00 90.00 Sym.group:    0
1.0000
   19.582260     0.000000     0.000000
    0.000000    20.449523     0.000000
    0.000000     0.000000    14.459481
   O  Cu
  12   24 
Direct
    0.640077     0.431312     0.437848
    0.509175     0.352131     0.440334
    0.371732     0.421374     0.446821
    0.359923     0.568688     0.437848
    0.490825     0.647869     0.440334
    0.628268     0.578626     0.446821
    0.602878     0.614314     0.563681
    0.449572     0.637955     0.555599
    0.348232     0.525763     0.555716
    0.397122     0.385686     0.563681
    0.550428     0.362045     0.555599
    0.651768     0.474237     0.555716
    0.637041     0.434040     0.554495
    0.506746     0.354003     0.556990
    0.367269     0.417270     0.563512
    0.362959     0.565960     0.554495
    0.493254     0.645997     0.556990
    0.632731     0.582730     0.563512
    0.598413     0.610212     0.447044
    0.447142     0.639833     0.438923
    0.345202     0.528491     0.439037
    0.401587     0.389788     0.447044
    0.552858     0.360167     0.438923
    0.654798     0.471509     0.439037
    0.629937     0.458129     0.497784
    0.526596     0.373012     0.498600
    0.397000     0.414395     0.503617
    0.370063     0.541871     0.497784
    0.473404     0.626988     0.498600
    0.603000     0.585605     0.503617
    0.689722     0.438039     0.494015
    0.538548     0.313427     0.496218
    0.350028     0.373667     0.509767
    0.310278     0.561961     0.494015
    0.461452     0.686573     0.496218
    0.649972     0.626333     0.509767
EA164  20.569 21.014 13.705 90.00 90.00 90.00 Sym.group:    0
1.0000
   20.569328     0.000000     0.000000
    0.000000    21.013702     0.000000
    0.000000     0.000000    13.705172
   O  Cu
  12   24 
Direct
    0.681302     0.596139     0.461140
    0.675709     0.394378     0.461140
    0.494406     0.298239     0.461140
    0.318698     0.403861     0.461140
    0.324291     0.605622     0.461140
    0.505594     0.701761     0.461140
    0.429688     0.310262     0.538860
    0.632712     0.345526     0.538860
    0.703024     0.535264     0.538860
    0.570312     0.689738     0.538860
    0.367288     0.654474     0.538860
    0.296976     0.464736     0.538860
    0.681302     0.596139     0.538860
    0.675709     0.394378     0.538860
    0.494406     0.298239     0.538860
    0.318698     0.403861     0.538860
    0.324291     0.605622     0.538860
    0.505594     0.701761     0.538860
    0.429688     0.310262     0.461140
    0.632712     0.345526     0.461140
    0.703024     0.535264     0.461140
    0.570312     0.689738     0.461140
    0.367288     0.654474     0.461140
    0.296976     0.464736     0.461140
    0.460567     0.610509     0.500000
    0.578054     0.588683     0.500000
    0.617488     0.478174     0.500000
    0.539433     0.389491     0.500000
    0.421946     0.411317     0.500000
    0.382512     0.521826     0.500000
    0.437625     0.674801     0.500000
    0.623464     0.640277     0.500000
    0.685840     0.465476     0.500000
    0.562375     0.325199     0.500000
    0.376536     0.359723     0.500000
    0.314160     0.534524     0.500000
EA165  21.372 21.561 14.037 90.00 90.00 90.00 Sym.group:    0
1.0000
   21.372068     0.000000     0.000000
    0.000000    21.561377     0.000000
    0.000000     0.000000    14.037263
   O  Cu
  12   24 
Direct
    0.697722     0.571831     0.448491
    0.338380     0.633814     0.448491
    0.463896     0.294355     0.448491
    0.515253     0.291813     0.448491
    0.310482     0.591000     0.448491
    0.674266     0.617187     0.448491
    0.409356     0.627227     0.545013
    0.434164     0.358577     0.545013
    0.656479     0.514197     0.545013
    0.345726     0.529580     0.545013
    0.602981     0.617642     0.545013
    0.551293     0.352778     0.545013
    0.596268     0.323418     0.481960
    0.606145     0.670929     0.481960
    0.297587     0.505652     0.481960
    0.701974     0.485634     0.481960
    0.386462     0.333804     0.481960
    0.411565     0.680561     0.481960
    0.364722     0.586611     0.465837
    0.491967     0.340569     0.465837
    0.643310     0.572820     0.465837
    0.546931     0.430479     0.548031
    0.537275     0.575046     0.548031
    0.415795     0.494474     0.548031
    0.583231     0.486186     0.548031
    0.446315     0.435460     0.548031
    0.470454     0.578354     0.548031
    0.294229     0.457367     0.492406
    0.640134     0.344678     0.492406
    0.565637     0.697956     0.492406
    0.454586     0.703453     0.492406
    0.700462     0.437258     0.492406
    0.344951     0.359290     0.492406
    0.586836     0.544124     0.502359
    0.418031     0.552480     0.502359
    0.495133     0.403396     0.502359
EA166  20.279 20.573 14.732 90.00 90.00 90.00 Sym.group:    0
1.0000
   20.278783     0.000000     0.000000
    0.000000    20.573378     0.000000
    0.000000     0.000000    14.732309
   O  Cu
  12   24 
Direct
    0.678023     0.419434     0.428989
    0.477277     0.308218     0.428989
    0.307933     0.462038     0.428989
    0.404020     0.668320     0.428989
    0.632748     0.641990     0.428989
    0.608589     0.339297     0.571011
    0.688614     0.552136     0.571011
    0.507981     0.692925     0.571011
    0.316318     0.567099     0.571011
    0.378498     0.348544     0.571011
    0.391811     0.591073     0.500000
    0.554442     0.629563     0.500000
    0.641835     0.489002     0.500000
    0.533218     0.363640     0.500000
    0.378694     0.426723     0.500000
    0.551092     0.327441     0.436118
    0.349292     0.398781     0.436118
    0.355764     0.610002     0.436118
    0.561567     0.669204     0.436118
    0.682286     0.494572     0.436118
    0.680904     0.477265     0.563882
    0.577839     0.662561     0.563882
    0.367202     0.623203     0.563882
    0.340088     0.413583     0.563882
    0.533966     0.323387     0.563882
    0.481121     0.668231     0.513737
    0.656487     0.569684     0.513737
    0.615593     0.374836     0.513737
    0.414953     0.352960     0.513737
    0.331845     0.534288     0.513737
    0.328473     0.492051     0.486263
    0.454665     0.336749     0.486263
    0.643508     0.407054     0.486263
    0.634028     0.605808     0.486263
    0.439326     0.658339     0.486263
    0.500000     0.500000     0.500000
EA167  21.993 21.993 15.350 90.00 90.00 90.00 Sym.group:    0
1.0000
   21.993113     0.000000     0.000000
    0.000000    21.993113     0.000000
    0.000000     0.000000    15.349794
   O  Cu
  12   24 
Direct
    0.707248     0.547589     0.517118
    0.452411     0.707248     0.517118
    0.292752     0.452411     0.517118
    0.547589     0.292752     0.517118
    0.550131     0.706648     0.482882
    0.706648     0.449869     0.482882
    0.449869     0.293352     0.482882
    0.293352     0.550131     0.482882
    0.412597     0.560590     0.523705
    0.439410     0.412597     0.523705
    0.587403     0.439410     0.523705
    0.560590     0.587403     0.523705
    0.559512     0.411860     0.476295
    0.411860     0.440488     0.476295
    0.440488     0.588140     0.476295
    0.588140     0.559512     0.476295
    0.333363     0.573399     0.527050
    0.426601     0.333363     0.527050
    0.666637     0.426601     0.527050
    0.573399     0.666637     0.527050
    0.571347     0.332473     0.472950
    0.332473     0.428653     0.472950
    0.428653     0.667527     0.472950
    0.667527     0.571347     0.472950
    0.564249     0.575603     0.588268
    0.424397     0.564249     0.588268
    0.435751     0.424397     0.588268
    0.575603     0.435751     0.588268
    0.576387     0.563315     0.411732
    0.563315     0.423613     0.411732
    0.423613     0.436685     0.411732
    0.436685     0.576387     0.411732
    0.498909     0.322260     0.500000
    0.677740     0.498909     0.500000
    0.501091     0.677740     0.500000
    0.322260     0.501091     0.500000
EA168  18.465 18.647 16.011 90.00 90.00 90.00 Sym.group:    0
1.0000
   18.465134     0.000000     0.000000
    0.000000    18.646880     0.000000
    0.000000     0.000000    16.011278
   O  Cu
  12   24 
Direct
    0.607186     0.385374     0.605278
    0.453348     0.350766     0.605278
    0.346161     0.465391     0.605278
    0.392814     0.614626     0.605278
    0.546652     0.649234     0.605278
    0.653839     0.534609     0.605278
    0.607186     0.385374     0.394722
    0.453348     0.350766     0.394722
    0.346161     0.465391     0.394722
    0.392814     0.614626     0.394722
    0.546652     0.649234     0.394722
    0.653839     0.534609     0.394722
    0.617985     0.610984     0.569822
    0.656053     0.454310     0.569822
    0.538068     0.343327     0.569822
    0.382015     0.389016     0.569822
    0.343947     0.545690     0.569822
    0.461932     0.656673     0.569822
    0.617985     0.610984     0.430178
    0.656053     0.454310     0.430178
    0.538068     0.343327     0.430178
    0.382015     0.389016     0.430178
    0.343947     0.545690     0.430178
    0.461932     0.656673     0.430178
    0.371157     0.431248     0.530255
    0.375451     0.576119     0.530255
    0.504295     0.644870     0.530255
    0.628843     0.568752     0.530255
    0.624549     0.423881     0.530255
    0.495705     0.355130     0.530255
    0.371157     0.431248     0.469745
    0.375451     0.576119     0.469745
    0.504295     0.644870     0.469745
    0.628843     0.568752     0.469745
    0.624549     0.423881     0.469745
    0.495705     0.355130     0.469745
EA169  20.093 21.230 18.961 90.00 90.00 90.00 Sym.group:    0
1.0000
   20.093250     0.000000     0.000000
    0.000000    21.230222     0.000000
    0.000000     0.000000    18.960919
   O  Cu
  12   24 
Direct
    0.684847     0.581696     0.543204
    0.299202     0.423136     0.541084
    0.647384     0.634450     0.467434
    0.647069     0.636302     0.540994
    0.317003     0.542560     0.536309
    0.524096     0.667510     0.466036
    0.534655     0.358769     0.482824
    0.374158     0.396394     0.532835
    0.657189     0.436357     0.532757
    0.365319     0.327926     0.528728
    0.723832     0.462731     0.525959
    0.586106     0.401134     0.472986
    0.317303     0.540791     0.466089
    0.523796     0.669278     0.536256
    0.414725     0.692720     0.468288
    0.336887     0.646704     0.528820
    0.414466     0.694244     0.528800
    0.337146     0.645180     0.468309
    0.583457     0.621054     0.503523
    0.339075     0.471301     0.503587
    0.397696     0.500070     0.471150
    0.530907     0.583511     0.536315
    0.397418     0.501712     0.536350
    0.531185     0.581870     0.471116
    0.475294     0.390075     0.539892
    0.611943     0.523335     0.536239
    0.341417     0.413599     0.422557
    0.658426     0.395629     0.424458
    0.559831     0.330827     0.542506
    0.595569     0.368360     0.583575
    0.473244     0.274237     0.498899
    0.718305     0.577011     0.490326
    0.599577     0.332109     0.467821
    0.407083     0.445006     0.512788
    0.491903     0.413817     0.397064
    0.582486     0.518595     0.394121
EA170  21.460 20.547 15.444 90.00 90.00 90.00 Sym.group:    0
1.0000
   21.459832     0.000000     0.000000
    0.000000    20.547168     0.000000
    0.000000     0.000000    15.444149
   O  Cu
  12   24 
Direct
    0.451488     0.666827     0.601274
    0.662589     0.460465     0.601274
    0.385923     0.372708     0.601274
    0.495771     0.606167     0.519588
    0.590148     0.450741     0.519588
    0.414081     0.443092     0.519588
    0.556897     0.676130     0.526223
    0.617598     0.360472     0.526223
    0.325505     0.463398     0.526223
    0.336995     0.365274     0.500432
    0.469788     0.714800     0.500432
    0.693217     0.419927     0.500432
    0.582960     0.561331     0.419707
    0.509375     0.394298     0.419707
    0.407665     0.544372     0.419707
    0.430414     0.340970     0.569499
    0.402926     0.642455     0.569499
    0.666660     0.516575     0.569499
    0.417697     0.361271     0.480837
    0.426119     0.643807     0.480837
    0.656185     0.494921     0.480837
    0.384574     0.398123     0.469996
    0.473238     0.655340     0.469996
    0.642188     0.446537     0.469996
    0.463329     0.344970     0.507768
    0.389784     0.610683     0.507768
    0.646885     0.544348     0.507768
    0.676627     0.608410     0.511099
    0.501580     0.286038     0.511099
    0.321794     0.605553     0.511099
    0.445738     0.644656     0.425909
    0.647079     0.476751     0.425909
    0.407183     0.378593     0.425909
    0.573249     0.439416     0.467669
    0.413140     0.464039     0.467669
    0.513611     0.596545     0.467669
