EA95   19.582 20.450 14.459 90.00 90.00 90.00 Sym.group:    0
1.0000
   19.582260     0.000000     0.000000
    0.000000    20.449523     0.000000
    0.000000     0.000000    14.459481
   O  Cu
  12   24 
Direct
    0.640077     0.431312     0.437848
    0.509175     0.352131     0.440334
    0.371732     0.421374     0.446821
    0.359923     0.568688     0.437848
    0.490825     0.647869     0.440334
    0.628268     0.578626     0.446821
    0.602878     0.614314     0.563681
    0.449572     0.637955     0.555599
    0.348232     0.525763     0.555716
    0.397122     0.385686     0.563681
    0.550428     0.362045     0.555599
    0.651768     0.474237     0.555716
    0.637041     0.434040     0.554495
    0.506746     0.354003     0.556990
    0.367269     0.417270     0.563512
    0.362959     0.565960     0.554495
    0.493254     0.645997     0.556990
    0.632731     0.582730     0.563512
    0.598413     0.610212     0.447044
    0.447142     0.639833     0.438923
    0.345202     0.528491     0.439037
    0.401587     0.389788     0.447044
    0.552858     0.360167     0.438923
    0.654798     0.471509     0.439037
    0.629937     0.458129     0.497784
    0.526596     0.373012     0.498600
    0.397000     0.414395     0.503617
    0.370063     0.541871     0.497784
    0.473404     0.626988     0.498600
    0.603000     0.585605     0.503617
    0.689722     0.438039     0.494015
    0.538548     0.313427     0.496218
    0.350028     0.373667     0.509767
    0.310278     0.561961     0.494015
    0.461452     0.686573     0.496218
    0.649972     0.626333     0.509767
EA38   20.445 19.616 14.327 90.00 90.00 90.00 Sym.group:    0
1.0000
   20.445337     0.000000     0.000000
    0.000000    19.616015     0.000000
    0.000000     0.000000    14.326909
   O  Cu
  12   24 
Direct
    0.365602     0.434780     0.441128
    0.378610     0.588702     0.441128
    0.513008     0.653922     0.441128
    0.634398     0.565220     0.441128
    0.621390     0.411298     0.441128
    0.486992     0.346078     0.441128
    0.529529     0.348578     0.558872
    0.640581     0.450943     0.558872
    0.611052     0.602365     0.558872
    0.470471     0.651422     0.558872
    0.359419     0.549057     0.558872
    0.388948     0.397635     0.558872
    0.365602     0.434780     0.558872
    0.378610     0.588702     0.558872
    0.513008     0.653922     0.558872
    0.634398     0.565220     0.558872
    0.621390     0.411298     0.558872
    0.486992     0.346078     0.558872
    0.529529     0.348578     0.441128
    0.640581     0.450943     0.441128
    0.611052     0.602365     0.441128
    0.470471     0.651422     0.441128
    0.359419     0.549057     0.441128
    0.388948     0.397635     0.441128
    0.390843     0.425471     0.500000
    0.383496     0.561264     0.500000
    0.492653     0.635793     0.500000
    0.609157     0.574529     0.500000
    0.616504     0.438736     0.500000
    0.507347     0.364207     0.500000
    0.340081     0.390813     0.500000
    0.329317     0.589755     0.500000
    0.489236     0.698943     0.500000
    0.659919     0.609187     0.500000
    0.670683     0.410245     0.500000
    0.510764     0.301057     0.500000
EA102  19.619 20.445 14.402 90.00 90.00 90.00 Sym.group:    0
1.0000
   19.619344     0.000000     0.000000
    0.000000    20.444920     0.000000
    0.000000     0.000000    14.402262
   O  Cu
  12   24 
Direct
    0.535040     0.352342     0.442944
    0.388234     0.402587     0.440623
    0.359867     0.544729     0.439116
    0.469616     0.642127     0.439928
    0.617041     0.601851     0.442249
    0.654099     0.454210     0.443756
    0.647983     0.498051     0.560636
    0.575947     0.623537     0.560569
    0.424417     0.630908     0.558498
    0.339074     0.504533     0.556492
    0.415642     0.370056     0.556559
    0.573022     0.370944     0.558630
    0.532078     0.354423     0.560223
    0.383342     0.399559     0.557482
    0.351327     0.545858     0.555823
    0.466653     0.644208     0.556905
    0.612150     0.598823     0.559645
    0.645560     0.455338     0.561304
    0.656563     0.497116     0.443928
    0.580715     0.626620     0.443711
    0.427463     0.628816     0.441220
    0.347653     0.503598     0.438944
    0.420410     0.373140     0.439161
    0.576068     0.368852     0.441652
    0.547651     0.376648     0.501674
    0.413379     0.398269     0.497003
    0.365911     0.520616     0.495328
    0.452467     0.621132     0.498326
    0.586426     0.599613     0.502997
    0.634142     0.477476     0.504672
    0.572112     0.320639     0.498605
    0.369705     0.354174     0.502498
    0.304690     0.537219     0.503894
    0.432665     0.678818     0.501395
    0.623227     0.649153     0.497502
    0.697659     0.474019     0.496106
EA116  19.635 18.066 19.088 90.00 90.00 90.00 Sym.group:    0
1.0000
   19.634539     0.000000     0.000000
    0.000000    18.065885     0.000000
    0.000000     0.000000    19.087675
   O  Cu
  12   24 
Direct
    0.514037     0.338214     0.455025
    0.371246     0.403254     0.455202
    0.353037     0.570355     0.456570
    0.336011     0.525970     0.546120
    0.402658     0.374312     0.543334
    0.557190     0.356970     0.544158
    0.630633     0.418240     0.458174
    0.498231     0.671279     0.453889
    0.630919     0.585954     0.455950
    0.603484     0.626168     0.543497
    0.454395     0.666903     0.541913
    0.646831     0.464897     0.545940
    0.514084     0.343990     0.543401
    0.370897     0.407935     0.543607
    0.346367     0.572971     0.545030
    0.342680     0.523352     0.457702
    0.403002     0.369626     0.454914
    0.557140     0.351200     0.455758
    0.531161     0.365281     0.499969
    0.398895     0.401961     0.499501
    0.361064     0.544013     0.500233
    0.547759     0.299085     0.498540
    0.354181     0.352689     0.498621
    0.299153     0.559428     0.504426
    0.630429     0.420307     0.546417
    0.498027     0.673346     0.542133
    0.630716     0.588022     0.544193
    0.603688     0.624100     0.455253
    0.454598     0.664835     0.453669
    0.647034     0.462831     0.457697
    0.623156     0.448537     0.501856
    0.478694     0.650904     0.498159
    0.604006     0.594844     0.499780
    0.681430     0.422467     0.502609
    0.469789     0.718943     0.497194
    0.653375     0.636813     0.499568
EA113  20.151 20.704 16.462 90.00 90.00 90.00 Sym.group:    0
1.0000
   20.151402     0.000000     0.000000
    0.000000    20.703863     0.000000
    0.000000     0.000000    16.462446
   O  Cu
  12   24 
Direct
    0.370906     0.386458     0.454791
    0.520354     0.340487     0.453479
    0.450875     0.639616     0.448036
    0.336167     0.536023     0.452070
    0.344991     0.423900     0.558786
    0.642757     0.614705     0.469947
    0.674810     0.420854     0.473255
    0.392058     0.664911     0.531468
    0.594966     0.657132     0.532668
    0.688634     0.483237     0.535979
    0.579396     0.317121     0.538091
    0.495274     0.643960     0.551664
    0.370497     0.387517     0.559184
    0.335758     0.537082     0.556463
    0.355469     0.575692     0.450906
    0.495683     0.642901     0.447271
    0.615761     0.404409     0.450608
    0.475546     0.337201     0.454244
    0.345400     0.422842     0.454393
    0.372040     0.414621     0.506365
    0.496382     0.356090     0.505715
    0.361068     0.549111     0.503604
    0.319319     0.379297     0.507951
    0.303245     0.576330     0.503906
    0.643392     0.615576     0.533597
    0.453674     0.684867     0.531471
    0.517780     0.297165     0.538088
    0.675444     0.421725     0.536905
    0.594331     0.656261     0.469017
    0.688000     0.482366     0.472329
    0.573320     0.415141     0.504641
    0.597265     0.526808     0.502959
    0.509354     0.602247     0.501273
    0.624465     0.371251     0.505622
    0.662338     0.547883     0.502963
    0.523284     0.667212     0.500294
EA126  19.238 18.419 20.452 90.00 90.00 90.00 Sym.group:    0
1.0000
   19.237504     0.000000     0.000000
    0.000000    18.418934     0.000000
    0.000000     0.000000    20.451566
   O  Cu
  12   24 
Direct
    0.403960     0.379327     0.460813
    0.563633     0.331774     0.451220
    0.671921     0.459066     0.453070
    0.652427     0.590530     0.549200
    0.653257     0.414262     0.541019
    0.513602     0.327608     0.542049
    0.367959     0.414792     0.551124
    0.648401     0.678231     0.476742
    0.438360     0.706498     0.475158
    0.302202     0.533640     0.472037
    0.302263     0.463441     0.519950
    0.379778     0.669245     0.522904
    0.397694     0.374139     0.550129
    0.560106     0.334620     0.540556
    0.669232     0.461036     0.542391
    0.655952     0.412290     0.451683
    0.517130     0.324770     0.452689
    0.374224     0.419983     0.461849
    0.399951     0.408542     0.504656
    0.535361     0.348746     0.497661
    0.645649     0.443957     0.497844
    0.347529     0.365676     0.509598
    0.547610     0.277468     0.493806
    0.709044     0.416716     0.494845
    0.649083     0.677568     0.525423
    0.439043     0.705836     0.523839
    0.302884     0.532978     0.520718
    0.301580     0.464104     0.471269
    0.379095     0.669907     0.474223
    0.589755     0.711177     0.476574
    0.620171     0.571467     0.499659
    0.513710     0.631276     0.499354
    0.406121     0.564852     0.497657
    0.682764     0.610111     0.500646
    0.514365     0.704718     0.500164
    0.344185     0.599648     0.497479
EA129  20.905 18.945 18.514 90.00 90.00 90.00 Sym.group:    0
1.0000
   20.904899     0.000000     0.000000
    0.000000    18.945120     0.000000
    0.000000     0.000000    18.513659
   O  Cu
  12   24 
Direct
    0.303562     0.529776     0.460806
    0.586079     0.700844     0.462118
    0.302981     0.475405     0.463052
    0.363845     0.565591     0.530481
    0.362521     0.441585     0.535602
    0.526705     0.664204     0.531238
    0.659827     0.513007     0.449622
    0.596595     0.354634     0.446845
    0.480227     0.333665     0.543946
    0.626097     0.396769     0.544312
    0.652927     0.566897     0.545165
    0.383487     0.607512     0.532210
    0.502349     0.712776     0.483176
    0.336313     0.391551     0.491588
    0.338684     0.613677     0.482416
    0.583630     0.643809     0.476884
    0.349305     0.501924     0.475796
    0.495148     0.589152     0.535588
    0.438945     0.555120     0.535327
    0.455212     0.715149     0.489178
    0.358469     0.346076     0.501649
    0.361806     0.658592     0.488744
    0.410071     0.501385     0.503879
    0.571997     0.656270     0.534832
    0.663497     0.518816     0.546987
    0.592944     0.362916     0.543951
    0.437536     0.348096     0.543815
    0.483769     0.326573     0.446769
    0.629743     0.388490     0.447179
    0.649255     0.561094     0.447845
    0.639843     0.535219     0.495908
    0.599873     0.389558     0.495700
    0.465790     0.355448     0.495253
    0.701681     0.553044     0.501491
    0.642749     0.337670     0.495229
    0.446535     0.287706     0.495420
EA134  19.319 18.750 18.820 90.00 90.00 90.00 Sym.group:    0
1.0000
   19.319348     0.000000     0.000000
    0.000000    18.750141     0.000000
    0.000000     0.000000    18.820427
   O  Cu
  12   24 
Direct
    0.569118     0.650542     0.457850
    0.670002     0.518101     0.459923
    0.612320     0.359572     0.441301
    0.639985     0.396607     0.540521
    0.658202     0.563834     0.557157
    0.325645     0.456245     0.529347
    0.385354     0.632362     0.535684
    0.334139     0.563438     0.457386
    0.367486     0.375481     0.454085
    0.475163     0.678783     0.465172
    0.360834     0.429177     0.582829
    0.475470     0.323502     0.577554
    0.566685     0.644958     0.552430
    0.672365     0.517857     0.555032
    0.606737     0.361174     0.536145
    0.493849     0.323536     0.435191
    0.645563     0.395009     0.445651
    0.655837     0.564081     0.462092
    0.522865     0.661303     0.455368
    0.540362     0.635112     0.503226
    0.646797     0.535178     0.506160
    0.613087     0.390642     0.491884
    0.556911     0.702504     0.505763
    0.711512     0.556951     0.515100
    0.661921     0.343633     0.488221
    0.326904     0.463512     0.454741
    0.386612     0.639628     0.461079
    0.332881     0.556172     0.531992
    0.473906     0.671517     0.539778
    0.398785     0.438953     0.494130
    0.407699     0.562062     0.497390
    0.298962     0.394813     0.489515
    0.316031     0.630570     0.495756
    0.401068     0.358835     0.548041
    0.445320     0.353420     0.462284
    0.443622     0.350936     0.514223
EA139  20.971 20.741 15.798 90.00 90.00 90.00 Sym.group:    0
1.0000
   20.971412     0.000000     0.000000
    0.000000    20.741154     0.000000
    0.000000     0.000000    15.798190
   O  Cu
  12   24 
Direct
    0.663380     0.461732     0.561599
    0.613271     0.617104     0.551729
    0.456152     0.653911     0.553477
    0.639272     0.577176     0.438314
    0.643942     0.414795     0.449971
    0.361111     0.640180     0.462470
    0.313061     0.444974     0.465593
    0.455688     0.309311     0.465323
    0.518562     0.306540     0.532362
    0.339747     0.388895     0.533805
    0.324658     0.587999     0.531508
    0.551788     0.699722     0.459077
    0.399220     0.676351     0.486551
    0.659773     0.458255     0.446372
    0.609665     0.613628     0.436502
    0.501590     0.660920     0.551690
    0.642879     0.580653     0.553543
    0.647548     0.418271     0.565200
    0.637166     0.444735     0.505779
    0.612805     0.586046     0.496207
    0.480095     0.638112     0.496160
    0.698880     0.420523     0.505801
    0.663189     0.627551     0.491776
    0.571329     0.563922     0.480347
    0.360846     0.641307     0.530335
    0.312797     0.446102     0.533458
    0.455423     0.310438     0.533188
    0.518827     0.305413     0.464496
    0.340012     0.387768     0.465939
    0.324922     0.586872     0.463642
    0.388984     0.512158     0.497632
    0.437909     0.408308     0.498261
    0.552530     0.401231     0.496761
    0.322299     0.516274     0.498505
    0.399689     0.352008     0.499500
    0.580994     0.340813     0.497127
EA141  20.732 21.136 15.519 90.00 90.00 90.00 Sym.group:    0
1.0000
   20.732288     0.000000     0.000000
    0.000000    21.135990     0.000000
    0.000000     0.000000    15.519433
   O  Cu
  12   24 
Direct
    0.315089     0.442975     0.484872
    0.574411     0.652765     0.449914
    0.396958     0.638446     0.452566
    0.323199     0.481425     0.452354
    0.648236     0.596169     0.547419
    0.484894     0.668076     0.550602
    0.457477     0.358119     0.447955
    0.614980     0.387648     0.438194
    0.672401     0.539340     0.428702
    0.662051     0.496940     0.541315
    0.571397     0.371557     0.553169
    0.413922     0.376904     0.561541
    0.354812     0.473888     0.499462
    0.433407     0.534212     0.571412
    0.569836     0.539898     0.566714
    0.414094     0.483136     0.530375
    0.400978     0.637952     0.551652
    0.337310     0.567651     0.452883
    0.480874     0.668571     0.451515
    0.576148     0.582718     0.498854
    0.460911     0.602191     0.500826
    0.387425     0.514969     0.501217
    0.643390     0.662527     0.498497
    0.422708     0.699818     0.502274
    0.281981     0.532788     0.503022
    0.455795     0.359251     0.558053
    0.611975     0.394318     0.548517
    0.665093     0.541970     0.539645
    0.669388     0.494126     0.431169
    0.574275     0.364854     0.443361
    0.415686     0.375768     0.451154
    0.443309     0.383154     0.502675
    0.584507     0.394237     0.497077
    0.649634     0.518257     0.488513
    0.415429     0.324442     0.510164
    0.616019     0.338941     0.492365
EA131  20.176 17.986 18.301 90.00 90.00 90.00 Sym.group:    0
1.0000
   20.176386     0.000000     0.000000
    0.000000    17.985813     0.000000
    0.000000     0.000000    18.301088
   O  Cu
  12   24 
Direct
    0.509057     0.312203     0.486396
    0.398303     0.432407     0.456792
    0.427475     0.332366     0.440438
    0.346405     0.419259     0.603317
    0.364850     0.418786     0.497000
    0.538069     0.682785     0.455823
    0.643923     0.559492     0.453837
    0.607365     0.395017     0.451549
    0.634107     0.430468     0.546528
    0.628391     0.601634     0.548999
    0.497522     0.686067     0.550477
    0.607751     0.355933     0.487731
    0.547380     0.362747     0.544969
    0.475766     0.484856     0.652317
    0.474796     0.336450     0.454397
    0.387580     0.597255     0.435089
    0.368641     0.602021     0.537542
    0.321465     0.574019     0.499740
    0.393464     0.659657     0.463811
    0.422597     0.643690     0.504979
    0.352298     0.540029     0.471760
    0.366837     0.422068     0.423953
    0.398504     0.391538     0.551737
    0.396034     0.387010     0.489707
    0.421003     0.420199     0.518069
    0.488277     0.507863     0.510546
    0.539796     0.679377     0.550295
    0.609092     0.391609     0.546021
    0.632380     0.433877     0.452057
    0.626664     0.605043     0.454527
    0.495795     0.689476     0.456005
    0.516090     0.665872     0.502887
    0.621365     0.573491     0.501346
    0.607651     0.424225     0.499230
    0.676702     0.599945     0.501614
    0.656608     0.381264     0.498514
EA122  20.976 15.413 20.208 90.00 90.00 90.00 Sym.group:    0
1.0000
   20.975752     0.000000     0.000000
    0.000000    15.413388     0.000000
    0.000000     0.000000    20.207505
   O  Cu
  12   24 
Direct
    0.511237     0.728691     0.544042
    0.356458     0.629829     0.543065
    0.346023     0.404316     0.546384
    0.327882     0.513862     0.468607
    0.421228     0.702903     0.467195
    0.444807     0.312440     0.462850
    0.655282     0.506035     0.542523
    0.580615     0.696840     0.543772
    0.576303     0.316037     0.543203
    0.536201     0.293765     0.460542
    0.616019     0.658446     0.460137
    0.649406     0.444455     0.459368
    0.356366     0.627643     0.467308
    0.345932     0.402130     0.470627
    0.407458     0.314138     0.548774
    0.327974     0.516048     0.544364
    0.389979     0.473008     0.508139
    0.465665     0.361907     0.511083
    0.425072     0.613186     0.506539
    0.288613     0.446401     0.506910
    0.355816     0.714846     0.503846
    0.415820     0.488119     0.456957
    0.450818     0.413777     0.459137
    0.463576     0.602364     0.456289
    0.656459     0.506949     0.459381
    0.581792     0.697754     0.460630
    0.577480     0.316950     0.460062
    0.535023     0.292851     0.543683
    0.614842     0.657533     0.543278
    0.648229     0.443542     0.542509
    0.635747     0.478788     0.501159
    0.587693     0.658810     0.502057
    0.550279     0.327277     0.501984
    0.697840     0.465531     0.500358
    0.627439     0.729270     0.501673
    0.572626     0.243560     0.501567
EA73   19.616 18.779 18.928 90.00 90.00 90.00 Sym.group:    0
1.0000
   19.616386     0.000000     0.000000
    0.000000    18.779474     0.000000
    0.000000     0.000000    18.928372
   O  Cu
  12   24 
Direct
    0.705776     0.462828     0.531336
    0.706120     0.517481     0.529350
    0.408016     0.284912     0.531202
    0.642291     0.425346     0.464293
    0.470643     0.322784     0.464216
    0.643075     0.549991     0.459765
    0.404217     0.342743     0.556641
    0.326240     0.498510     0.549119
    0.416190     0.646529     0.544895
    0.584118     0.638783     0.548193
    0.379102     0.613497     0.448500
    0.333243     0.444742     0.454326
    0.670491     0.600966     0.502282
    0.496594     0.274627     0.510316
    0.669088     0.377696     0.510393
    0.657298     0.489808     0.517234
    0.563535     0.541337     0.456217
    0.503627     0.398871     0.460080
    0.562862     0.434264     0.460107
    0.546433     0.273222     0.504225
    0.646853     0.646171     0.492857
    0.644879     0.332046     0.504269
    0.443445     0.399561     0.490418
    0.593089     0.488978     0.490485
    0.328275     0.494942     0.452262
    0.418225     0.642962     0.448038
    0.540027     0.659518     0.546591
    0.377067     0.617065     0.545358
    0.331208     0.448309     0.551184
    0.348032     0.473545     0.501973
    0.408429     0.614420     0.497504
    0.555583     0.629855     0.499519
    0.279600     0.466366     0.501036
    0.368086     0.672756     0.494488
    0.583670     0.695369     0.497440
    0.444573     0.579199     0.483892
EA157  21.055 20.532 14.716 90.00 90.00 90.00 Sym.group:    0
1.0000
   21.055067     0.000000     0.000000
    0.000000    20.532188     0.000000
    0.000000     0.000000    14.716488
   O  Cu
  12   24 
Direct
    0.694107     0.529626     0.546097
    0.692654     0.479593     0.541185
    0.419728     0.696446     0.531139
    0.634112     0.564783     0.457994
    0.476471     0.662817     0.448058
    0.631865     0.450419     0.449264
    0.415226     0.642722     0.566718
    0.334556     0.506076     0.568714
    0.418459     0.369714     0.554933
    0.575487     0.372651     0.559803
    0.384846     0.397872     0.432478
    0.347423     0.554026     0.446926
    0.656550     0.403822     0.503078
    0.502222     0.704500     0.505309
    0.661579     0.608214     0.519304
    0.647811     0.506170     0.525305
    0.558027     0.460764     0.443351
    0.505451     0.592577     0.446908
    0.559785     0.558713     0.449279
    0.548566     0.705073     0.498750
    0.633196     0.362997     0.489309
    0.639849     0.650469     0.510952
    0.449548     0.592337     0.485395
    0.587453     0.508170     0.488887
    0.341435     0.508265     0.443986
    0.420684     0.370059     0.430511
    0.533826     0.354974     0.556638
    0.382607     0.397518     0.556944
    0.340524     0.551837     0.571579
    0.357951     0.527763     0.506727
    0.412015     0.397826     0.495331
    0.548733     0.380712     0.497082
    0.294480     0.536438     0.510750
    0.373263     0.345272     0.489286
    0.573064     0.319950     0.492975
    0.446447     0.428831     0.479054
EA84   20.569 21.014 13.705 90.00 90.00 90.00 Sym.group:    0
1.0000
   20.569328     0.000000     0.000000
    0.000000    21.013702     0.000000
    0.000000     0.000000    13.705172
   O  Cu
  12   24 
Direct
    0.681302     0.596139     0.461140
    0.675709     0.394378     0.461140
    0.494406     0.298239     0.461140
    0.318698     0.403861     0.461140
    0.324291     0.605622     0.461140
    0.505594     0.701761     0.461140
    0.429688     0.310262     0.538860
    0.632712     0.345526     0.538860
    0.703024     0.535264     0.538860
    0.570312     0.689738     0.538860
    0.367288     0.654474     0.538860
    0.296976     0.464736     0.538860
    0.681302     0.596139     0.538860
    0.675709     0.394378     0.538860
    0.494406     0.298239     0.538860
    0.318698     0.403861     0.538860
    0.324291     0.605622     0.538860
    0.505594     0.701761     0.538860
    0.429688     0.310262     0.461140
    0.632712     0.345526     0.461140
    0.703024     0.535264     0.461140
    0.570312     0.689738     0.461140
    0.367288     0.654474     0.461140
    0.296976     0.464736     0.461140
    0.460567     0.610509     0.500000
    0.578054     0.588683     0.500000
    0.617488     0.478174     0.500000
    0.539433     0.389491     0.500000
    0.421946     0.411317     0.500000
    0.382512     0.521826     0.500000
    0.437625     0.674801     0.500000
    0.623464     0.640277     0.500000
    0.685840     0.465476     0.500000
    0.562375     0.325199     0.500000
    0.376536     0.359723     0.500000
    0.314160     0.534524     0.500000
EA114  20.462 17.995 20.579 90.00 90.00 90.00 Sym.group:    0
1.0000
   20.461759     0.000000     0.000000
    0.000000    17.994833     0.000000
    0.000000     0.000000    20.578760
   O  Cu
  12   24 
Direct
    0.303659     0.530960     0.467335
    0.302228     0.457122     0.533307
    0.302985     0.532107     0.534694
    0.302902     0.455975     0.465948
    0.385656     0.633485     0.470258
    0.382144     0.350208     0.529299
    0.616189     0.364899     0.545929
    0.649303     0.541543     0.544710
    0.538597     0.664271     0.541029
    0.584326     0.652142     0.453287
    0.669061     0.493612     0.458125
    0.586394     0.327100     0.459726
    0.385012     0.634579     0.534558
    0.382787     0.349113     0.464998
    0.455440     0.259309     0.522714
    0.460656     0.720366     0.475848
    0.455995     0.258366     0.467303
    0.460102     0.721309     0.531259
    0.361709     0.431066     0.498788
    0.362948     0.553796     0.501058
    0.426225     0.546555     0.530371
    0.425705     0.434858     0.468621
    0.426822     0.545538     0.470668
    0.425107     0.435875     0.528324
    0.620531     0.363453     0.458852
    0.657523     0.545225     0.457710
    0.541083     0.669216     0.453746
    0.581755     0.647180     0.540794
    0.660809     0.490154     0.545749
    0.582186     0.328604     0.547206
    0.589809     0.360994     0.503658
    0.642112     0.512736     0.503153
    0.555426     0.639096     0.498046
    0.633688     0.305628     0.500882
    0.705723     0.532808     0.497147
    0.577404     0.710753     0.494900
EA142  19.684 19.695 17.958 90.00 90.00 90.00 Sym.group:    0
1.0000
   19.683571     0.000000     0.000000
    0.000000    19.695222     0.000000
    0.000000     0.000000    17.957776
   O  Cu
  12   24 
Direct
    0.510453     0.667368     0.549943
    0.370690     0.598918     0.545847
    0.357879     0.435177     0.547900
    0.484830     0.339884     0.554049
    0.344153     0.486881     0.442375
    0.400229     0.639453     0.442089
    0.660557     0.539020     0.587409
    0.557726     0.654338     0.598917
    0.603723     0.397654     0.582189
    0.659338     0.533009     0.403169
    0.556507     0.648328     0.414677
    0.602504     0.391643     0.397948
    0.369935     0.605264     0.441500
    0.357123     0.441521     0.443553
    0.441565     0.351053     0.552283
    0.344909     0.480537     0.546723
    0.400985     0.633109     0.546437
    0.397820     0.606761     0.494615
    0.367185     0.466090     0.495656
    0.466629     0.366127     0.500863
    0.351575     0.653247     0.492194
    0.306694     0.447158     0.493718
    0.452382     0.300708     0.501346
    0.411662     0.471224     0.480415
    0.525981     0.358763     0.552793
    0.656256     0.456943     0.552006
    0.630961     0.610140     0.561886
    0.525174     0.354777     0.430602
    0.655448     0.452955     0.429815
    0.630153     0.606154     0.439695
    0.561353     0.383754     0.517916
    0.649777     0.497329     0.520032
    0.588881     0.624406     0.530167
    0.561003     0.382026     0.464969
    0.649427     0.495602     0.467085
    0.588531     0.622679     0.477219
EA124  17.969 20.212 20.735 90.00 90.00 90.00 Sym.group:    0
1.0000
   17.969166     0.000000     0.000000
    0.000000    20.211844     0.000000
    0.000000     0.000000    20.734914
   O  Cu
  12   24 
Direct
    0.730438     0.499768     0.472473
    0.609872     0.322428     0.474570
    0.375983     0.325856     0.479052
    0.717135     0.436929     0.524749
    0.318868     0.370634     0.532295
    0.539501     0.302176     0.527989
    0.303187     0.405681     0.455808
    0.330539     0.638847     0.446509
    0.682947     0.616926     0.547137
    0.436090     0.696443     0.543797
    0.275917     0.511191     0.551094
    0.347201     0.559156     0.499464
    0.730390     0.501957     0.524573
    0.609824     0.324617     0.526670
    0.375935     0.328045     0.531152
    0.717183     0.434739     0.472649
    0.318916     0.368444     0.480195
    0.539549     0.299987     0.475889
    0.624186     0.545028     0.500610
    0.600124     0.426977     0.500930
    0.472464     0.386239     0.503325
    0.698456     0.568729     0.499216
    0.660394     0.381999     0.499722
    0.508357     0.649456     0.495962
    0.695002     0.558607     0.454950
    0.300189     0.566101     0.454391
    0.500244     0.690654     0.449546
    0.522527     0.689293     0.539144
    0.309922     0.582618     0.543267
    0.303771     0.484119     0.512060
    0.415233     0.663616     0.504961
    0.640792     0.623780     0.506701
    0.602724     0.651933     0.486299
    0.373327     0.640434     0.486608
    0.315263     0.441675     0.494512
    0.497550     0.504918     0.501730
EA145  20.589 19.420 18.711 90.00 90.00 90.00 Sym.group:    0
1.0000
   20.588961     0.000000     0.000000
    0.000000    19.420024     0.000000
    0.000000     0.000000    18.711073
   O  Cu
  12   24 
Direct
    0.680319     0.485368     0.448664
    0.575959     0.352874     0.450242
    0.414893     0.381075     0.446675
    0.448926     0.353975     0.548748
    0.610536     0.381305     0.549015
    0.389231     0.641706     0.456195
    0.554333     0.692541     0.459545
    0.632087     0.645218     0.537659
    0.315463     0.446865     0.472467
    0.305473     0.500161     0.471817
    0.381445     0.426594     0.543505
    0.358658     0.548149     0.542021
    0.672962     0.490499     0.547335
    0.569497     0.357277     0.548991
    0.408410     0.378212     0.545711
    0.455410     0.356838     0.449758
    0.617001     0.376895     0.450249
    0.681461     0.534646     0.447984
    0.659383     0.512899     0.497619
    0.584652     0.383462     0.499155
    0.440875     0.383790     0.496194
    0.726090     0.511613     0.497807
    0.616772     0.322183     0.500915
    0.407426     0.322877     0.501908
    0.551968     0.693040     0.535002
    0.634451     0.644719     0.462202
    0.347320     0.560982     0.456311
    0.510820     0.634707     0.497056
    0.508785     0.744722     0.495440
    0.324276     0.590036     0.495702
    0.356715     0.483474     0.485885
    0.436014     0.555548     0.546521
    0.580268     0.567648     0.550908
    0.485771     0.602048     0.547764
    0.338698     0.639261     0.503287
    0.417651     0.496790     0.513743
EA23   21.372 21.561 14.037 90.00 90.00 90.00 Sym.group:    0
1.0000
   21.372068     0.000000     0.000000
    0.000000    21.561377     0.000000
    0.000000     0.000000    14.037263
   O  Cu
  12   24 
Direct
    0.697722     0.571831     0.448491
    0.338380     0.633814     0.448491
    0.463896     0.294355     0.448491
    0.515253     0.291813     0.448491
    0.310482     0.591000     0.448491
    0.674266     0.617187     0.448491
    0.409356     0.627227     0.545013
    0.434164     0.358577     0.545013
    0.656479     0.514197     0.545013
    0.345726     0.529580     0.545013
    0.602981     0.617642     0.545013
    0.551293     0.352778     0.545013
    0.596268     0.323418     0.481960
    0.606145     0.670929     0.481960
    0.297587     0.505652     0.481960
    0.701974     0.485634     0.481960
    0.386462     0.333804     0.481960
    0.411565     0.680561     0.481960
    0.364722     0.586611     0.465837
    0.491967     0.340569     0.465837
    0.643310     0.572820     0.465837
    0.546931     0.430479     0.548031
    0.537275     0.575046     0.548031
    0.415795     0.494474     0.548031
    0.583231     0.486186     0.548031
    0.446315     0.435460     0.548031
    0.470454     0.578354     0.548031
    0.294229     0.457367     0.492406
    0.640134     0.344678     0.492406
    0.565637     0.697956     0.492406
    0.454586     0.703453     0.492406
    0.700462     0.437258     0.492406
    0.344951     0.359290     0.492406
    0.586836     0.544124     0.502359
    0.418031     0.552480     0.502359
    0.495133     0.403396     0.502359
EA91   21.356 21.494 14.143 90.00 90.00 90.00 Sym.group:    0
1.0000
   21.355823     0.000000     0.000000
    0.000000    21.494153     0.000000
    0.000000     0.000000    14.142977
   O  Cu
  12   24 
Direct
    0.308287     0.410892     0.446407
    0.517320     0.707066     0.454397
    0.674955     0.381988     0.445825
    0.640280     0.344204     0.450752
    0.567775     0.697013     0.452435
    0.291696     0.459291     0.443441
    0.471745     0.653771     0.548543
    0.647671     0.446841     0.540567
    0.380181     0.398632     0.544920
    0.586630     0.630300     0.545512
    0.343141     0.509350     0.540343
    0.569657     0.359710     0.548175
    0.559889     0.308750     0.488905
    0.301058     0.545060     0.474912
    0.638143     0.646850     0.482468
    0.368159     0.347092     0.483615
    0.700647     0.463905     0.474441
    0.432131     0.688383     0.488229
    0.532879     0.655581     0.469032
    0.621641     0.394718     0.465711
    0.345778     0.450128     0.463535
    0.517146     0.417711     0.549704
    0.419907     0.526278     0.546665
    0.562997     0.555860     0.546647
    0.451587     0.431188     0.549077
    0.584002     0.492688     0.545692
    0.464257     0.576115     0.548247
    0.675350     0.615687     0.490660
    0.513559     0.292607     0.501750
    0.310233     0.592721     0.484979
    0.385413     0.674248     0.498267
    0.404453     0.314238     0.496468
    0.711387     0.511064     0.482654
    0.406670     0.469665     0.501675
    0.519844     0.594372     0.503110
    0.573535     0.436031     0.502240
EA85   20.279 20.573 14.732 90.00 90.00 90.00 Sym.group:    0
1.0000
   20.278783     0.000000     0.000000
    0.000000    20.573378     0.000000
    0.000000     0.000000    14.732309
   O  Cu
  12   24 
Direct
    0.678023     0.419434     0.428989
    0.477277     0.308218     0.428989
    0.307933     0.462038     0.428989
    0.404020     0.668320     0.428989
    0.632748     0.641990     0.428989
    0.608589     0.339297     0.571011
    0.688614     0.552136     0.571011
    0.507981     0.692925     0.571011
    0.316318     0.567099     0.571011
    0.378498     0.348544     0.571011
    0.391811     0.591073     0.500000
    0.554442     0.629563     0.500000
    0.641835     0.489002     0.500000
    0.533218     0.363640     0.500000
    0.378694     0.426723     0.500000
    0.551092     0.327441     0.436118
    0.349292     0.398781     0.436118
    0.355764     0.610002     0.436118
    0.561567     0.669204     0.436118
    0.682286     0.494572     0.436118
    0.680904     0.477265     0.563882
    0.577839     0.662561     0.563882
    0.367202     0.623203     0.563882
    0.340088     0.413583     0.563882
    0.533966     0.323387     0.563882
    0.481121     0.668231     0.513737
    0.656487     0.569684     0.513737
    0.615593     0.374836     0.513737
    0.414953     0.352960     0.513737
    0.331845     0.534288     0.513737
    0.328473     0.492051     0.486263
    0.454665     0.336749     0.486263
    0.643508     0.407054     0.486263
    0.634028     0.605808     0.486263
    0.439326     0.658339     0.486263
    0.500000     0.500000     0.500000
EA158  21.374 21.476 14.082 90.00 90.00 90.00 Sym.group:    0
1.0000
   21.374475     0.000000     0.000000
    0.000000    21.476390     0.000000
    0.000000     0.000000    14.081908
   O  Cu
  12   24 
Direct
    0.323953     0.384806     0.450532
    0.688261     0.405859     0.450532
    0.487788     0.709335     0.450532
    0.437203     0.700157     0.450532
    0.705566     0.454047     0.450532
    0.357231     0.345796     0.450532
    0.618932     0.399388     0.543629
    0.528082     0.652815     0.543629
    0.352986     0.447796     0.543629
    0.656065     0.502787     0.543629
    0.424393     0.364091     0.543629
    0.419542     0.633121     0.543629
    0.365790     0.653682     0.473035
    0.433377     0.307481     0.473035
    0.700832     0.538837     0.473035
    0.298317     0.465803     0.473035
    0.571084     0.690931     0.473035
    0.630597     0.343266     0.473035
    0.651306     0.446177     0.470957
    0.471182     0.657325     0.470957
    0.377512     0.396499     0.470957
    0.438629     0.557173     0.552926
    0.480936     0.418518     0.552926
    0.580434     0.524310     0.552926
    0.416121     0.494496     0.552926
    0.537150     0.575048     0.552926
    0.546728     0.430455     0.552926
    0.689274     0.586797     0.489804
    0.329836     0.619739     0.489803
    0.480890     0.293464     0.489804
    0.591112     0.313462     0.489803
    0.292128     0.514738     0.489804
    0.616760     0.671800     0.489803
    0.426245     0.437678     0.509191
    0.591108     0.467591     0.509191
    0.482647     0.594731     0.509191
EA144  21.221 19.847 18.796 90.00 90.00 90.00 Sym.group:    0
1.0000
   21.220814     0.000000     0.000000
    0.000000    19.847418     0.000000
    0.000000     0.000000    18.796420
   O  Cu
  12   24 
Direct
    0.331212     0.523028     0.458642
    0.443728     0.666949     0.454891
    0.373132     0.613553     0.534013
    0.339355     0.428282     0.534714
    0.293911     0.528022     0.466465
    0.699813     0.581589     0.464932
    0.713586     0.526128     0.462586
    0.628740     0.601462     0.539612
    0.513741     0.325314     0.530497
    0.659559     0.474895     0.535397
    0.537439     0.674555     0.528090
    0.597340     0.361483     0.530870
    0.443146     0.287716     0.489557
    0.395963     0.300130     0.498713
    0.318402     0.384439     0.500184
    0.332979     0.523201     0.535235
    0.445496     0.667122     0.531484
    0.535672     0.674382     0.451497
    0.371364     0.613381     0.457420
    0.438972     0.591353     0.493171
    0.389503     0.480038     0.494676
    0.380587     0.684828     0.495619
    0.285854     0.471659     0.498503
    0.468118     0.303838     0.452900
    0.698703     0.431307     0.485050
    0.554031     0.280512     0.477706
    0.642914     0.657998     0.492863
    0.658256     0.541156     0.476171
    0.483851     0.592082     0.538930
    0.578040     0.462758     0.536647
    0.527828     0.411264     0.535547
    0.551626     0.571580     0.539479
    0.686389     0.378951     0.490887
    0.607974     0.698045     0.501489
    0.603770     0.292429     0.483999
    0.469006     0.394571     0.501561
EA121  20.302 17.954 21.353 90.00 90.00 90.00 Sym.group:    0
1.0000
   20.301688     0.000000     0.000000
    0.000000    17.954027     0.000000
    0.000000     0.000000    21.353074
   O  Cu
  12   24 
Direct
    0.347083     0.300446     0.469918
    0.336060     0.429522     0.536188
    0.416756     0.322660     0.537847
    0.659076     0.411122     0.469603
    0.597590     0.324063     0.538011
    0.694159     0.391264     0.476483
    0.710897     0.500167     0.478106
    0.592691     0.702046     0.479006
    0.377599     0.698643     0.473563
    0.326285     0.649025     0.520738
    0.526517     0.726389     0.527223
    0.695496     0.572810     0.528515
    0.429060     0.257971     0.494634
    0.284513     0.449389     0.491662
    0.366919     0.363928     0.482205
    0.472991     0.395588     0.540933
    0.476878     0.238724     0.502780
    0.591629     0.268750     0.504951
    0.273511     0.508035     0.498599
    0.416120     0.416816     0.508299
    0.583749     0.407486     0.502702
    0.668978     0.331224     0.504813
    0.416983     0.290530     0.461406
    0.710354     0.498848     0.527473
    0.592148     0.700726     0.528374
    0.377057     0.697324     0.522930
    0.326827     0.650344     0.471370
    0.527059     0.727709     0.477855
    0.696038     0.574130     0.479147
    0.468560     0.630372     0.499236
    0.376390     0.542692     0.495256
    0.587704     0.583785     0.501326
    0.452867     0.708486     0.500336
    0.307076     0.569795     0.494040
    0.641327     0.634796     0.503641
    0.675054     0.524393     0.470832
EA140  20.090 19.598 18.378 90.00 90.00 90.00 Sym.group:    0
1.0000
   20.090000     0.000000     0.000000
    0.000000    19.598412     0.000000
    0.000000     0.000000    18.378049
   O  Cu
  12   24 
Direct
    0.636207     0.584969     0.551565
    0.640111     0.406782     0.538220
    0.598147     0.381822     0.435648
    0.365744     0.633217     0.453628
    0.532440     0.674334     0.459014
    0.647402     0.542992     0.449604
    0.389730     0.407009     0.514331
    0.529857     0.341131     0.461304
    0.569533     0.400925     0.520208
    0.308807     0.473191     0.535253
    0.371356     0.637978     0.543267
    0.318657     0.566214     0.459897
    0.630840     0.589921     0.451336
    0.484458     0.678222     0.457778
    0.631422     0.417118     0.438094
    0.534895     0.663856     0.558907
    0.652836     0.537989     0.549572
    0.624785     0.557627     0.499115
    0.508366     0.652157     0.508106
    0.605568     0.407378     0.485540
    0.688789     0.580815     0.504362
    0.512385     0.722962     0.508507
    0.655216     0.357011     0.490037
    0.453351     0.397507     0.459289
    0.560575     0.330860     0.561659
    0.356361     0.402597     0.460209
    0.382867     0.304854     0.496087
    0.535194     0.398056     0.481650
    0.451510     0.420952     0.591924
    0.310067     0.478412     0.456721
    0.347086     0.389898     0.534294
    0.317397     0.560992     0.538429
    0.368126     0.515982     0.499862
    0.264145     0.523095     0.495489
    0.609073     0.689844     0.516055
    0.606697     0.371331     0.535041
EA118  19.714 16.817 19.962 90.00 90.00 90.00 Sym.group:    0
1.0000
   19.713765     0.000000     0.000000
    0.000000    16.817269     0.000000
    0.000000     0.000000    19.962404
   O  Cu
  12   24 
Direct
    0.549475     0.325160     0.466200
    0.649169     0.477658     0.473349
    0.629740     0.613487     0.552831
    0.639641     0.423823     0.558883
    0.369709     0.395880     0.546631
    0.325808     0.387531     0.527954
    0.303887     0.440799     0.525561
    0.399469     0.377393     0.465388
    0.349474     0.498879     0.459932
    0.365515     0.610329     0.541709
    0.562819     0.671227     0.448098
    0.670946     0.525466     0.455088
    0.550874     0.329816     0.551853
    0.654794     0.476351     0.559126
    0.600344     0.653040     0.551244
    0.634015     0.425126     0.473145
    0.505982     0.311968     0.464131
    0.525128     0.341255     0.508389
    0.628527     0.456970     0.514541
    0.537512     0.265096     0.506923
    0.687901     0.433536     0.520459
    0.650618     0.674991     0.508051
    0.303573     0.537262     0.499311
    0.359190     0.434147     0.514364
    0.424773     0.523652     0.456494
    0.535209     0.409452     0.461353
    0.467719     0.419293     0.461182
    0.307209     0.591313     0.489984
    0.418074     0.460149     0.489165
    0.655586     0.576601     0.452652
    0.397130     0.649015     0.539895
    0.534881     0.659900     0.494045
    0.395902     0.613504     0.496151
    0.548247     0.733766     0.490549
    0.344639     0.665794     0.493635
    0.516520     0.610371     0.481736
EA69   19.892 19.109 21.073 90.00 90.00 90.00 Sym.group:    0
1.0000
   19.892487     0.000000     0.000000
    0.000000    19.108781     0.000000
    0.000000     0.000000    21.072700
   O  Cu
  12   24 
Direct
    0.658667     0.695709     0.467630
    0.696119     0.654629     0.468898
    0.311515     0.602907     0.474320
    0.585628     0.675688     0.533493
    0.385509     0.622190     0.537349
    0.713607     0.472204     0.456619
    0.582691     0.317465     0.462004
    0.384881     0.358915     0.459637
    0.317986     0.555103     0.451885
    0.667504     0.377763     0.533617
    0.325820     0.454487     0.529334
    0.476791     0.315123     0.535251
    0.372001     0.678369     0.493189
    0.726117     0.564300     0.494493
    0.573107     0.732130     0.489313
    0.640341     0.638297     0.481608
    0.352409     0.561325     0.487157
    0.462350     0.589823     0.539944
    0.604790     0.527800     0.541097
    0.431738     0.481539     0.544431
    0.584459     0.455887     0.544077
    0.531412     0.608285     0.538613
    0.408957     0.717505     0.498311
    0.416812     0.543290     0.511669
    0.591279     0.589930     0.508308
    0.583428     0.320939     0.535452
    0.385617     0.362388     0.533085
    0.666767     0.374289     0.460169
    0.325084     0.451013     0.455885
    0.476055     0.311649     0.461803
    0.589835     0.401925     0.495598
    0.458458     0.394760     0.495350
    0.384788     0.508225     0.490728
    0.657245     0.298102     0.499828
    0.405656     0.284380     0.499353
    0.264576     0.501668     0.490501
EA132  18.340 20.207 21.502 90.00 90.00 90.00 Sym.group:    0
1.0000
   18.339978     0.000000     0.000000
    0.000000    20.206729     0.000000
    0.000000     0.000000    21.502364
   O  Cu
  12   24 
Direct
    0.475759     0.316338     0.459248
    0.669682     0.388593     0.457316
    0.703633     0.574884     0.458930
    0.714459     0.478817     0.528085
    0.585159     0.327956     0.528218
    0.384785     0.369326     0.540584
    0.649894     0.660129     0.475806
    0.418522     0.695953     0.479294
    0.275733     0.532508     0.471238
    0.355879     0.660559     0.527554
    0.585313     0.692606     0.527812
    0.278634     0.462649     0.517172
    0.669652     0.386280     0.527678
    0.703602     0.572571     0.529293
    0.714489     0.481130     0.457722
    0.380410     0.351767     0.460996
    0.644512     0.518635     0.494329
    0.589310     0.404629     0.493828
    0.767875     0.534339     0.492759
    0.662163     0.316016     0.491799
    0.378950     0.312857     0.498208
    0.464548     0.416187     0.542496
    0.612033     0.504936     0.542340
    0.544212     0.413239     0.541966
    0.426546     0.283631     0.504595
    0.419485     0.693965     0.528974
    0.276696     0.530520     0.520919
    0.354916     0.662547     0.477873
    0.584350     0.694594     0.478132
    0.277670     0.464636     0.467492
    0.504069     0.618900     0.499392
    0.388600     0.558256     0.496813
    0.392118     0.435045     0.490011
    0.502023     0.690582     0.503349
    0.319378     0.594656     0.499269
    0.324941     0.399763     0.488511
EA123  19.573 18.225 20.784 90.00 90.00 90.00 Sym.group:    0
1.0000
   19.572960     0.000000     0.000000
    0.000000    18.225043     0.000000
    0.000000     0.000000    20.784144
   O  Cu
  12   24 
Direct
    0.716864     0.502024     0.524638
    0.663695     0.621789     0.518284
    0.520580     0.358951     0.494162
    0.656955     0.450301     0.523796
    0.685771     0.380952     0.521771
    0.460480     0.387091     0.488242
    0.445202     0.675412     0.451346
    0.341625     0.533326     0.463062
    0.534356     0.338920     0.546387
    0.378878     0.410859     0.554367
    0.361110     0.588293     0.549579
    0.498820     0.693789     0.536813
    0.659534     0.617170     0.459225
    0.663676     0.538808     0.494432
    0.599868     0.549573     0.470397
    0.603732     0.553861     0.525234
    0.568096     0.412476     0.537081
    0.674227     0.474372     0.428096
    0.393860     0.356972     0.452655
    0.603056     0.289841     0.505899
    0.469272     0.310178     0.486921
    0.610999     0.490377     0.507780
    0.536772     0.426831     0.417264
    0.422564     0.508642     0.418040
    0.620164     0.658440     0.529885
    0.451413     0.680952     0.540417
    0.347836     0.538866     0.552132
    0.413011     0.374269     0.553315
    0.372667     0.405319     0.465296
    0.354899     0.582753     0.460509
    0.476595     0.665694     0.494410
    0.369291     0.555589     0.505297
    0.406178     0.403480     0.507952
    0.459442     0.736430     0.493175
    0.302236     0.575123     0.509126
    0.356277     0.352276     0.513016
EA138  21.413 19.142 19.276 90.00 90.00 90.00 Sym.group:    0
1.0000
   21.412837     0.000000     0.000000
    0.000000    19.142439     0.000000
    0.000000     0.000000    19.276382
   O  Cu
  12   24 
Direct
    0.498680     0.703341     0.458146
    0.651677     0.597946     0.462379
    0.409482     0.679845     0.530761
    0.672214     0.493174     0.537865
    0.587853     0.670699     0.539003
    0.682827     0.386503     0.472312
    0.305303     0.379569     0.461829
    0.284412     0.433934     0.462056
    0.650882     0.338428     0.470725
    0.375991     0.372214     0.537014
    0.328344     0.496207     0.537532
    0.575204     0.348499     0.542142
    0.340848     0.607713     0.525390
    0.496904     0.702137     0.535579
    0.649900     0.596743     0.539812
    0.411259     0.681049     0.453328
    0.673991     0.494378     0.460431
    0.589629     0.671903     0.461570
    0.467240     0.630518     0.493305
    0.579290     0.591786     0.497523
    0.606781     0.464190     0.495124
    0.442085     0.747272     0.495500
    0.656662     0.673101     0.503578
    0.709309     0.428751     0.498984
    0.570892     0.287940     0.493215
    0.285348     0.533874     0.488989
    0.370697     0.311774     0.488062
    0.340002     0.428859     0.476692
    0.626629     0.394737     0.484070
    0.515616     0.409332     0.543694
    0.446867     0.417517     0.541924
    0.290147     0.589902     0.497885
    0.524480     0.263819     0.499522
    0.410225     0.277422     0.496581
    0.573003     0.437123     0.510974
    0.399326     0.457801     0.506504
EA125  21.012 16.358 21.267 90.00 90.00 90.00 Sym.group:    0
1.0000
   21.011517     0.000000     0.000000
    0.000000    16.358143     0.000000
    0.000000     0.000000    21.267359
   O  Cu
  12   24 
Direct
    0.488122     0.761648     0.534023
    0.452673     0.247352     0.526887
    0.423011     0.754076     0.532352
    0.355745     0.339524     0.524254
    0.337866     0.640475     0.468317
    0.509863     0.312253     0.520389
    0.602921     0.643096     0.523470
    0.565863     0.260936     0.516144
    0.498309     0.781324     0.461703
    0.677047     0.391474     0.453994
    0.636351     0.326325     0.508230
    0.562919     0.766945     0.512705
    0.355499     0.339249     0.465068
    0.266274     0.537417     0.469413
    0.273101     0.424646     0.519198
    0.266486     0.537653     0.520417
    0.272888     0.424411     0.468196
    0.406565     0.676151     0.500006
    0.427402     0.320170     0.496168
    0.427791     0.401418     0.469696
    0.416640     0.596120     0.526747
    0.428021     0.401673     0.524650
    0.416409     0.595865     0.471793
    0.561397     0.417857     0.527250
    0.506164     0.647149     0.526853
    0.651765     0.473226     0.529666
    0.636124     0.534541     0.565001
    0.481536     0.377701     0.504311
    0.675899     0.650111     0.508437
    0.677225     0.390503     0.507182
    0.636173     0.327296     0.455041
    0.699280     0.573497     0.454110
    0.562741     0.767916     0.459517
    0.616692     0.496889     0.483074
    0.542492     0.380384     0.484976
    0.684742     0.482730     0.480765
EA137  19.171 20.594 19.946 90.00 90.00 90.00 Sym.group:    0
1.0000
   19.170855     0.000000     0.000000
    0.000000    20.594185     0.000000
    0.000000     0.000000    19.946194
   O  Cu
  12   24 
Direct
    0.248073     0.481155     0.489322
    0.507398     0.279733     0.485830
    0.281438     0.383808     0.511149
    0.611046     0.310170     0.515912
    0.414233     0.412267     0.485141
    0.391915     0.566948     0.492372
    0.732352     0.475453     0.536230
    0.403645     0.710911     0.527921
    0.733352     0.530281     0.540635
    0.473299     0.674415     0.460744
    0.660958     0.442922     0.460880
    0.662302     0.568124     0.469312
    0.452269     0.392481     0.520960
    0.370569     0.529334     0.525763
    0.333722     0.374711     0.478647
    0.350912     0.641289     0.492539
    0.466876     0.310214     0.519713
    0.281187     0.515888     0.525314
    0.393981     0.555992     0.443067
    0.584086     0.447132     0.442464
    0.430079     0.414231     0.436843
    0.379950     0.534943     0.575093
    0.442210     0.401036     0.569938
    0.548945     0.323753     0.502060
    0.296039     0.441873     0.501514
    0.693999     0.616104     0.519850
    0.690666     0.391971     0.504352
    0.502815     0.720644     0.507421
    0.405068     0.653661     0.515047
    0.678546     0.504013     0.522997
    0.573640     0.560713     0.461181
    0.508425     0.597359     0.459128
    0.667694     0.662248     0.513455
    0.558385     0.721709     0.502222
    0.663174     0.346989     0.492207
    0.606752     0.505526     0.492778
EA45   21.993 21.993 15.350 90.00 90.00 90.00 Sym.group:    0
1.0000
   21.993113     0.000000     0.000000
    0.000000    21.993113     0.000000
    0.000000     0.000000    15.349794
   O  Cu
  12   24 
Direct
    0.707248     0.547589     0.517118
    0.452411     0.707248     0.517118
    0.292752     0.452411     0.517118
    0.547589     0.292752     0.517118
    0.550131     0.706648     0.482882
    0.706648     0.449869     0.482882
    0.449869     0.293352     0.482882
    0.293352     0.550131     0.482882
    0.412597     0.560590     0.523705
    0.439410     0.412597     0.523705
    0.587403     0.439410     0.523705
    0.560590     0.587403     0.523705
    0.559512     0.411860     0.476295
    0.411860     0.440488     0.476295
    0.440488     0.588140     0.476295
    0.588140     0.559512     0.476295
    0.333363     0.573399     0.527050
    0.426601     0.333363     0.527050
    0.666637     0.426601     0.527050
    0.573399     0.666637     0.527050
    0.571347     0.332473     0.472950
    0.332473     0.428653     0.472950
    0.428653     0.667527     0.472950
    0.667527     0.571347     0.472950
    0.564249     0.575603     0.588268
    0.424397     0.564249     0.588268
    0.435751     0.424397     0.588268
    0.575603     0.435751     0.588268
    0.576387     0.563315     0.411732
    0.563315     0.423613     0.411732
    0.423613     0.436685     0.411732
    0.436685     0.576387     0.411732
    0.498909     0.322260     0.500000
    0.677740     0.498909     0.500000
    0.501091     0.677740     0.500000
    0.322260     0.501091     0.500000
EA67   17.058 21.675 21.336 90.00 90.00 90.00 Sym.group:    0
1.0000
   17.057573     0.000000     0.000000
    0.000000    21.674540     0.000000
    0.000000     0.000000    21.335695
   O  Cu
  12   24 
Direct
    0.767450     0.494228     0.468766
    0.754525     0.442606     0.470004
    0.697011     0.541367     0.533382
    0.667532     0.423631     0.536205
    0.372223     0.363982     0.464516
    0.280690     0.525139     0.461604
    0.414469     0.667200     0.457239
    0.324636     0.613784     0.529410
    0.297078     0.439008     0.533631
    0.478107     0.332951     0.534534
    0.533224     0.682504     0.526092
    0.345504     0.331956     0.471352
    0.554535     0.713024     0.485498
    0.689709     0.370642     0.494465
    0.742512     0.581536     0.489408
    0.700749     0.478258     0.480801
    0.571324     0.447568     0.537346
    0.596646     0.548705     0.534921
    0.616342     0.704360     0.493071
    0.649333     0.332604     0.502417
    0.514102     0.296021     0.502863
    0.723624     0.629317     0.495302
    0.621175     0.491481     0.505183
    0.371886     0.365666     0.534678
    0.280354     0.526823     0.531766
    0.414133     0.668884     0.527401
    0.324973     0.612101     0.459248
    0.297414     0.437324     0.463469
    0.359114     0.490106     0.496845
    0.413669     0.597242     0.493942
    0.451278     0.399748     0.498135
    0.224861     0.474751     0.498321
    0.329335     0.679921     0.492762
    0.401359     0.301716     0.500792
    0.687032     0.399987     0.461055
    0.532094     0.593859     0.533578
EA115  20.079 18.708 20.034 90.00 90.00 90.00 Sym.group:    0
1.0000
   20.078549     0.000000     0.000000
    0.000000    18.708432     0.000000
    0.000000     0.000000    20.033622
   O  Cu
  12   24 
Direct
    0.664571     0.429563     0.528971
    0.605014     0.356971     0.453014
    0.572912     0.705619     0.467254
    0.682719     0.537857     0.457381
    0.363326     0.622741     0.410588
    0.301615     0.473185     0.457315
    0.461781     0.297841     0.443657
    0.570213     0.305365     0.543758
    0.348383     0.363639     0.553311
    0.331677     0.609414     0.566273
    0.357073     0.532411     0.510141
    0.425497     0.369498     0.499843
    0.665755     0.432916     0.453948
    0.649858     0.634373     0.462090
    0.681534     0.534504     0.532404
    0.589416     0.435282     0.494037
    0.610316     0.564568     0.498267
    0.676159     0.354964     0.488216
    0.716184     0.602553     0.496317
    0.425042     0.681899     0.444332
    0.592820     0.664921     0.567277
    0.470524     0.677851     0.479155
    0.472351     0.675305     0.531260
    0.318725     0.552599     0.466001
    0.396976     0.339425     0.452861
    0.624854     0.362180     0.539847
    0.414885     0.325275     0.544220
    0.317925     0.529263     0.557450
    0.350431     0.404981     0.513832
    0.535490     0.322917     0.504166
    0.365977     0.620426     0.524297
    0.492529     0.318764     0.485319
    0.332261     0.447894     0.496635
    0.657663     0.588977     0.550374
    0.396898     0.652545     0.505092
    0.560645     0.671514     0.521098
EA135  21.546 15.767 21.218 90.00 90.00 90.00 Sym.group:    0
1.0000
   21.545626     0.000000     0.000000
    0.000000    15.767304     0.000000
    0.000000     0.000000    21.217629
   O  Cu
  12   24 
Direct
    0.692438     0.388845     0.467790
    0.707889     0.456854     0.472314
    0.623528     0.363713     0.531746
    0.658768     0.518824     0.542064
    0.370950     0.366695     0.461847
    0.445756     0.281165     0.523814
    0.321384     0.646622     0.472513
    0.670137     0.716656     0.462856
    0.301231     0.579072     0.471239
    0.398310     0.652172     0.536852
    0.352343     0.498109     0.533946
    0.599353     0.692544     0.531285
    0.445225     0.237273     0.481362
    0.697990     0.573948     0.502929
    0.634867     0.296108     0.484447
    0.654766     0.441345     0.483257
    0.551836     0.406797     0.537039
    0.491467     0.214949     0.486706
    0.599699     0.248529     0.488466
    0.594854     0.464722     0.509838
    0.371155     0.358897     0.530782
    0.403871     0.447229     0.501734
    0.307686     0.392599     0.499644
    0.681817     0.543258     0.468603
    0.486712     0.386592     0.535979
    0.332431     0.489297     0.451696
    0.590270     0.771093     0.490248
    0.305896     0.454556     0.490637
    0.388236     0.730524     0.495842
    0.358359     0.587111     0.481554
    0.540353     0.614647     0.533101
    0.431486     0.468369     0.532526
    0.543505     0.797061     0.499788
    0.428201     0.773906     0.502980
    0.420980     0.552361     0.503714
    0.596251     0.587558     0.498861
EA70   21.128 21.740 16.754 90.00 90.00 90.00 Sym.group:    0
1.0000
   21.127721     0.000000     0.000000
    0.000000    21.740352     0.000000
    0.000000     0.000000    16.753748
   O  Cu
  12   24 
Direct
    0.418499     0.645838     0.448065
    0.599872     0.640038     0.445832
    0.685679     0.484292     0.440036
    0.665494     0.569080     0.533628
    0.512597     0.664449     0.538313
    0.284511     0.490802     0.463185
    0.565307     0.286368     0.454974
    0.291042     0.542546     0.465140
    0.621207     0.377390     0.541081
    0.346525     0.448508     0.544220
    0.361420     0.566524     0.548677
    0.508393     0.330661     0.539486
    0.599978     0.638003     0.536505
    0.685784     0.482257     0.530709
    0.657201     0.394725     0.437584
    0.665388     0.571115     0.442955
    0.351409     0.585462     0.446955
    0.620157     0.514512     0.487083
    0.585074     0.404164     0.484062
    0.539441     0.599424     0.490627
    0.726116     0.537786     0.486603
    0.571545     0.700395     0.493390
    0.474542     0.287683     0.483859
    0.338555     0.617508     0.496600
    0.311875     0.406112     0.488615
    0.337646     0.510601     0.478721
    0.484453     0.406670     0.544998
    0.441387     0.548718     0.550461
    0.589859     0.514137     0.548911
    0.581362     0.446810     0.546368
    0.505745     0.575375     0.551371
    0.423842     0.292492     0.493077
    0.368542     0.657502     0.507026
    0.331006     0.360081     0.495791
    0.403713     0.502356     0.509610
    0.544832     0.399615     0.505483
EA153  22.054 21.635 14.703 90.00 90.00 90.00 Sym.group:    0
1.0000
   22.054180     0.000000     0.000000
    0.000000    21.634934     0.000000
    0.000000     0.000000    14.703318
   O  Cu
  12   24 
Direct
    0.587820     0.646896     0.439576
    0.405759     0.642048     0.441462
    0.318759     0.488237     0.426730
    0.342917     0.573951     0.536390
    0.492100     0.665595     0.551264
    0.708159     0.484424     0.454335
    0.430299     0.286864     0.448592
    0.704099     0.536626     0.455394
    0.380267     0.380158     0.542699
    0.644347     0.445156     0.549975
    0.634665     0.561639     0.554318
    0.488482     0.330395     0.548668
    0.407639     0.641440     0.544711
    0.320950     0.487254     0.529998
    0.343272     0.397413     0.423203
    0.340719     0.574897     0.433133
    0.649122     0.583076     0.436634
    0.383577     0.517321     0.484220
    0.413920     0.405513     0.480251
    0.463498     0.600280     0.493774
    0.282760     0.543649     0.479089
    0.435652     0.702637     0.498724
    0.518389     0.287203     0.488143
    0.660983     0.613239     0.490457
    0.678507     0.400708     0.482815
    0.657429     0.506358     0.476080
    0.512404     0.406530     0.556188
    0.557211     0.547618     0.563267
    0.414144     0.516758     0.556100
    0.420425     0.448877     0.552318
    0.496325     0.576131     0.563532
    0.567314     0.291059     0.501464
    0.633729     0.654468     0.502211
    0.658785     0.355060     0.490919
    0.592585     0.500363     0.516525
    0.452988     0.400156     0.506840
EA16   18.465 18.647 16.011 90.00 90.00 90.00 Sym.group:    0
1.0000
   18.465134     0.000000     0.000000
    0.000000    18.646880     0.000000
    0.000000     0.000000    16.011278
   O  Cu
  12   24 
Direct
    0.607186     0.385374     0.605278
    0.453348     0.350766     0.605278
    0.346161     0.465391     0.605278
    0.392814     0.614626     0.605278
    0.546652     0.649234     0.605278
    0.653839     0.534609     0.605278
    0.607186     0.385374     0.394722
    0.453348     0.350766     0.394722
    0.346161     0.465391     0.394722
    0.392814     0.614626     0.394722
    0.546652     0.649234     0.394722
    0.653839     0.534609     0.394722
    0.617985     0.610984     0.569822
    0.656053     0.454310     0.569822
    0.538068     0.343327     0.569822
    0.382015     0.389016     0.569822
    0.343947     0.545690     0.569822
    0.461932     0.656673     0.569822
    0.617985     0.610984     0.430178
    0.656053     0.454310     0.430178
    0.538068     0.343327     0.430178
    0.382015     0.389016     0.430178
    0.343947     0.545690     0.430178
    0.461932     0.656673     0.430178
    0.371157     0.431248     0.530255
    0.375451     0.576119     0.530255
    0.504295     0.644870     0.530255
    0.628843     0.568752     0.530255
    0.624549     0.423881     0.530255
    0.495705     0.355130     0.530255
    0.371157     0.431248     0.469745
    0.375451     0.576119     0.469745
    0.504295     0.644870     0.469745
    0.628843     0.568752     0.469745
    0.624549     0.423881     0.469745
    0.495705     0.355130     0.469745
EA130  21.669 17.644 20.457 90.00 90.00 90.00 Sym.group:    0
1.0000
   21.668961     0.000000     0.000000
    0.000000    17.644258     0.000000
    0.000000     0.000000    20.456525
   O  Cu
  12   24 
Direct
    0.314445     0.463447     0.461509
    0.441557     0.304719     0.461114
    0.615811     0.356552     0.453700
    0.538630     0.305622     0.532328
    0.363991     0.364370     0.536936
    0.315373     0.576829     0.533216
    0.337204     0.690206     0.474144
    0.690437     0.600442     0.463705
    0.698826     0.538018     0.468754
    0.624594     0.624691     0.531022
    0.442526     0.702819     0.535883
    0.645064     0.482563     0.539951
    0.315759     0.466248     0.536023
    0.442871     0.307520     0.535628
    0.617125     0.359353     0.528214
    0.537317     0.302821     0.457814
    0.362678     0.361568     0.462421
    0.314060     0.574028     0.458702
    0.430801     0.393505     0.496541
    0.548778     0.391166     0.492476
    0.371380     0.519019     0.495417
    0.377223     0.280795     0.501289
    0.603150     0.276317     0.493504
    0.263429     0.521159     0.499137
    0.677824     0.433176     0.498959
    0.459989     0.764426     0.489431
    0.642488     0.688050     0.482342
    0.387680     0.667121     0.484106
    0.647862     0.558056     0.479724
    0.566949     0.474590     0.542779
    0.486519     0.623580     0.538036
    0.549219     0.596682     0.536888
    0.507724     0.777775     0.493891
    0.662143     0.375763     0.509915
    0.612197     0.734302     0.487424
    0.586380     0.542703     0.507076
EA66   20.093 21.230 18.961 90.00 90.00 90.00 Sym.group:    0
1.0000
   20.093250     0.000000     0.000000
    0.000000    21.230222     0.000000
    0.000000     0.000000    18.960919
   O  Cu
  12   24 
Direct
    0.684847     0.581696     0.543204
    0.299202     0.423136     0.541084
    0.647384     0.634450     0.467434
    0.647069     0.636302     0.540994
    0.317003     0.542560     0.536309
    0.524096     0.667510     0.466036
    0.534655     0.358769     0.482824
    0.374158     0.396394     0.532835
    0.657189     0.436357     0.532757
    0.365319     0.327926     0.528728
    0.723832     0.462731     0.525959
    0.586106     0.401134     0.472986
    0.317303     0.540791     0.466089
    0.523796     0.669278     0.536256
    0.414725     0.692720     0.468288
    0.336887     0.646704     0.528820
    0.414466     0.694244     0.528800
    0.337146     0.645180     0.468309
    0.583457     0.621054     0.503523
    0.339075     0.471301     0.503587
    0.397696     0.500070     0.471150
    0.530907     0.583511     0.536315
    0.397418     0.501712     0.536350
    0.531185     0.581870     0.471116
    0.475294     0.390075     0.539892
    0.611943     0.523335     0.536239
    0.341417     0.413599     0.422557
    0.658426     0.395629     0.424458
    0.559831     0.330827     0.542506
    0.595569     0.368360     0.583575
    0.473244     0.274237     0.498899
    0.718305     0.577011     0.490326
    0.599577     0.332109     0.467821
    0.407083     0.445006     0.512788
    0.491903     0.413817     0.397064
    0.582486     0.518595     0.394121
EA79   19.538 19.474 20.319 90.00 90.00 90.00 Sym.group:    0
1.0000
   19.537732     0.000000     0.000000
    0.000000    19.474309     0.000000
    0.000000     0.000000    20.318936
   O  Cu
  12   24 
Direct
    0.647320     0.597271     0.533842
    0.661439     0.409753     0.532641
    0.683325     0.500474     0.460654
    0.576697     0.657872     0.461183
    0.402925     0.322525     0.458030
    0.596439     0.332801     0.459077
    0.452859     0.651507     0.401924
    0.338418     0.538904     0.400862
    0.602493     0.602974     0.585036
    0.452204     0.649725     0.577947
    0.337763     0.537122     0.576885
    0.373609     0.377769     0.582913
    0.650184     0.595142     0.461129
    0.664304     0.407624     0.459928
    0.503930     0.302682     0.458405
    0.680461     0.502602     0.533367
    0.593574     0.334929     0.531790
    0.571988     0.583447     0.497011
    0.612818     0.466816     0.496426
    0.529209     0.374632     0.495378
    0.648491     0.667797     0.497970
    0.726683     0.444446     0.496849
    0.566568     0.267912     0.494842
    0.330478     0.454732     0.432659
    0.379255     0.616067     0.429795
    0.330044     0.453550     0.549400
    0.439385     0.329337     0.557198
    0.536938     0.652007     0.551469
    0.378821     0.614885     0.546536
    0.494367     0.643405     0.466450
    0.365391     0.572285     0.463621
    0.359496     0.420400     0.467841
    0.494179     0.642893     0.517036
    0.365203     0.571772     0.514207
    0.359308     0.419888     0.518427
    0.293432     0.482052     0.531272
EA18   21.460 20.547 15.444 90.00 90.00 90.00 Sym.group:    0
1.0000
   21.459832     0.000000     0.000000
    0.000000    20.547168     0.000000
    0.000000     0.000000    15.444149
   O  Cu
  12   24 
Direct
    0.451488     0.666827     0.601274
    0.662589     0.460465     0.601274
    0.385923     0.372708     0.601274
    0.495771     0.606167     0.519588
    0.590148     0.450741     0.519588
    0.414081     0.443092     0.519588
    0.556897     0.676130     0.526223
    0.617598     0.360472     0.526223
    0.325505     0.463398     0.526223
    0.336995     0.365274     0.500432
    0.469788     0.714800     0.500432
    0.693217     0.419927     0.500432
    0.582960     0.561331     0.419707
    0.509375     0.394298     0.419707
    0.407665     0.544372     0.419707
    0.430414     0.340970     0.569499
    0.402926     0.642455     0.569499
    0.666660     0.516575     0.569499
    0.417697     0.361271     0.480837
    0.426119     0.643807     0.480837
    0.656185     0.494921     0.480837
    0.384574     0.398123     0.469996
    0.473238     0.655340     0.469996
    0.642188     0.446537     0.469996
    0.463329     0.344970     0.507768
    0.389784     0.610683     0.507768
    0.646885     0.544348     0.507768
    0.676627     0.608410     0.511099
    0.501580     0.286038     0.511099
    0.321794     0.605553     0.511099
    0.445738     0.644656     0.425909
    0.647079     0.476751     0.425909
    0.407183     0.378593     0.425909
    0.573249     0.439416     0.467669
    0.413140     0.464039     0.467669
    0.513611     0.596545     0.467669
EA22   22.399 22.399 16.084 90.00 90.00 90.00 Sym.group:    0
1.0000
   22.399471     0.000000     0.000000
    0.000000    22.399471     0.000000
    0.000000     0.000000    16.084026
   O  Cu
  12   24 
Direct
    0.557054     0.385939     0.392936
    0.614061     0.557054     0.392936
    0.442946     0.614061     0.392936
    0.385939     0.442946     0.392936
    0.606592     0.429976     0.607064
    0.429976     0.393408     0.607064
    0.393408     0.570024     0.607064
    0.570024     0.606592     0.607064
    0.557054     0.385939     0.607064
    0.614061     0.557054     0.607064
    0.442946     0.614061     0.607064
    0.385939     0.442946     0.607064
    0.606592     0.429976     0.392936
    0.429976     0.393408     0.392936
    0.393408     0.570024     0.392936
    0.570024     0.606592     0.392936
    0.381567     0.459444     0.532802
    0.540556     0.381567     0.532802
    0.618433     0.540556     0.532802
    0.459444     0.618433     0.532802
    0.554152     0.612866     0.467198
    0.612866     0.445848     0.467198
    0.445848     0.387134     0.467198
    0.387134     0.554152     0.467198
    0.381567     0.459444     0.467198
    0.540556     0.381567     0.467198
    0.618433     0.540556     0.467198
    0.459444     0.618433     0.467198
    0.554152     0.612866     0.532802
    0.612866     0.445848     0.532802
    0.445848     0.387134     0.532802
    0.387134     0.554152     0.532802
    0.256856     0.514292     0.500000
    0.485708     0.256856     0.500000
    0.743144     0.485708     0.500000
    0.514292     0.743144     0.500000
EA152  21.304 21.680 16.067 90.00 90.00 90.00 Sym.group:    0
1.0000
   21.303835     0.000000     0.000000
    0.000000    21.679966     0.000000
    0.000000     0.000000    16.067384
   O  Cu
  12   24 
Direct
    0.643570     0.543443     0.475969
    0.493536     0.367237     0.476919
    0.536008     0.650446     0.531244
    0.646347     0.408399     0.536979
    0.588056     0.693227     0.524714
    0.658770     0.342247     0.528145
    0.634009     0.481025     0.468711
    0.387558     0.364772     0.462968
    0.438606     0.657887     0.447696
    0.324175     0.526759     0.455454
    0.331516     0.432774     0.560104
    0.362218     0.606925     0.545727
    0.549910     0.400397     0.542515
    0.595263     0.575242     0.534340
    0.671977     0.424772     0.413770
    0.688748     0.538336     0.546973
    0.471539     0.340772     0.543092
    0.680754     0.490964     0.595487
    0.685859     0.635278     0.493360
    0.556876     0.287155     0.488460
    0.697783     0.506395     0.465544
    0.612111     0.454964     0.514619
    0.527859     0.421961     0.382161
    0.383847     0.362703     0.559046
    0.436778     0.664231     0.543746
    0.325405     0.525596     0.551774
    0.472159     0.327223     0.451643
    0.334982     0.435050     0.463778
    0.360414     0.606981     0.449690
    0.526515     0.667795     0.439326
    0.486896     0.611704     0.487200
    0.392981     0.544960     0.499037
    0.403780     0.431871     0.503135
    0.476367     0.715459     0.496234
    0.297658     0.586565     0.500832
    0.319169     0.368485     0.519607
EA72   17.784 22.040 22.129 90.00 90.00 90.00 Sym.group:    0
1.0000
   17.784046     0.000000     0.000000
    0.000000    22.039902     0.000000
    0.000000     0.000000    22.129125
   O  Cu
  12   24 
Direct
    0.568348     0.598489     0.558331
    0.638192     0.429598     0.561990
    0.436054     0.375188     0.558776
    0.366211     0.544079     0.555117
    0.283797     0.552863     0.514613
    0.473232     0.669235     0.514718
    0.364128     0.631205     0.439997
    0.269053     0.458658     0.443448
    0.600644     0.656656     0.443808
    0.742085     0.509561     0.451071
    0.692763     0.601438     0.521063
    0.647011     0.337014     0.454522
    0.627664     0.554684     0.560086
    0.417772     0.592383     0.555470
    0.376738     0.418993     0.557021
    0.586629     0.381294     0.561637
    0.646094     0.442845     0.464614
    0.458608     0.367785     0.461966
    0.569452     0.373715     0.509716
    0.636872     0.537448     0.508811
    0.370648     0.433107     0.505022
    0.644717     0.444224     0.510230
    0.457231     0.369164     0.507583
    0.570829     0.372336     0.464099
    0.792553     0.496273     0.489584
    0.524593     0.245254     0.487751
    0.316134     0.367738     0.447154
    0.695005     0.600482     0.447365
    0.361886     0.632161     0.513694
    0.266812     0.459615     0.517146
    0.598402     0.657613     0.517506
    0.350239     0.498906     0.480674
    0.446444     0.596603     0.479543
    0.600653     0.582284     0.482977
    0.209134     0.512009     0.477532
    0.393369     0.699099     0.475365
EA77   17.219 20.981 21.458 90.00 90.00 90.00 Sym.group:    0
1.0000
   17.218694     0.000000     0.000000
    0.000000    20.980820     0.000000
    0.000000     0.000000    21.457720
   O  Cu
  12   24 
Direct
    0.673701     0.440328     0.482775
    0.510553     0.637637     0.484078
    0.522525     0.341233     0.525591
    0.693824     0.579202     0.527688
    0.581830     0.292393     0.520026
    0.717174     0.645902     0.522970
    0.670058     0.505544     0.475923
    0.379284     0.652695     0.469014
    0.398475     0.339937     0.459250
    0.280928     0.492741     0.468130
    0.305692     0.585614     0.541918
    0.313733     0.404960     0.536394
    0.576444     0.598740     0.533102
    0.604260     0.413345     0.531699
    0.724888     0.557993     0.435032
    0.724491     0.440376     0.532402
    0.488547     0.668559     0.533841
    0.718209     0.489346     0.568329
    0.711265     0.341384     0.493586
    0.599518     0.713326     0.496321
    0.746363     0.473199     0.469524
    0.645067     0.535375     0.511535
    0.547049     0.577576     0.412878
    0.379259     0.652084     0.541043
    0.398450     0.339324     0.531279
    0.280904     0.492128     0.540159
    0.488789     0.680546     0.465658
    0.305717     0.586227     0.469889
    0.313758     0.405573     0.464365
    0.504872     0.319239     0.454609
    0.466279     0.384411     0.493981
    0.361908     0.465275     0.500283
    0.392447     0.580449     0.502450
    0.438336     0.279023     0.491999
    0.238462     0.433877     0.504066
    0.296944     0.654440     0.508216
EA63   19.932 20.232 15.972 90.00 90.00 90.00 Sym.group:    0
1.0000
   19.932357     0.000000     0.000000
    0.000000    20.232107     0.000000
    0.000000     0.000000    15.971557
   O  Cu
  12   24 
Direct
    0.379291     0.524197     0.437474
    0.380267     0.445416     0.561085
    0.329751     0.443183     0.389853
    0.311119     0.523292     0.601179
    0.338217     0.532834     0.481852
    0.345911     0.434784     0.511922
    0.654767     0.468646     0.608704
    0.587888     0.456884     0.518542
    0.617344     0.372504     0.521652
    0.690039     0.436951     0.504998
    0.462707     0.700322     0.506550
    0.677364     0.541704     0.418174
    0.472133     0.633889     0.574496
    0.495953     0.639505     0.458241
    0.543291     0.666904     0.505728
    0.419338     0.662243     0.530589
    0.421538     0.623426     0.487408
    0.549016     0.624753     0.543710
    0.351204     0.550009     0.401985
    0.353662     0.418158     0.593105
    0.337413     0.477057     0.531317
    0.339781     0.490379     0.462018
    0.380324     0.484820     0.499314
    0.581279     0.566605     0.422656
    0.515190     0.400517     0.406020
    0.433990     0.336094     0.550060
    0.658159     0.524120     0.580059
    0.652290     0.506483     0.486842
    0.640712     0.459477     0.471474
    0.468416     0.345469     0.489562
    0.640496     0.551799     0.516956
    0.667187     0.615477     0.526874
    0.507480     0.292143     0.492166
    0.646264     0.490785     0.428578
    0.573925     0.446945     0.463197
    0.576294     0.312223     0.515662
EA128  18.422 19.345 19.698 90.00 90.00 90.00 Sym.group:    0
1.0000
   18.421682     0.000000     0.000000
    0.000000    19.344911     0.000000
    0.000000     0.000000    19.698201
   O  Cu
  12   24 
Direct
    0.723117     0.520214     0.529814
    0.722597     0.469847     0.531666
    0.652267     0.553069     0.456118
    0.461806     0.353343     0.453061
    0.651081     0.438199     0.460341
    0.389442     0.627649     0.409939
    0.333974     0.461373     0.417916
    0.540470     0.676068     0.579549
    0.378265     0.633997     0.582285
    0.322798     0.467720     0.590263
    0.429532     0.343515     0.595504
    0.647204     0.551863     0.584791
    0.681452     0.393199     0.508484
    0.491243     0.307923     0.501168
    0.683577     0.598958     0.500919
    0.669014     0.497338     0.515361
    0.563595     0.450888     0.452895
    0.499971     0.585809     0.444346
    0.498274     0.421604     0.450382
    0.564614     0.549563     0.449267
    0.654512     0.352407     0.501100
    0.545956     0.303739     0.496925
    0.657503     0.641896     0.490457
    0.597737     0.499942     0.485388
    0.363270     0.382073     0.450513
    0.465897     0.678047     0.436294
    0.334871     0.555607     0.442605
    0.355858     0.386282     0.564816
    0.458484     0.682257     0.550597
    0.327459     0.559816     0.556908
    0.427978     0.646594     0.470368
    0.339852     0.509727     0.477140
    0.404068     0.368840     0.483361
    0.424766     0.648418     0.519897
    0.336640     0.511551     0.526670
    0.400856     0.370664     0.532890
