EA68   20.923 19.711 19.213 90.00 90.00 90.00 Sym.group:    0
1.0000
   20.923009     0.000000     0.000000
    0.000000    19.710923     0.000000
    0.000000     0.000000    19.213021
   O  Cu
  12   24 
Direct
    0.474892     0.720088     0.485367
    0.655220     0.637221     0.493211
    0.691072     0.412490     0.497926
    0.618060     0.265406     0.520143
    0.618986     0.713440     0.513388
    0.727251     0.484126     0.520818
    0.447020     0.343846     0.406079
    0.338287     0.465099     0.404416
    0.403589     0.617440     0.412826
    0.441693     0.347199     0.595344
    0.332959     0.468452     0.593681
    0.398261     0.620793     0.602091
    0.518115     0.627839     0.468273
    0.611101     0.550744     0.472838
    0.604571     0.418825     0.474598
    0.564552     0.649685     0.456128
    0.651758     0.513814     0.461372
    0.599358     0.360427     0.461782
    0.520711     0.580646     0.546842
    0.578199     0.521515     0.549839
    0.565814     0.434605     0.550703
    0.614118     0.583139     0.535649
    0.629819     0.427150     0.538586
    0.493237     0.650134     0.530217
    0.539574     0.334234     0.442474
    0.370328     0.385928     0.435375
    0.342180     0.548444     0.439261
    0.483277     0.659268     0.450245
    0.366795     0.388152     0.560899
    0.338645     0.550668     0.564784
    0.361077     0.430382     0.471955
    0.378925     0.579485     0.477790
    0.492574     0.348280     0.476090
    0.359546     0.431346     0.526346
    0.377394     0.580448     0.532182
    0.491043     0.349243     0.530481
