EA0    20.327 17.678 17.861 90.00 90.00 90.00 Sym.group:    0
1.0000
   20.326694     0.000000     0.000000
    0.000000    17.678208     0.000000
    0.000000     0.000000    17.860962
   4   24 
Direct
    0.392838     0.593343     0.574036
    0.553753     0.346230     0.487481
    0.489774     0.452808     0.367953
    0.488531     0.613978     0.427399
    0.422162     0.615735     0.442056
    0.440416     0.330935     0.537339
    0.447633     0.503222     0.657911
    0.364539     0.504540     0.520784
    0.376181     0.387351     0.443808
    0.472815     0.596855     0.567890
    0.333666     0.542891     0.436066
    0.350456     0.457255     0.605841
    0.606033     0.537249     0.628197
    0.385077     0.594900     0.470476
    0.403535     0.513215     0.628791
    0.623794     0.433781     0.496166
    0.587565     0.580913     0.444301
    0.551449     0.566103     0.476699
    0.577326     0.459447     0.545180
    0.566533     0.508510     0.433054
    0.647542     0.610527     0.526936
    0.689812     0.445681     0.499996
    0.462240     0.551054     0.365644
    0.559651     0.346008     0.570604
    0.505308     0.368125     0.397707
    0.711779     0.549474     0.483525
    0.403630     0.428918     0.433593
    0.585963     0.560952     0.530566
