EA41    5.930  8.434 23.209 90.00 90.00 90.00 Sym.group:    0
1.0000
    5.929848     0.000000     0.000000
    0.000000     8.434364     0.000000
    0.000000     0.000000    23.208757
   O  Cu
  19   40 
Direct
    0.558657     0.279431     0.541363
    0.190724     0.995482     0.631284
    0.725423     0.056465     0.705863
    0.239455     0.244533     0.317328
    0.956009     0.628129     0.326093
    0.941928     0.926380     0.386252
    0.805345     0.925751     0.551416
    0.428915     0.586455     0.614589
    0.352802     0.850580     0.523806
    0.856507     0.472482     0.664491
    0.523801     0.582286     0.469902
    0.012433     0.305443     0.470676
    0.267696     0.169248     0.173915
    0.753098     0.078007     0.255190
    0.785855     0.663498     0.192888
    0.689461     0.493682     0.872852
    0.057449     0.837939     0.765954
    0.068227     0.279204     0.763805
    0.607850     0.105931     0.437581
    0.248419     0.883597     0.390325
    0.626322     0.899788     0.392981
    0.093914     0.432763     0.327235
    0.861780     0.993966     0.630780
    0.824660     0.267699     0.696742
    0.448368     0.622775     0.388534
    0.652295     0.766947     0.508605
    0.155691     0.515282     0.644178
    0.373502     0.499451     0.882890
    0.573556     0.603316     0.692305
    0.594521     0.612718     0.801022
    0.154685     0.691579     0.828422
    0.092595     0.656742     0.191014
    0.273071     0.936429     0.198704
    0.477076     0.659431     0.195273
    0.046780     0.832638     0.508083
    0.062042     0.034406     0.305427
    0.324121     0.800742     0.611220
    0.914848     0.679177     0.413640
    0.358623     0.802851     0.744284
    0.288637     0.395691     0.182243
    0.464252     0.189207     0.258444
    0.964936     0.119101     0.429473
    0.775724     0.446909     0.477883
    0.421983     0.169258     0.377958
    0.515130     0.058972     0.527728
    0.422339     0.043865     0.682421
    0.673604     0.387274     0.603804
    0.473586     0.919363     0.296296
    0.255488     0.682992     0.293988
    0.656216     0.654789     0.301380
    0.188303     0.570316     0.478430
    0.746537     0.833488     0.747185
    0.272473     0.463963     0.758031
    0.863095     0.373438     0.815733
    0.992340     0.524891     0.897928
    0.100015     0.059608     0.767978
    0.781831     0.871851     0.220981
    0.983052     0.153937     0.206350
    0.275548     0.299416     0.510886
EA89    5.930  8.434 23.209 90.00 90.00 90.00 Sym.group:    0
1.0000
    5.929848     0.000000     0.000000
    0.000000     8.434364     0.000000
    0.000000     0.000000    23.208757
   O  Cu
  19   40 
Direct
    0.558657     0.279431     0.541363
    0.190724     0.995482     0.631284
    0.725423     0.056465     0.705863
    0.239455     0.244533     0.317328
    0.956009     0.628129     0.326093
    0.941928     0.926380     0.386252
    0.805345     0.925751     0.551416
    0.428915     0.586455     0.614589
    0.352802     0.850580     0.523806
    0.856507     0.472482     0.664491
    0.523801     0.582286     0.469902
    0.012433     0.305443     0.470676
    0.267696     0.169248     0.173915
    0.753098     0.078007     0.255190
    0.785855     0.663498     0.192888
    0.689461     0.493682     0.872852
    0.057449     0.837939     0.765954
    0.068227     0.279204     0.763805
    0.607850     0.105931     0.437581
    0.248419     0.883597     0.390325
    0.626322     0.899788     0.392981
    0.093914     0.432763     0.327235
    0.861780     0.993966     0.630780
    0.824660     0.267699     0.696742
    0.448368     0.622775     0.388534
    0.652295     0.766947     0.508605
    0.155691     0.515282     0.644178
    0.373502     0.499451     0.882890
    0.573556     0.603316     0.692305
    0.594521     0.612718     0.801022
    0.154685     0.691579     0.828422
    0.092595     0.656742     0.191014
    0.273071     0.936429     0.198704
    0.477076     0.659431     0.195273
    0.046780     0.832638     0.508083
    0.062042     0.034406     0.305427
    0.324121     0.800742     0.611220
    0.914848     0.679177     0.413640
    0.358623     0.802851     0.744284
    0.288637     0.395691     0.182243
    0.464252     0.189207     0.258444
    0.964936     0.119101     0.429473
    0.775724     0.446909     0.477883
    0.421983     0.169258     0.377958
    0.515130     0.058972     0.527728
    0.422339     0.043865     0.682421
    0.673604     0.387274     0.603804
    0.473586     0.919363     0.296296
    0.255488     0.682992     0.293988
    0.656216     0.654789     0.301380
    0.188303     0.570316     0.478430
    0.746537     0.833488     0.747185
    0.272473     0.463963     0.758031
    0.863095     0.373438     0.815733
    0.992340     0.524891     0.897928
    0.100015     0.059608     0.767978
    0.781831     0.871851     0.220981
    0.983052     0.153937     0.206350
    0.275548     0.299416     0.510886
EA137   5.930  8.434 23.209 90.00 90.00 90.00 Sym.group:    0
1.0000
    5.929848     0.000000     0.000000
    0.000000     8.434364     0.000000
    0.000000     0.000000    23.208757
   O  Cu
  19   40 
Direct
    0.558657     0.279431     0.541363
    0.190724     0.995482     0.631284
    0.725423     0.056465     0.705863
    0.239455     0.244533     0.317328
    0.956009     0.628129     0.326093
    0.941928     0.926380     0.386252
    0.805345     0.925751     0.551416
    0.428915     0.586455     0.614589
    0.352802     0.850580     0.523806
    0.856507     0.472482     0.664491
    0.523801     0.582286     0.469902
    0.012433     0.305443     0.470676
    0.267696     0.169248     0.173915
    0.753098     0.078007     0.255190
    0.785855     0.663498     0.192888
    0.689461     0.493682     0.872852
    0.057449     0.837939     0.765954
    0.068227     0.279204     0.763805
    0.607850     0.105931     0.437581
    0.248419     0.883597     0.390325
    0.626322     0.899788     0.392981
    0.093914     0.432763     0.327235
    0.861780     0.993966     0.630780
    0.824660     0.267699     0.696742
    0.448368     0.622775     0.388534
    0.652295     0.766947     0.508605
    0.155691     0.515282     0.644178
    0.373502     0.499451     0.882890
    0.573556     0.603316     0.692305
    0.594521     0.612718     0.801022
    0.154685     0.691579     0.828422
    0.092595     0.656742     0.191014
    0.273071     0.936429     0.198704
    0.477076     0.659431     0.195273
    0.046780     0.832638     0.508083
    0.062042     0.034406     0.305427
    0.324121     0.800742     0.611220
    0.914848     0.679177     0.413640
    0.358623     0.802851     0.744284
    0.288637     0.395691     0.182243
    0.464252     0.189207     0.258444
    0.964936     0.119101     0.429473
    0.775724     0.446909     0.477883
    0.421983     0.169258     0.377958
    0.515130     0.058972     0.527728
    0.422339     0.043865     0.682421
    0.673604     0.387274     0.603804
    0.473586     0.919363     0.296296
    0.255488     0.682992     0.293988
    0.656216     0.654789     0.301380
    0.188303     0.570316     0.478430
    0.746537     0.833488     0.747185
    0.272473     0.463963     0.758031
    0.863095     0.373438     0.815733
    0.992340     0.524891     0.897928
    0.100015     0.059608     0.767978
    0.781831     0.871851     0.220981
    0.983052     0.153937     0.206350
    0.275548     0.299416     0.510886
