EA1
 1.0000000000000000
     7.9188087307677124    0.0000000000000000    0.0000000000000000
     0.0000000000000000    7.9188087307677124    0.0000000000000000
     0.0000000000000000    0.0000000000000000   17.9188087307677115
 O   Cu 
  12  24
Direct
  0.5000000000000000  0.8273298324112276  0.6446559519488608
  0.5000000000000000  0.1726701675887724  0.6446559519488608
  0.5000000000000000  0.8273298324112276  0.3553440480511392
  0.5000000000000000  0.1726701675887724  0.3553440480511392
  0.8273298324112276  0.5000000000000000  0.6446559519488608
  0.8273298324112276  0.5000000000000000  0.3553440480511392
  0.1726701675887724  0.5000000000000000  0.6446559519488608
  0.1726701675887724  0.5000000000000000  0.3553440480511392
  0.8273298324112276  0.8273298324112276  0.5000000000000000
  0.1726701675887724  0.8273298324112276  0.5000000000000000
  0.8273298324112276  0.1726701675887724  0.5000000000000000
  0.1726701675887724  0.1726701675887724  0.5000000000000000
  0.6774242953538775  0.7000806909089835  0.7209635933322571
  0.3225757046461225  0.2999193090910166  0.7209635933322571
  0.3225757046461225  0.7000806909089835  0.2790364066677428
  0.6774242953538775  0.2999193090910166  0.2790364066677428
  1.0000000000000000  0.6774242953538776  0.5884210968392993
  1.0000000000000000  0.3225757046461225  0.4115789031607006
  0.0000000000000000  0.3225757046461224  0.5884210968392993
  0.0000000000000000  0.6774242953538775  0.4115789031607006
  0.7000806909089835  1.0000000000000000  0.5784086196916730
  0.2999193090910166  1.0000000000000000  0.4215913803083270
  0.7000806909089835  0.0000000000000000  0.4215913803083270
  0.2999193090910166  0.0000000000000000  0.5784086196916730
  0.7000806909089835  0.6774242953538775  0.2790364066677428
  0.2999193090910166  0.3225757046461225  0.2790364066677428
  0.7000806909089835  0.3225757046461225  0.7209635933322571
  0.2999193090910166  0.6774242953538775  0.7209635933322571
  0.6774242953538775  1.0000000000000000  0.4115789031607006
  0.3225757046461225  1.0000000000000000  0.5884210968392993
  0.3225757046461225  0.0000000000000000  0.4115789031607006
  0.6774242953538775  0.0000000000000000  0.5884210968392993
  1.0000000000000000  0.7000806909089835  0.4215913803083270
  1.0000000000000000  0.2999193090910166  0.5784086196916730
  0.0000000000000000  0.7000806909089835  0.5784086196916730
  0.0000000000000000  0.2999193090910165  0.4215913803083270
EA2
 1.0000000000000000
     6.6428431160379606    0.0000000000000000    0.0000000000000000
     0.0000000000000000    6.8795357429595878    0.0000000000000000
     0.0000000000000000    0.0000000000000000   21.5391772233782319
 O   Cu 
  12  24
Direct
  0.6376822540631336  0.7713726368681100  0.5324856737799013
  0.6745483636367763  0.2491797159442407  0.5324856737799013
  0.3623177459368664  0.2286273631318903  0.4675143262200988
  0.1877693823000899  0.4794476471876497  0.5324856737799013
  0.3254516363632237  0.7508202840557594  0.4675143262200988
  0.8122306176999099  0.5205523528123505  0.4675143262200988
  0.7466020528329539  0.8040774923733633  0.7678648562966885
  0.6494208914842923  0.1417453368361611  0.7678648562966885
  0.2533979471670461  0.1959225076266368  0.2321351437033115
  0.1039770556827537  0.5541771707904759  0.7678648562966885
  0.3505791085157079  0.8582546631638390  0.2321351437033115
  0.8960229443172462  0.4458228292095243  0.2321351437033115
  0.5301365718834865  0.8560392202734635  0.5690883932205946
  0.8042572196818328  0.2967792987364605  0.5690883932205946
  0.4698634281165134  0.1439607797265368  0.4309116067794054
  0.1656062084346805  0.3471814809900764  0.5690883932205946
  0.1957427803181673  0.7032207012635397  0.4309116067794054
  0.8343937915653195  0.6528185190099237  0.4309116067794054
  0.5071564425860865  0.6597301372465433  0.6455910149280019
  0.6396810151483786  0.4141505028075799  0.6455910149280019
  0.4928435574139134  0.3402698627534570  0.3544089850719982
  0.3531625422655347  0.4261193599458771  0.6455910149280019
  0.3603189848516213  0.5858494971924203  0.3544089850719982
  0.6468374577344652  0.5738806400541231  0.3544089850719982
  0.9209346460349257  0.7351051741470097  0.6003896812890205
  0.5003944987547277  0.0304494347168521  0.6003896812890204
  0.0790653539650744  0.2648948258529905  0.3996103187109795
  0.0786708552103464  0.7344453911361386  0.6003896812890205
  0.4996055012452722  0.9695505652831478  0.3996103187109796
  0.9213291447896534  0.2655546088638616  0.3996103187109795
  0.8968829483962799  0.8362295228614595  0.6747009067968934
  0.6031170516037198  0.0000000000000000  0.6747009067968933
  0.1031170516037199  0.1637704771385408  0.3252990932031066
  0.9999999999999999  0.6637704771385411  0.6747009067968934
  0.3968829483962804  1.0000000000000000  0.3252990932031067
  1.0000000000000000  0.3362295228614592  0.3252990932031066
EA3
 1.0000000000000000
     6.6640287261303390    0.0000000000000000    0.0000000000000000
     0.0000000000000000    6.6640287261303390    0.0000000000000000
     0.0000000000000000    0.0000000000000000   16.6640287261303399
 O   Cu 
  12  24
Direct
  0.5568333767143772  0.5919583352192892  0.5000000000000000
  0.5919583352192892  0.5000000000000000  0.5227279526009042
  0.5000000000000000  0.4431666232856228  0.4632254001970404
  0.5919583352192892  0.5000000000000000  0.4772720473990958
  0.4080416647807108  0.5000000000000000  0.4772720473990958
  0.5000000000000000  0.4431666232856228  0.5367745998029596
  0.5000000000000000  0.5568333767143772  0.4632254001970404
  0.5000000000000000  0.5568333767143772  0.5367745998029596
  0.4080416647807108  0.5000000000000000  0.5227279526009042
  0.4431666232856228  0.4080416647807108  0.5000000000000000
  0.4431666232856228  0.5919583352192892  0.5000000000000000
  0.5568333767143772  0.4080416647807108  0.5000000000000000
  0.6507760112480624  0.7439607108875015  0.5000000000000000
  0.7439607108875015  0.5000000000000000  0.5602960836591023
  0.5000000000000000  0.3492239887519376  0.4024388872510653
  0.7439607108875015  0.5000000000000000  0.4397039163408977
  0.2560392891124985  0.5000000000000000  0.4397039163408977
  0.5000000000000000  0.3492239887519376  0.5975611127489346
  0.5000000000000000  0.6507760112480624  0.4024388872510653
  0.5000000000000000  0.6507760112480624  0.5975611127489346
  0.2560392891124985  0.5000000000000000  0.5602960836591023
  0.3492239887519376  0.2560392891124985  0.5000000000000000
  0.3492239887519376  0.7439607108875015  0.5000000000000000
  0.6507760112480624  0.2560392891124985  0.5000000000000000
  0.8090169943749473  1.0000000000000000  0.5000000000000000
  1.0000000000000000  0.5000000000000000  0.6235774470400417
  0.5000000000000000  0.1909830056250526  0.3000474904462723
  1.0000000000000000  0.5000000000000000  0.3764225529599582
  0.0000000000000000  0.5000000000000000  0.3764225529599582
  0.5000000000000000  0.1909830056250526  0.6999525095537277
  0.5000000000000000  0.8090169943749473  0.3000474904462723
  0.5000000000000000  0.8090169943749473  0.6999525095537277
  0.0000000000000000  0.5000000000000000  0.6235774470400417
  0.1909830056250526  0.0000000000000000  0.5000000000000000
  0.1909830056250526  1.0000000000000000  0.5000000000000000
  0.8090169943749473  0.0000000000000000  0.5000000000000000
EA4
 1.0000000000000000
     8.4468385948239533    0.0000000000000000    0.0000000000000000
     0.0000000000000000    9.6940035664024755    0.0000000000000000
     0.0000000000000000    0.0000000000000000   18.0977418368752225
 O   Cu 
  12  24
Direct
  0.6850869185137153  0.7687294632652291  0.5511484014871038
  0.6850869185137153  0.2312705367347709  0.4488515985128962
  0.3149130814862847  0.2312705367347709  0.5511484014871038
  0.3149130814862847  0.7687294632652291  0.4488515985128962
  0.5000000000000000  0.7644178965602749  0.5000000000000000
  0.5000000000000000  0.2355821034397251  0.5000000000000000
  0.7356812556526268  0.5000000000000000  0.5000000000000000
  0.2643187443473732  0.5000000000000000  0.5000000000000000
  0.5000000000000000  0.5000000000000000  0.5522487012818127
  0.5000000000000000  0.5000000000000000  0.4477512987181874
  0.5740261946122106  0.5000000000000000  0.5000000000000000
  0.4259738053877893  0.5000000000000000  0.5000000000000000
  1.0000000000000000  0.6018543835209903  0.6067576308613378
  1.0000000000000000  0.3981456164790098  0.3932423691386622
  0.0000000000000000  0.3981456164790098  0.6067576308613378
  0.0000000000000000  0.6018543835209902  0.3932423691386621
  0.9911804683749024  0.5000000000000000  0.5000000000000000
  0.0088195316250978  0.5000000000000000  0.5000000000000000
  0.6137229317730303  0.7971640263459887  0.6240737911315537
  0.6137229317730303  0.2028359736540113  0.3759262088684463
  0.3862770682269696  0.2028359736540113  0.6240737911315537
  0.3862770682269696  0.7971640263459887  0.3759262088684463
  0.9338351409731772  1.0000000000000000  0.7143166156771268
  0.9338351409731772  0.0000000000000000  0.2856833843228732
  0.0661648590268228  0.0000000000000000  0.7143166156771268
  0.0661648590268228  1.0000000000000000  0.2856833843228732
  0.7572128045996173  0.8812864815810219  0.6397368804026681
  0.7572128045996173  0.1187135184189781  0.3602631195973320
  0.2427871954003828  0.1187135184189781  0.6397368804026680
  0.2427871954003828  0.8812864815810219  0.3602631195973320
  0.6302129848909714  0.9720619567577325  0.6921941990152251
  0.6302129848909714  0.0279380432422674  0.3078058009847749
  0.3697870151090286  0.0279380432422674  0.6921941990152251
  0.3697870151090286  0.9720619567577325  0.3078058009847749
  0.5000000000000000  0.5000000000000000  0.7237224375799083
  0.5000000000000000  0.5000000000000000  0.2762775624200917
EA5
 1.0000000000000000
    11.1587063652451430    0.0000000000000000    0.0000000000000000
     0.0000000000000000    8.2011669258217399    0.0000000000000000
     0.0000000000000000    0.0000000000000000   12.4112767156822557
 O   Cu 
  12  24
Direct
  0.5000000000000000  0.6981399837113375  0.5893193076853098
  0.5000000000000000  0.3018600162886625  0.5893193076853098
  1.0000000000000000  0.5000000000000000  0.5971405589819576
  0.0000000000000000  0.5000000000000000  0.5971405589819575
  0.9727257682968480  0.8469942092733953  0.5620320107947967
  0.0272742317031521  0.8469942092733953  0.5620320107947967
  0.0272742317031521  0.1530057907266047  0.5620320107947967
  0.9727257682968480  0.1530057907266048  0.5620320107947967
  0.9368858124867344  0.8850446148368873  0.4028594410180427
  0.0631141875132655  0.8850446148368871  0.4028594410180427
  0.0631141875132655  0.1149553851631127  0.4028594410180426
  0.9368858124867344  0.1149553851631128  0.4028594410180427
  0.6404050431776825  0.6415893470282860  0.4857288897908118
  0.3595949568223175  0.6415893470282860  0.4857288897908117
  0.3595949568223175  0.3584106529717139  0.4857288897908117
  0.6404050431776825  0.3584106529717139  0.4857288897908118
  0.5000000000000000  0.8778679566707822  0.4139211410930025
  0.5000000000000000  0.1221320433292177  0.4139211410930025
  0.9169875441202712  0.5898653503059266  0.5919507644772487
  0.0830124558797288  0.5898653503059265  0.5919507644772486
  0.0830124558797288  0.4101346496940734  0.5919507644772486
  0.9169875441202712  0.4101346496940735  0.5919507644772487
  0.7570735702192221  0.5000000000000000  0.5651516970167878
  0.2429264297807779  0.5000000000000000  0.5651516970167877
  0.8319923504055773  1.0000000000000000  0.5032818766714756
  0.1680076495944228  1.0000000000000000  0.5032818766714756
  0.1680076495944228  0.0000000000000000  0.5032818766714756
  0.8319923504055773  0.0000000000000000  0.5032818766714756
  0.5000000000000000  0.8754489288674816  0.5743534686232306
  0.5000000000000000  0.1245510711325184  0.5743534686232306
  0.6733558691979172  0.8961197265795059  0.5483333926386759
  0.3266441308020828  0.8961197265795059  0.5483333926386759
  0.3266441308020828  0.1038802734204941  0.5483333926386758
  0.6733558691979172  0.1038802734204941  0.5483333926386758
  0.8520219425635827  0.5000000000000000  0.4658478714619773
  0.1479780574364173  0.5000000000000000  0.4658478714619772
