EA131   8.593  8.593 21.019 90.080 90.080 90.080 Sym.group: no SG
1.0000
    8.593017     0.000000     0.000000
   -0.011983     8.593000     0.000000
   -0.029353    -0.029394    21.018959
  21   40 
Selective dynamics
Direct
    0.900000     0.500000     0.507680  T  T  T
    0.200000     0.400000     0.534499  T  T  T
    0.500000     0.500000     0.533277  T  T  T
    0.171661     0.425051     0.456015  T  T  T
    0.845609     0.578017     0.458383  T  T  T
    0.000610     0.000610     0.004757  F  F  F
    0.500610     0.000610     0.004757  F  F  F
    0.000610     0.500610     0.004757  F  F  F
    0.500610     0.500610     0.004757  F  F  F
    0.250790     0.250800     0.107041  F  F  F
    0.750790     0.250800     0.107041  F  F  F
    0.250790     0.750800     0.107041  F  F  F
    0.750790     0.750800     0.107041  F  F  F
    0.000610     0.000610     0.209175  F  F  F
    0.500610     0.000610     0.209175  F  F  F
    0.000610     0.500610     0.209175  F  F  F
    0.500610     0.500610     0.209175  F  F  F
    0.250790     0.250800     0.311459  F  F  F
    0.750790     0.250800     0.311459  F  F  F
    0.250790     0.750800     0.311459  F  F  F
    0.750790     0.750800     0.311459  F  F  F
    0.000276     0.001679     0.471981  T  T  T
    0.620530     0.000000     0.438806  T  T  T
    0.379470     0.000000     0.438806  T  T  T
    0.500000     0.200000     0.555531  T  T  T
    0.800000     0.600000     0.582020  T  T  T
    0.986402     0.254593     0.519020  T  T  T
    0.369695     0.386081     0.471037  T  T  T
    0.625077     0.617853     0.467296  T  T  T
    0.125670     0.125670     0.055888  F  F  F
    0.625670     0.125670     0.055888  F  F  F
    0.375590     0.375590     0.055892  F  F  F
    0.875590     0.375590     0.055892  F  F  F
    0.125670     0.625670     0.055888  F  F  F
    0.625670     0.625670     0.055888  F  F  F
    0.375590     0.875590     0.055892  F  F  F
    0.875590     0.875590     0.055892  F  F  F
    0.375580     0.125690     0.158064  F  F  F
    0.875580     0.125690     0.158064  F  F  F
    0.125680     0.375590     0.158064  F  F  F
    0.625680     0.375590     0.158064  F  F  F
    0.375580     0.625690     0.158064  F  F  F
    0.875580     0.625690     0.158064  F  F  F
    0.125680     0.875590     0.158064  F  F  F
    0.625680     0.875590     0.158064  F  F  F
    0.125670     0.125670     0.260306  F  F  F
    0.625670     0.125670     0.260306  F  F  F
    0.375590     0.375590     0.260313  F  F  F
    0.875590     0.375590     0.260313  F  F  F
    0.125670     0.625670     0.260306  F  F  F
    0.625670     0.625670     0.260306  F  F  F
    0.375590     0.875590     0.260313  F  F  F
    0.875590     0.875590     0.260313  F  F  F
    0.375580     0.125690     0.362482  F  F  F
    0.875580     0.125690     0.362482  F  F  F
    0.125680     0.375590     0.362482  F  F  F
    0.625680     0.375590     0.362482  F  F  F
    0.375580     0.625690     0.362482  F  F  F
    0.875580     0.625690     0.362482  F  F  F
    0.125680     0.875590     0.362482  F  F  F
    0.625680     0.875590     0.362482  F  F  F
