Generation:1
EA1
 1.0000000000000000
     5.0046405943638810    0.0000000000000000    0.0000000000000000
     0.0000000000000000    5.0046405943638810    0.0000000000000000
     0.0000000000000000    0.0000000000000000   34.1920322646431813
 O   Cu 
  18  40
Direct
  0.6940945368723526  0.4955897577705297  0.2896711773080797
  0.2522051211147351  0.7566153633442055  0.1462328989777636
  0.7566153633442055  0.2522051211147351  0.1462328989777636
  0.0000000000000000  0.1896842946428823  0.2896711773080797
  0.5132307266884109  0.3147259475865881  0.2896711773080796
  0.3147259475865880  0.0000000000000000  0.2896711773080797
  0.5132307266884109  0.1896842946428823  0.7740407661980050
  0.0000000000000000  0.3147259475865881  0.7740407661980050
  0.1896842946428823  0.0000000000000000  0.7740407661980050
  0.1896842946428823  0.5132307266884109  0.2896711773080796
  0.0088204844589404  0.8191361898160584  0.7740407661980050
  0.4955897577705298  0.6940945368723526  0.7740407661980050
  0.6940945368723526  0.0088204844589405  0.7740407661980050
  0.8191361898160584  0.4955897577705300  0.7740407661980050
  0.4955897577705298  0.8191361898160584  0.2896711773080797
  0.0088204844589404  0.6940945368723526  0.2896711773080796
  0.8191361898160584  0.0088204844589405  0.2896711773080796
  0.3147259475865880  0.5132307266884109  0.7740407661980050
  0.8794206097093944  0.9189982506484529  0.7981470211748012
  0.4145880084189827  0.3750103674799243  0.7981470211748012
  0.1293998747495461  0.4145880084189827  0.7981470211748012
  0.3750103674799242  0.0898222338104876  0.7981470211748012
  0.5942324760399580  0.8794206097093944  0.7981470211748012
  0.9189982506484529  0.6338101169790165  0.7981470211748012
  0.6338101169790165  0.5942324760399580  0.7981470211748012
  0.9189982506484529  0.8794206097093944  0.2655649223312836
  0.7566153633442055  0.7566153633442056  0.5318559717530423
  0.8794206097093944  0.5942324760399582  0.2655649223312836
  0.6338101169790165  0.9189982506484529  0.2655649223312836
  0.0000000000000000  0.0000000000000000  0.5318559717530423
  0.5044102422294703  0.5044102422294702  0.5318559717530423
  0.5044102422294703  0.0000000000000000  0.5318559717530423
  0.0000000000000000  0.5044102422294703  0.5318559717530423
  0.2522051211147351  0.2522051211147351  0.5318559717530423
  0.0898222338104876  0.1293998747495461  0.7981470211748012
  0.5942324760399580  0.6338101169790165  0.2655649223312836
  0.1293998747495461  0.0898222338104876  0.2655649223312836
  0.7851811607334731  0.9583736871488073  0.2099448424838484
  0.0898222338104876  0.3750103674799242  0.2655649223312836
  0.0504467973101332  0.2807709185040028  0.8537671010222364
  0.4539634449193370  0.2236393237254675  0.8537671010222364
  0.2236393237254675  0.0504467973101332  0.8537671010222364
  0.2807709185040028  0.4539634449193370  0.8537671010222364
  0.4539634449193370  0.2807709185040029  0.2099448424838483
  0.0504467973101332  0.2236393237254675  0.2099448424838483
  0.2807709185040028  0.0504467973101332  0.2099448424838483
  0.2236393237254675  0.4539634449193370  0.2099448424838483
  0.9583736871488073  0.7280495659549379  0.2099448424838484
  0.5548570395396034  0.7851811607334731  0.2099448424838483
  0.7566153633442055  0.2522051211147351  0.5318559717530423
  0.7280495659549379  0.5548570395396036  0.2099448424838483
  0.5548570395396034  0.7280495659549379  0.8537671010222364
  0.9583736871488073  0.7851811607334731  0.8537671010222364
  0.7280495659549379  0.9583736871488073  0.8537671010222364
  0.7851811607334731  0.5548570395396036  0.8537671010222364
  0.4145880084189827  0.1293998747495461  0.2655649223312836
  0.3750103674799242  0.4145880084189827  0.2655649223312836
  0.2522051211147351  0.7566153633442055  0.5318559717530423
EA2
 1.0000000000000000
     5.5663836586334963    0.0000000000000000    0.0000000000000000
     0.0000000000000000    5.5663836586334963    0.0000000000000000
     0.0000000000000000    0.0000000000000000   27.5630830048877051
 O   Cu 
  18  40
Direct
  0.9611932200000000  0.9596843300000001  0.5224067300000000
  0.9241466799999999  0.6004538400000000  0.4596976400000000
  0.6307647000000000  0.2106812400000000  0.4332373900000000
  0.5046405700000000  0.0785513800000000  0.1976472000000000
  0.1558135500000000  0.4072501300000000  0.2164318000000000
  0.9163740400000000  0.4287402800000000  0.5873303100000000
  0.4478127500000000  0.9815919400000001  0.8479384400000000
  0.0826606800000000  0.6151132300000000  0.8579570399999999
  0.7473517700000001  0.8400579299999998  0.6915709700000000
  0.5413798300000000  0.0672880200000000  0.5842585400000000
  0.8590569900000000  0.2875889700000000  0.7523826300000001
  0.1935137400000000  0.6584812100000000  0.7397140000000000
  0.3382636200000000  0.2590998900000000  0.3496966000000000
  0.7552395700000000  0.8456983300000002  0.3582551200000000
  0.1940142500000000  0.7180883700000000  0.2975376400000000
  0.8434917600000000  0.3565818500000000  0.2997994100000000
  0.4353108100000000  0.5389599400000000  0.1250020100000000
  0.3648468900000000  0.2120104800000000  0.6898626400000000
  0.9577106500000000  0.3391530600000000  0.8924312500000000
  0.5303268900000000  0.4343967400000000  0.5826222800000000
  0.2391715000000000  0.1923132800000000  0.5315319700000000
  0.8237995500000002  0.6387909899999999  0.6387004200000000
  0.3419643200000000  0.3699362200000000  0.8412130700000000
  0.6982441300000000  0.9992060900000000  0.8986861500000000
  0.0789783300000000  0.9694639100000000  0.8565797300000000
  0.5594206000000000  0.4935788600000000  0.4860592200000000
  0.7277860200000000  0.6273395800000000  0.8417381300000000
  0.6469753200000000  0.8532530500000000  0.4328299500000000
  0.3371712500000000  0.4091631200000000  0.4139610300000000
  0.9410599700000000  0.6649523200000000  0.2039835600000000
  0.3538441000000000  0.2065160400000000  0.1263018100000000
  0.0808248400000000  0.0823485800000000  0.1979612800000000
  0.1678954900000000  0.7727793900000000  0.1271358800000000
  0.9134543400000000  0.0276737900000000  0.5925838700000000
  0.3181030900000000  0.8132177400000000  0.6090213700000001
  0.2355073100000000  0.8058796400000000  0.4571868400000000
  0.6708333200000000  0.1427554000000000  0.7999501300000000
  0.6997205300000000  0.1983209100000000  0.2493579000000000
  0.8038675000000001  0.6416853800000000  0.7505450500000000
  0.7771398600000000  0.5437514700000000  0.1206031300000000
  0.7281974900000000  0.9455907600000000  0.1505624600000000
  0.5718014900000000  0.9033489400000000  0.5207989700000000
  0.0206566000000000  0.5895829800000000  0.5279451700000000
  0.7025539200000001  0.2792765000000000  0.3612073399999999
  0.3995391400000000  0.7675107100000000  0.3533597900000001
  0.9862932899999999  0.6028754700000000  0.3870965800000000
  0.0721766200000000  0.0490330200000000  0.3661564500000001
  0.8056619800000001  0.7237886600000000  0.2895832000000000
  0.2171778600000000  0.3427343600000000  0.2860330700000000
  0.9784753900000002  0.2095509700000000  0.4539284200000000
  0.3687338800000000  0.8741595900000000  0.2495564100000000
  0.4397919200000001  0.5954857200000000  0.6878130500000000
  0.7344983500000001  0.2117896700000000  0.6848364100000000
  0.1612240900000000  0.3177455000000000  0.6370075900000000
  0.1133938200000000  0.9293072800000001  0.6897607900000000
  0.2199911000000000  0.2733882000000000  0.7554865100000000
  0.3699599500000000  0.7816055600000000  0.7916446300000000
  0.5017027600000000  0.5023331599999999  0.2029330500000000
EA3
 1.0000000000000000
     6.1651966344035696    0.0000000000000000    0.0000000000000000
     0.0000000000000000    8.5100233285117852    0.0000000000000000
     0.0000000000000000    0.0000000000000000   22.5983290817006690
 O   Cu 
  18  40
Direct
  0.9045297899999999  0.5602646100000001  0.5954842500000000
  0.0175766700000000  0.1886061800000000  0.4059022900000000
  0.1199841000000000  0.1377025800000000  0.2110894000000000
  0.2820631200000000  0.7584263400000000  0.8043571000000000
  0.6654353500000000  0.3650998100000000  0.4797539400000000
  0.6822739100000000  0.1367650200000000  0.1556456600000000
  0.6514861499999999  0.0985145900000000  0.7715129200000002
  0.7766955600000000  0.5329236899999999  0.7719636699999999
  0.2389358800000000  0.3029585300000000  0.8138737200000000
  0.4105424600000000  0.7857135600000000  0.5492385500000000
  0.3319628900000000  0.5578831500000000  0.4344599400000000
  0.8006584400000000  0.7808662000000000  0.4202072600000000
  0.2000783600000000  0.8295296000000000  0.2821971100000000
  0.7515923200000000  0.6661175300000000  0.2608082100000000
  0.1218480100000000  0.4336776400000000  0.1745846100000000
  0.8087270899999999  0.0274197200000000  0.5818100200000000
  0.3136063800000000  0.2654331500000000  0.5602919700000000
  0.3734715400000000  0.9696780600000000  0.4265213000000000
  0.0357885500000000  0.6405184300000000  0.7928553699999999
  0.5605484700000000  0.4997615000000000  0.2744518500000000
  0.9205617400000000  0.5572920200000000  0.2084505800000000
  0.2930677000000000  0.0373254600000000  0.2711035600000000
  0.9248737499999999  0.4367918600000000  0.5180987400000000
  0.3242924800000000  0.3999893100000000  0.4938858900000000
  0.7075949200000000  0.2232111800000000  0.4134779100000001
  0.5233618700000000  0.6383277300000000  0.7914584400000001
  0.5433477900000000  0.2396247800000000  0.3111308400000000
  0.5741366400000000  0.8351991500000000  0.4785073000000000
  0.1499866200000000  0.6687293100000000  0.5621433800000000
  0.3302747300000000  0.9022447700000000  0.6205102100000000
  0.3926026000000000  0.1641057700000000  0.1724662800000000
  0.9122261900000000  0.2766758800000000  0.1663069400000000
  0.7051430000000000  0.0631517800000000  0.2359520300000000
  0.4389933200000001  0.6545130200000000  0.6808818900000000
  0.9338369399999999  0.9579233100000000  0.6538783600000000
  0.1897107500000000  0.8608589200000000  0.7291301300000000
  0.0639574100000000  0.5660777600000000  0.6714522500000000
  0.9566319800000002  0.3600353700000000  0.7973471099999999
  0.9471060200000000  0.0808150700000000  0.7637449700000001
  0.6435809900000000  0.6674456000000000  0.5818027099999999
  0.5647656400000000  0.1495401600000000  0.5775414800000001
  0.0562712200000000  0.1512059900000000  0.5721818200000000
  0.2397091100000000  0.3525591200000000  0.2526527000000000
  0.4972949800000000  0.7919910300000000  0.2746271700000000
  0.8977591700000001  0.8561374800000000  0.2912203400000000
  0.6855701600000002  0.5670147400000000  0.4401428300000000
  0.0611297900000000  0.6567600800000000  0.4411266600000000
  0.3252074000000000  0.1904850700000000  0.4061870399999999
  0.3014821400000000  0.4081474700000000  0.7368091900000000
  0.9247151400000000  0.1312805100000000  0.3256810400000000
  0.5594526200000000  0.9783563999999999  0.7047092100000000
  0.3336979700000001  0.4546578500000000  0.3592396900000000
  0.5866555700000000  0.9758045200000001  0.3588622100000000
  0.0460635900000000  0.9435014400000000  0.4174163100000000
  0.7949536000000000  0.7506817900000000  0.7179180200000000
  0.3431960300000000  0.1150384800000000  0.7801867500000000
  0.3581030600000000  0.4056172600000000  0.6284355200000000
  0.2303383600000000  0.1462773500000000  0.6771437800000000
EA4
 1.0000000000000000
     8.5891073742001591    0.0000000000000000    0.0000000000000000
     0.0000000000000000    8.5891073742001591    0.0000000000000000
     0.0000000000000000    0.0000000000000000   18.5891073742001609
 O   Cu 
  18  40
Direct
  0.2430594300000000  0.5000009500000000  0.5000265000000000
  0.8924168800000000  0.7025684800000001  0.5912193600000000
  0.1074930300000000  0.7025641300000000  0.4087403100000000
  0.8925045800000000  0.2975528000000000  0.4086953200000000
  0.1073091200000000  0.2973677200000000  0.5913042300000000
  0.7171040200000000  0.7157987600000000  0.7484494100000000
  0.2829275800000000  0.2837473400000000  0.7483620500000000
  0.2829263500000000  0.7158795900000000  0.2515801400000000
  0.6662935800000001  0.1234363500000000  0.6864092200000000
  0.7170412200000000  0.2838275000000000  0.2516022300000000
  0.3338842900000000  0.1236680500000000  0.3136573800000000
  0.6660149000000000  0.8761703300000000  0.3136201500000000
  0.5000103200000000  0.5000051200000000  0.0344144300000000
  0.4999957300000000  0.5000048600000000  0.9656020999999999
  0.4999757200000000  0.8006241300000000  0.4999927300000001
  0.4999986400000000  0.1994054900000000  0.5000243200000000
  0.7567492800000000  0.5000858100000000  0.4999617100000000
  0.3341121100000000  0.8760832600000000  0.6863842400000000
  0.6454528100000000  0.4975709999999999  0.2486465500000000
  0.8887353600000000  0.4143324200000000  0.3112502900000000
  0.1112131500000000  0.5860710000000000  0.3111090600000000
  0.8887364400000000  0.5861191800000000  0.6889401400000000
  0.6454650500000000  0.5021524300000000  0.7514824600000000
  0.3545103100000000  0.4976535000000000  0.7512857800000000
  0.3545728300000000  0.5021756000000001  0.2485879600000000
  0.9040759100000000  0.6121861800000000  0.4380924800000001
  0.0441642200000000  0.1298128700000000  0.6529389700000000
  0.0957230200000000  0.3880916100000000  0.4381074700000000
  0.0958655600000000  0.6122227700000000  0.5619293900000000
  0.4076967800000000  0.8604046300000000  0.5888934800000000
  0.5923381000000000  0.8604194700000000  0.4111110800000000
  0.4076286400000000  0.1394568900000000  0.4111094300000000
  0.5924480400000000  0.1394783200000000  0.5888488800000000
  0.9560958999999999  0.8702235900000000  0.6526597600000000
  0.1112319800000000  0.4144910600000000  0.6886942500000000
  0.9041243000000000  0.3882418500000000  0.5619155100000000
  0.4953193800000000  0.7445670300000000  0.7250042000000000
  0.8146597200000000  0.6971040500000000  0.3059478400000000
  0.5050266200000000  0.2550489500000000  0.7250442400000000
  0.8792867200000000  0.9087999700000000  0.4525182000000000
  0.1206944900000000  0.0913765800000000  0.4523181700000000
  0.1208461100000000  0.9088724500000001  0.5475216400000000
  0.8795490200000000  0.0915434500000000  0.5476093900000000
  0.2813657500000000  0.9254994600000001  0.2796668300000000
  0.2815856200000000  0.0740788300000000  0.7203569200000000
  0.7184526400000000  0.0740783400000000  0.2796340000000000
  0.7186653800000000  0.9259905500000000  0.7202873300000000
  0.8146815199999999  0.3031342500000000  0.6939467800000000
  0.1853102800000000  0.3029788000000000  0.3060544900000000
  0.0439388500000000  0.8702342199999999  0.3472801000000000
  0.1853471700000000  0.6971233700000000  0.6940512500000000
  0.7003934500000000  0.2787795200000000  0.4644814500000000
  0.2995828100000000  0.7212621900000000  0.4644785100000001
  0.2994749500000000  0.2787117900000000  0.5355158000000000
  0.7003853700000000  0.7213868100000000  0.5355344600000000
  0.5047402400000000  0.7445469200000000  0.2749624700000000
  0.4950739600000000  0.2551436600000000  0.2749527800000000
  0.9557247400000000  0.1298437500000000  0.3471844200000000
Generation:2
Generation:3
