EA162  20.249 20.249 20.249 90.00 90.00 90.00 Sym.group:    0
1.0000
   20.249305     0.000000     0.000000
    0.000000    20.249305     0.000000
    0.000000     0.000000    20.249305
   O  Cu
  24   24 
Direct
    0.407271     0.498039     0.306725     0.008449
    0.687891     0.476653     0.399451     0.008449
    0.592729     0.413586     0.672893     0.008449
    0.312109     0.434972     0.580166     0.008449
    0.454653     0.632584     0.337756     0.008449
    0.592729     0.586414     0.327107     0.008449
    0.545347     0.451869     0.296076     0.008449
    0.407271     0.306725     0.501961     0.008449
    0.407271     0.501961     0.693275     0.008449
    0.407271     0.693275     0.498039     0.008449
    0.312109     0.565028     0.419834     0.008449
    0.687891     0.523347     0.600549     0.008449
    0.454653     0.367416     0.662244     0.008449
    0.545347     0.548131     0.703924     0.008449
    0.592729     0.327107     0.413586     0.008449
    0.592729     0.672893     0.586414     0.008449
    0.312109     0.419834     0.434972     0.008449
    0.454653     0.337756     0.367416     0.008449
    0.312109     0.580166     0.565028     0.008449
    0.545347     0.703924     0.451869     0.008449
    0.687891     0.399451     0.523347     0.008449
    0.454653     0.662244     0.632584     0.008449
    0.687891     0.600549     0.476653     0.008449
    0.545347     0.296076     0.548131     0.008449
    0.592729     0.501961     0.693275     0.008449
    0.312109     0.523347     0.600549     0.008449
    0.407271     0.586414     0.327107     0.008449
    0.687891     0.565028     0.419834     0.008449
    0.545347     0.367416     0.662244     0.008449
    0.407271     0.413586     0.672893     0.008449
    0.454653     0.548131     0.703924     0.008449
    0.592729     0.693275     0.498039     0.008449
    0.592729     0.498039     0.306725     0.008449
    0.592729     0.306725     0.501961     0.008449
    0.687891     0.434972     0.580166     0.008449
    0.312109     0.476653     0.399451     0.008449
    0.545347     0.632584     0.337756     0.008449
    0.454653     0.451869     0.296076     0.008449
    0.407271     0.672893     0.586414     0.008449
    0.407271     0.327107     0.413586     0.008449
    0.687891     0.580166     0.565028     0.008449
    0.545347     0.662244     0.632584     0.008449
    0.687891     0.419834     0.434972     0.008449
    0.454653     0.296076     0.548131     0.008449
    0.312109     0.600549     0.476653     0.008449
    0.545347     0.337756     0.367416     0.008449
    0.312109     0.399451     0.523347     0.008449
    0.454653     0.703924     0.451869     0.008449
