===== USPEX WARNING @ 19:12:28 28-Feb-2025 ===== 
The structure after relaxation cannot satisfy distance constraint
1.00
20.6931            0            0
0      20.4108            0
0            0      25.6298
 O  Cu 
24  24
Direct
0.22481     0.54938     0.51663
0.22481     0.47233     0.46343
0.22481     0.44778     0.50966
0.22481      0.4954     0.54254
0.22481     0.53512     0.46774
0.46452     0.67009     0.53743
0.46452     0.39002      0.3901
0.46452     0.33477     0.54934
0.46452     0.50786     0.64039
0.46452     0.59726     0.38274
0.50096         0.5         0.5
0.6853         0.5         0.5
0.71743     0.69692     0.55244
0.71743     0.37939      0.3654
0.71743     0.30199     0.54975
0.71743     0.49823     0.66535
0.71743     0.62348     0.36706
0.53375     0.56534     0.51408
0.53375     0.45753     0.45802
0.53375     0.43675     0.51919
0.53375     0.50337     0.55384
0.53375     0.53701     0.45487
0.4584         0.5         0.5
0.42146         0.5         0.5
0.6393     0.57343     0.55099
0.6393     0.47823     0.42438
0.6393     0.40296     0.49312
0.6393      0.4618     0.57137
0.6393     0.58358     0.46014
0.35441     0.58936     0.56411
0.35441     0.47502      0.4063
0.35441     0.38039     0.48996
0.35441     0.45105     0.58749
0.35441     0.60418     0.45213
0.82996     0.56885     0.56691
0.82996     0.49368     0.41364
0.82996     0.39492      0.4781
0.82996     0.44137     0.57282
0.82996     0.60118     0.46853
0.29714       0.642     0.48552
0.29714     0.37443     0.44525
0.29714     0.39581     0.57818
0.29714     0.56117     0.60308
0.29714     0.52659     0.38798
0.35855         0.5         0.5
0.28336         0.5         0.5
0.78319         0.5         0.5
0.20222         0.5         0.5


Struture before relaxation, for checking
1.00
20.6931            0            0
0      20.4108            0
0            0      25.6298
 O  Cu 
24  24
Direct
0.22481     0.54938     0.51663
0.22481     0.47233     0.46343
0.22481     0.44778     0.50966
0.22481      0.4954     0.54254
0.22481     0.53512     0.46774
0.46452     0.67009     0.53743
0.46452     0.39002      0.3901
0.46452     0.33477     0.54934
0.46452     0.50786     0.64039
0.46452     0.59726     0.38274
0.50095         0.5         0.5
0.6853         0.5         0.5
0.71743     0.69692     0.55244
0.71743     0.37939      0.3654
0.71743     0.30199     0.54975
0.71743     0.49823     0.66535
0.71743     0.62348     0.36706
0.53375     0.56534     0.51408
0.53375     0.45754     0.45802
0.53375     0.43675     0.51919
0.53375     0.50337     0.55384
0.53375     0.53701     0.45487
0.4584         0.5         0.5
0.42146         0.5         0.5
0.6393     0.57343     0.55099
0.6393     0.47823     0.42438
0.6393     0.40296     0.49312
0.6393      0.4618     0.57137
0.6393     0.58358     0.46014
0.35441     0.58936     0.56411
0.35441     0.47503      0.4063
0.35441     0.38039     0.48996
0.35441     0.45105     0.58749
0.35441     0.60418     0.45213
0.82996     0.56885     0.56691
0.82996     0.49368     0.41364
0.82996     0.39492      0.4781
0.82996     0.44137     0.57282
0.82996     0.60118     0.46853
0.29714       0.642     0.48552
0.29714     0.37443     0.44524
0.29714     0.39581     0.57818
0.29714     0.56117     0.60307
0.29714     0.52659     0.38798
0.35855         0.5         0.5
0.28336         0.5         0.5
0.78319         0.5         0.5
0.20222         0.5         0.5


===== USPEX WARNING @ 19:12:28 28-Feb-2025 ===== 
The structure after relaxation cannot satisfy distance constraint
1.00
19.0439            0            0
0      18.8833            0
0            0      32.2873
 O  Cu 
24  24
Direct
0.25864         0.5         0.5
0.83593     0.49889     0.41002
0.83593     0.37903     0.44441
0.83593     0.61959     0.44339
0.83593     0.35026     0.52066
0.83593     0.65023     0.51939
0.83593     0.43425     0.58135
0.83593     0.56775     0.58078
0.77611     0.49928     0.44213
0.77611      0.4222     0.46425
0.77611     0.57691     0.46359
0.77611      0.4037     0.51328
0.77611     0.59662     0.51247
0.77611     0.45771     0.55232
0.77611     0.54358     0.55196
0.99385         0.5         0.5
0.30921         0.5         0.5
0.72977     0.49874     0.39828
0.72977     0.36324     0.43716
0.72977     0.63519       0.436
0.72977     0.33072     0.52335
0.72977     0.66984     0.52192
0.72977     0.42567     0.59196
0.72977     0.57659     0.59133
0.20078         0.5         0.5
0.042716     0.49939     0.45099
0.042716     0.43411     0.46972
0.042716     0.56513     0.46917
0.042716     0.41844     0.51125
0.042716     0.58183     0.51056
0.042716     0.46419     0.54431
0.042716      0.5369       0.544
0.89962         0.5         0.5
0.47357     0.49929      0.4429
0.47357     0.42323     0.46472
0.47357     0.57589     0.46408
0.47357     0.40498     0.51311
0.47357     0.59534      0.5123
0.47357     0.45828     0.55162
0.47357       0.543     0.55127
0.86793         0.5         0.5
0.3519     0.49918     0.43403
0.3519     0.41131     0.45924
0.3519     0.58768      0.4585
0.3519     0.39022     0.51514
0.3519     0.61015     0.51421
0.3519     0.45179     0.55964
0.3519     0.54967     0.55923


Struture before relaxation, for checking
1.00
19.0439            0            0
0      18.8833            0
0            0      32.2873
 O  Cu 
24  24
Direct
0.25864         0.5         0.5
0.83593     0.49889     0.41002
0.83593     0.37903     0.44441
0.83593     0.61959     0.44339
0.83593     0.35026     0.52066
0.83593     0.65023     0.51939
0.83593     0.43425     0.58135
0.83593     0.56775     0.58078
0.7761     0.49928     0.44213
0.7761      0.4222     0.46425
0.7761     0.57691     0.46359
0.7761      0.4037     0.51328
0.7761     0.59662     0.51247
0.7761     0.45771     0.55232
0.7761     0.54357     0.55196
-0.0061539         0.5         0.5
0.30921         0.5         0.5
0.72977     0.49874     0.39828
0.72977     0.36324     0.43715
0.72977     0.63519       0.436
0.72977     0.33072     0.52335
0.72977     0.66984     0.52192
0.72977     0.42567     0.59196
0.72977     0.57659     0.59133
0.20078         0.5         0.5
0.042716     0.49939     0.45099
0.042716     0.43411     0.46972
0.042716     0.56513     0.46917
0.042716     0.41844     0.51125
0.042716     0.58183     0.51056
0.042716     0.46419     0.54431
0.042716      0.5369       0.544
0.89962         0.5         0.5
0.47357     0.49929      0.4429
0.47357     0.42323     0.46472
0.47357     0.57589     0.46408
0.47357     0.40498     0.51311
0.47357     0.59534      0.5123
0.47357     0.45828     0.55162
0.47357       0.543     0.55126
-0.13207         0.5         0.5
0.3519     0.49918     0.43403
0.3519     0.41131     0.45924
0.3519     0.58768      0.4585
0.3519     0.39022     0.51514
0.3519     0.61015     0.51421
0.3519      0.4518     0.55964
0.3519     0.54967     0.55923


