EA1
 1.0000000000000000
     4.6114995863125232    0.0000000000000000    0.0000000000000000
     0.0000000000000000    7.0969668149402896    0.0000000000000000
     0.0000000000000000    0.0000000000000000   32.4473386285206544
 O   Cu 
  20  40
Direct
  0.0529424300000000  0.5518494400000000  0.3149564500000000
  0.0617732100000000  0.9172919800000000  0.4201714900000000
  0.5480331100000000  0.8294005800000001  0.4732273500000000
  0.6921188900000000  0.5885305000000000  0.8648610500000000
  0.9096014099999999  0.0075444900000000  0.8098396400000000
  0.1823397900000000  0.4312711200000000  0.8185990200000000
  0.4672092900000000  0.0040119200000000  0.3592255100000000
  0.5885611300000000  0.4866196200000000  0.4071239300000000
  0.0562047100000000  0.2879051800000000  0.3716369700000000
  0.4317301700000000  0.9686222100000000  0.7651153700000000
  0.1433388500000000  0.4238652000000000  0.4563562300000000
  0.2450252500000000  0.0734574800000000  0.7382232600000000
  0.4574674499999999  0.3537517700000000  0.6642420500000000
  0.3390050400000000  0.7754949500000000  0.2721287800000000
  0.7696877100000000  0.0363590300000000  0.6899711200000000
  0.2619514900000000  0.2183897300000000  0.6442196800000000
  0.9534161799999999  0.5628254700000000  0.6551463100000000
  0.9511146800000000  0.0403589900000000  0.3084652400000000
  0.6872349700000000  0.8689893300000000  0.2470864100000000
  0.7509780800000000  0.3603260800000000  0.7599551900000000
  0.9906896999999999  0.2987861900000000  0.3074288200000000
  0.9580432300000000  0.7214484600000000  0.2719640900000000
  0.7841373500000000  0.3454212200000000  0.2402537500000000
  0.8523196199999999  0.8027811700000000  0.6710101000000001
  0.8524223800000000  0.2711873500000000  0.6550924800000000
  0.5761624200000000  0.9545333600000000  0.3018953500000000
  0.3438087700000000  0.9694006600000000  0.6805236600000000
  0.4143690000000000  0.9651807300000002  0.5215296200000000
  0.2671875000000000  0.2821367100000000  0.8713342300000000
  0.8019313500000000  0.7053944400000000  0.5136909700000000
  0.7553450800000000  0.1237492700000000  0.8607220900000000
  0.7680134000000000  0.3848572400000000  0.9045529100000000
  0.0334878800000000  0.9900932700000000  0.3638173600000000
  0.8540693100000000  0.5398481600000000  0.3652012500000000
  0.4642872100000000  0.2645659800000000  0.3782431700000000
  0.8274342800000000  0.0375696000000000  0.7510535800000000
  0.3712503600000000  0.6218921400000000  0.6534646300000000
  0.2912032500000000  0.3564479800000000  0.5081330200000000
  0.7629619300000000  0.4439819700000000  0.8144891900000000
  0.6729574800000000  0.0384135300000000  0.1971370900000000
  0.7319942200000000  0.4159240900000000  0.4623377800000000
  0.1736563400000000  0.9087919300000000  0.1639413400000000
  0.1409818100000000  0.5676558400000000  0.1781633000000000
  0.6600260800000000  0.7252018000000000  0.1626944700000000
  0.9117840700000001  0.0280014600000000  0.5548475300000000
  0.8092198800000000  0.3872737900000000  0.5479614200000000
  0.3645403100000000  0.2219812200000000  0.5772520500000000
  0.3241527000000000  0.8842126500000002  0.5990688100000000
  0.8305093600000000  0.7054076900000000  0.5905661600000000
  0.3311045000000000  0.5813237600000000  0.5644051900000000
  0.3340827700000000  0.3707576700000000  0.7643211500000000
  0.1717223400000000  0.2257768100000000  0.1923836500000000
  0.6541461100000000  0.3767571000000000  0.1695930500000000
  0.7915260800000000  0.7960233700000000  0.8366478700000000
  0.3143286200000000  0.9880968900000000  0.8246490500000000
  0.2779400500000000  0.6465100499999999  0.8536650000000000
  0.1872170700000000  0.1500637600000000  0.4462912100000000
  0.6259553500000000  0.9389324800000000  0.4175902000000000
  0.2895247100000000  0.6783198499999999  0.4189489400000000
  0.8837723000000001  0.4984332900000000  0.7152740900000000
EA2
 1.0000000000000000
     7.8818489065602488    0.0000000000000000    0.0000000000000000
     0.0000000000000000   10.9207918736467811    0.0000000000000000
     0.0000000000000000    0.0000000000000000   18.0072652715826429
 O   Cu 
  20  40
Direct
  0.8196039200000000  0.5370684500000000  0.6759157800000000
  0.1119005800000000  0.4905634200000000  0.2307222000000000
  0.7088023900000000  0.8765754400000000  0.2206303500000000
  0.1329611600000000  0.9965724400000000  0.5017106700000000
  0.2223954100000000  0.2597221200000000  0.5391351000000000
  0.1368649200000000  0.8173215399999999  0.2803006100000000
  0.0234563200000000  0.8305750500000000  0.7386834300000000
  0.7521403700000000  0.2783762300000000  0.5295742100000000
  0.7401664600000000  0.7026480899999999  0.4347794200000000
  0.7771543100000000  0.2080228200000000  0.7276056600000000
  0.5449070800000000  0.5253150500000000  0.5356859300000000
  0.2035673700000000  0.7209936100000000  0.4800135300000000
  0.7710002700000000  0.9409847300000000  0.5804286600000000
  0.7756408200000000  0.1082984500000000  0.3840246900000000
  0.3779157300000000  0.6222962800000000  0.7138150300000000
  0.4155443200000000  0.4184417100000000  0.3841269600000000
  0.4594630800000000  0.0931898500000000  0.3226151200000000
  0.3972385800000000  0.0210819400000000  0.6774331200000000
  0.7778466700000000  0.4545606200000000  0.3620425100000000
  0.0682898400000000  0.1638537400000000  0.2238269000000000
  0.6191687200000000  0.4992430300000000  0.4392010900000000
  0.2188888300000000  0.0206251100000000  0.5995435600000000
  0.8074531200000000  0.3720302800000000  0.7045375200000000
  0.1496844100000000  0.7387317300000000  0.5873511400000000
  0.0741933900000000  0.2201845900000000  0.3502116100000000
  0.1663856000000000  0.5152084200000000  0.7017966600000000
  0.6079540900000000  0.9872816300000000  0.2778980600000000
  0.5846199600000000  0.1250543700000000  0.6993343400000001
  0.9239546400000000  0.6806223000000000  0.7082451700000000
  0.3971985800000000  0.5734685200000000  0.6071976500000000
  0.2349559300000000  0.4580120800000000  0.3188799000000000
  0.9843692200000000  0.2860201100000000  0.5327421500000000
  0.1049408800000000  0.6507255199999999  0.2542797700000000
  0.2738392100000000  0.1122599000000000  0.4440334000000000
  0.9611231000000000  0.6759315500000000  0.4744639100000000
  0.2699367500000000  0.1273490300000000  0.2649382300000000
  0.8443237600000000  0.6399923300000000  0.3397425100000000
  0.9528638800000000  0.0534979500000000  0.4427118600000000
  0.7797006700000000  0.2819369600000000  0.3815716000000000
  0.0713822200000000  0.3283967500000000  0.2249006200000000
  0.1693224200000000  0.7569794500000001  0.3787099500000000
  0.9721601300000000  0.1477873100000000  0.6719412600000000
  0.5855582800000000  0.0308156400000000  0.4392553400000000
  0.1064024500000000  0.5074206600000000  0.5548068500000000
  0.4591043500000000  0.2553334800000000  0.3576581300000000
  0.1267461400000000  0.9756162900000002  0.3371412100000000
  0.5209706600000000  0.9622746300000001  0.5872439699999999
  0.9843019400000000  0.4493439600000000  0.4259460000000000
  0.6071597800000000  0.5889068600000000  0.7074113200000000
  0.7812319400000000  0.5039018700000000  0.5612756300000000
  0.0843869700000000  0.3131632200000000  0.7609284500000000
  0.2700672600000000  0.1515369200000000  0.7220922800000000
  0.3440309300000000  0.8836234800000001  0.4805628100000000
  0.2760610100000000  0.3545280700000000  0.4579941500000000
  0.2255586500000000  0.7521287200000000  0.7189148400000001
  0.9027397400000000  0.8302410700000000  0.2597322700000000
  0.7609230500000000  0.1161329800000000  0.5595764500000000
  0.2098440200000000  0.3205048200000000  0.6386434900000000
  0.9316207300000000  0.9026807999999999  0.6542419400000000
  0.7266544500000000  0.8410780600000000  0.4948165800000000
EA3
 1.0000000000000000
     7.1581625822360806    0.0000000000000000    0.0000000000000000
     0.0000000000000000    7.1581625822360788    0.0000000000000000
     0.0000000000000000    0.0000000000000000   22.8618492430406270
 O   Cu 
  20  40
Direct
  0.0699182600000000  0.2608518900000000  0.8188393000000000
  0.4693836500000000  0.5060964800000000  0.7552709300000000
  0.6002581700000000  0.4331347000000000  0.2741668900000000
  0.4350457300000000  0.6264902900000000  0.5981545100000000
  0.2522299000000000  0.1414540600000000  0.2843637700000000
  0.7364702300000000  0.9351506300000000  0.6438300900000000
  0.9029526400000000  0.7419131300000000  0.7979558000000000
  0.8845016400000000  0.2306390000000000  0.4600543800000000
  0.1954739200000000  0.9290852800000000  0.4338117100000001
  0.7120301999999999  0.0659108600000000  0.8026303500000000
  0.6370226300000000  0.6274097000000000  0.4457880300000000
  0.0624779300000000  0.1910297300000000  0.6121399900000000
  0.3944489700000000  0.2383859100000000  0.5115468300000000
  0.4332933600000000  0.7686839700000000  0.1588411700000000
  0.3371338400000000  0.6059416200000000  0.3549203300000001
  0.7724566899999999  0.4355728300000000  0.6637684200000000
  0.1962301900000000  0.9402796900000000  0.7443886000000000
  0.7220640600000001  0.0656718200000000  0.3577066700000000
  0.9639569900000000  0.6935618500000000  0.5577789600000000
  0.9869048300000000  0.7715202900000000  0.2429956500000000
  0.5050191200000000  0.7785505799999999  0.3043142600000000
  0.2013803800000000  0.2712990200000000  0.4457755200000000
  0.0524939600000000  0.4045162000000000  0.6688251300000000
  0.5943107300000000  0.9221671600000000  0.2044075100000000
  0.3904423300000000  0.9561726300000001  0.5030860600000000
  0.6739324600000000  0.2033847500000000  0.6395582399999999
  0.6735248300000000  0.6492638500000000  0.7763449000000000
  0.4954821300000001  0.6225587699999999  0.5170031899999999
  0.1060392400000000  0.6845425000000001  0.7275544400000000
  0.4414308000000001  0.4711512900000000  0.6694094700000000
  0.6327429600000001  0.5105313299999999  0.3630111300000000
  0.6376372600000000  0.2141153000000000  0.4839508699999999
  0.8272353099999999  0.6861175700000000  0.6473143700000000
  0.2427476900000000  0.3637321600000000  0.3359392800000000
  0.2571279800000000  0.3679706500000000  0.7749041899999999
  0.6720096600000000  0.8612666400000000  0.4081439900000000
  0.1576698800000000  0.6888910000000000  0.3001665200000000
  0.4935978600000000  0.5885938500000000  0.2148499000000000
  0.6047326400000000  0.2868569700000000  0.7791006800000000
  0.7009253800000000  0.2298369400000000  0.2277617100000000
  0.3435353800000000  0.2030720800000000  0.5986862600000000
  0.0901260300000000  0.9993766400000000  0.6682217000000000
  0.8348780600000000  0.9496552699999999  0.2874838500000000
  0.9810688000000000  0.0154733100000000  0.7988560099999999
  0.0360150100000000  0.8377520899999999  0.4941529700000000
  0.1926959600000000  0.0239850500000000  0.3576592900000000
  0.7061814800000000  0.9759122600000000  0.7257876500000000
  0.9600288000000000  0.1995724200000000  0.5378948200000000
  0.2022138700000000  0.7829762800000000  0.1943666800000000
  0.4812806000000000  0.8941790500000000  0.6131122400000000
  0.9147438700000001  0.2663464500000000  0.3673811300000000
  0.9672725500000000  0.4951740500000000  0.8144241800000001
  0.8938198900000000  0.5243625700000000  0.4505579900000000
  0.0170006700000000  0.2492863100000000  0.2582424600000000
  0.1386820500000000  0.5024332000000000  0.5282110600000000
  0.5034953100000000  0.1113249400000000  0.3112695800000000
  0.3868856500000000  0.1046540900000000  0.7093873800000000
  0.8269509000000000  0.5695173200000000  0.2610565900000000
  0.2271015500000000  0.6271900800000000  0.4325554300000001
  0.1712871000000000  0.6974536300000000  0.6186930700000000
EA4
 1.0000000000000000
     8.0618443747615149    0.0000000000000000    0.0000000000000000
     0.0000000000000000    8.0618443747615149    0.0000000000000000
     0.0000000000000000    0.0000000000000000   15.9867745781844377
 O   Cu 
  20  40
Direct
  0.1513444600000000  0.9365213900000000  0.7041092600000000
  0.5725495700000000  0.4805096800000000  0.2101304700000000
  0.9126110000000001  0.9633046199999999  0.5076091200000000
  0.0847097900000000  0.9173908200000001  0.1217535200000000
  0.3860922800000000  0.7826966900000000  0.1813811300000000
  0.7696949700000000  0.2063656200000000  0.1967936100000000
  0.4437680900000000  0.3462244400000000  0.6698425700000000
  0.5187770100000000  0.7863853000000000  0.7418526100000000
  0.3662893700000000  0.2585395200000000  0.8976165400000000
  0.8216134400000000  0.0439118300000000  0.8576547900000000
  0.3601450000000000  0.7614849600000000  0.5263430000000000
  0.0150174500000000  0.3527580400000000  0.3833506000000000
  0.7409788800000000  0.4465161900000000  0.7536091300000000
  0.0927591000000000  0.6208260500000000  0.8736497300000000
  0.7669169000000000  0.5431275500000000  0.4716835100000000
  0.4464413300000000  0.4610139800000000  0.4345364500000000
  0.7647810200000000  0.8767659900000000  0.3105314800000000
  0.2964506300000000  0.2449266100000000  0.1888957600000000
  0.0218550500000000  0.2498459500000000  0.5957299800000000
  0.2130898900000000  0.9647982000000001  0.3779711800000000
  0.4766802100000000  0.8188035700000000  0.6256042600000000
  0.8087904700000000  0.5006833800000000  0.2044927200000000
  0.7587883400000000  0.2439147800000000  0.8101726299999999
  0.8735398599999999  0.7364229799999999  0.5087580300000000
  0.2288643600000000  0.4019911600000000  0.4119077100000000
  0.4843602800000000  0.1408541900000000  0.6074515900000000
  0.3399444700000000  0.5429614800000000  0.1898865500000000
  0.0827399600000000  0.3740427200000000  0.1757791900000000
  0.5359418500000001  0.2073090400000000  0.1950314000000000
  0.6841229900000000  0.0096030400000000  0.5121376399999999
  0.3950399700000000  0.9745135000000000  0.4687042100000000
  0.5864030600000000  0.8546787500000000  0.2321816700000000
  0.9481942300000000  0.4036185000000000  0.5108373300000000
  0.1629641800000000  0.6305816200000000  0.5231108100000000
  0.9884463999999999  0.9144937900000000  0.3464983600000000
  0.9793738600000000  0.0138698000000000  0.7760393799999999
  0.1984162500000000  0.1070726200000000  0.8714637500000000
  0.0440389200000000  0.7041847100000000  0.1714271500000000
  0.5579725800000001  0.6506930700000000  0.4959270100000000
  0.8838000600000000  0.3526874700000000  0.6719737800000000
  0.2266441800000000  0.4381158800000000  0.8855200400000000
  0.0536189800000000  0.5484962100000000  0.3012923500000000
  0.3806399800000000  0.9930296900000000  0.7517245900000000
  0.0066470800000000  0.6337977200000000  0.6527905800000000
  0.6137550800000000  0.0488653700000000  0.3556273100000000
  0.8892869400000000  0.2487252200000000  0.2980594100000000
  0.2812542600000000  0.8155913500000000  0.2914367100000000
  0.6752623400000000  0.9148457000000000  0.7971949800000000
  0.4174305700000000  0.2834009100000000  0.7838540700000000
  0.1466837000000000  0.7591617700000000  0.7861210100000000
  0.5131836500000000  0.5591590100000000  0.7108604200000000
  0.2910425900000000  0.1416799300000000  0.3053848000000000
  0.7735434300000000  0.6631005600000000  0.3630756300000000
  0.9338073600000000  0.0650604700000000  0.1584742700000000
  0.3015372800000000  0.0066562600000000  0.1586057600000000
  0.0376218600000000  0.9479648500000000  0.6030398200000000
  0.2241697700000000  0.3349256600000000  0.6295807400000000
  0.9229488400000000  0.5427120600000001  0.8077486900000000
  0.5158840600000000  0.2437681900000000  0.4582042600000000
  0.5170877800000000  0.4704068700000000  0.3230042300000000
