EA151   8.593  8.593 21.019 90.080 90.080 90.080 Sym.group: no SG
1.0000
    8.593017     0.000000     0.000000
   -0.011983     8.593000     0.000000
   -0.029353    -0.029394    21.018959
  20   40 
Selective dynamics
Direct
    1.000000     0.100000     0.429088  T  T  T
    0.500000     0.100000     0.429088  T  T  T
    0.500000     0.900000     0.429088  T  T  T
    0.454251     0.423293     0.419676  T  T  T
    0.000610     0.000610     0.004757  F  F  F
    0.500610     0.000610     0.004757  F  F  F
    0.000610     0.500610     0.004757  F  F  F
    0.500610     0.500610     0.004757  F  F  F
    0.250790     0.250800     0.107041  F  F  F
    0.750790     0.250800     0.107041  F  F  F
    0.250790     0.750800     0.107041  F  F  F
    0.750790     0.750800     0.107041  F  F  F
    0.000610     0.000610     0.209175  F  F  F
    0.500610     0.000610     0.209175  F  F  F
    0.000610     0.500610     0.209175  F  F  F
    0.500610     0.500610     0.209175  F  F  F
    0.250790     0.250800     0.311459  F  F  F
    0.750790     0.250800     0.311459  F  F  F
    0.250790     0.750800     0.311459  F  F  F
    0.750790     0.750800     0.311459  F  F  F
    0.565291     0.686213     0.419676  T  T  T
    0.065291     0.923293     0.419676  T  T  T
    0.712300     0.982773     0.406743  T  T  T
    0.700000     0.300000     0.429088  T  T  T
    0.900000     0.700000     0.429088  T  T  T
    0.042801     0.363253     0.441385  T  T  T
    0.267201     0.781453     0.437655  T  T  T
    0.252341     0.281453     0.437655  T  T  T
    0.125670     0.125670     0.055888  F  F  F
    0.625670     0.125670     0.055888  F  F  F
    0.375590     0.375590     0.055892  F  F  F
    0.875590     0.375590     0.055892  F  F  F
    0.125670     0.625670     0.055888  F  F  F
    0.625670     0.625670     0.055888  F  F  F
    0.375590     0.875590     0.055892  F  F  F
    0.875590     0.875590     0.055892  F  F  F
    0.375580     0.125690     0.158064  F  F  F
    0.875580     0.125690     0.158064  F  F  F
    0.125680     0.375590     0.158064  F  F  F
    0.625680     0.375590     0.158064  F  F  F
    0.375580     0.625690     0.158064  F  F  F
    0.875580     0.625690     0.158064  F  F  F
    0.125680     0.875590     0.158064  F  F  F
    0.625680     0.875590     0.158064  F  F  F
    0.125670     0.125670     0.260306  F  F  F
    0.625670     0.125670     0.260306  F  F  F
    0.375590     0.375590     0.260313  F  F  F
    0.875590     0.375590     0.260313  F  F  F
    0.125670     0.625670     0.260306  F  F  F
    0.625670     0.625670     0.260306  F  F  F
    0.375590     0.875590     0.260313  F  F  F
    0.875590     0.875590     0.260313  F  F  F
    0.375580     0.125690     0.362482  F  F  F
    0.875580     0.125690     0.362482  F  F  F
    0.125680     0.375590     0.362482  F  F  F
    0.625680     0.375590     0.362482  F  F  F
    0.375580     0.625690     0.362482  F  F  F
    0.875580     0.625690     0.362482  F  F  F
    0.125680     0.875590     0.362482  F  F  F
    0.625680     0.875590     0.362482  F  F  F
