EA161  19.491 18.934 17.600 90.00 90.00 90.00 Sym.group:    0
1.0000
   19.491433     0.000000     0.000000
    0.000000    18.933581     0.000000
    0.000000     0.000000    17.600290
   O  Cu
   8   24 
Direct
    0.646976     0.548659     0.530301     0.036844
    0.499584     0.642835     0.489021     0.039271
    0.606285     0.514826     0.485242     0.026499
    0.486490     0.588928     0.527608     0.028057
    0.510937     0.351626     0.580422     0.013160
    0.365249     0.447102     0.589065     0.013041
    0.460849     0.368086     0.409531     0.012472
    0.624337     0.404071     0.401937     0.012139
    0.515049     0.486144     0.660600     0.009675
    0.595094     0.462866     0.412433     0.021837
    0.582919     0.425849     0.599326     0.011146
    0.462956     0.668212     0.504437     0.035224
    0.686195     0.527515     0.515261     0.034871
    0.641800     0.567225     0.485508     0.039227
    0.516954     0.644228     0.535252     0.036802
    0.479797     0.631134     0.383281     0.013363
    0.642526     0.520162     0.633254     0.011286
    0.616861     0.533187     0.434810     0.030472
    0.496527     0.604178     0.580527     0.032294
    0.510694     0.494079     0.502326     0.019432
    0.372339     0.517044     0.421087     0.013888
    0.521211     0.355438     0.406547     0.018387
    0.381080     0.454628     0.417617     0.013398
    0.425917     0.619267     0.424995     0.015675
    0.450659     0.364629     0.583273     0.018467
    0.363768     0.510736     0.594389     0.017951
    0.557402     0.315506     0.489560     0.011891
    0.355485     0.400397     0.502654     0.013569
    0.367799     0.621058     0.512979     0.012675
    0.404455     0.348291     0.497196     0.013865
    0.335034     0.559088     0.510793     0.012878
    0.516771     0.503003     0.378769     0.013469
