EA0    20.428 19.727 14.442 90.00 90.00 90.00 Sym.group:    0
1.0000
   20.427849     0.000000     0.000000
    0.000000    19.727375     0.000000
    0.000000     0.000000    14.441859
  12   24 
Direct
    0.537851     0.645978     0.442038
    0.645521     0.540178     0.440392
    0.601264     0.397044     0.440511
    0.460737     0.361411     0.439637
    0.347939     0.457905     0.440904
    0.387462     0.610489     0.446124
    0.370147     0.569397     0.561870
    0.375308     0.421298     0.558579
    0.505692     0.351256     0.558768
    0.638861     0.422641     0.557569
    0.635528     0.581217     0.555257
    0.495577     0.645038     0.558347
    0.538086     0.641918     0.558980
    0.650687     0.539694     0.556926
    0.608445     0.391122     0.556958
    0.463464     0.357709     0.556361
    0.354643     0.459994     0.558170
    0.392733     0.607089     0.563029
    0.364718     0.572658     0.445733
    0.368658     0.419101     0.441961
    0.502902     0.355065     0.441802
    0.631555     0.428417     0.440141
    0.630491     0.581611     0.438258
    0.495267     0.649085     0.441698
    0.515398     0.628723     0.501317
    0.625451     0.554540     0.496471
    0.608161     0.421397     0.496292
    0.485428     0.373060     0.498242
    0.376031     0.447445     0.501798
    0.392374     0.580711     0.505894
    0.519756     0.691532     0.497365
    0.682392     0.576787     0.501150
    0.651538     0.376690     0.505787
    0.476696     0.310748     0.501618
    0.322625     0.416968     0.494618
    0.340612     0.614083     0.499436
