EA43   19.814 19.814 19.814 90.00 90.00 90.00 Sym.group:    0
1.0000
   19.813983     0.000000     0.000000
    0.000000    19.813983     0.000000
    0.000000     0.000000    19.813983
   O  Cu
  18   24 
Direct
    0.588591     0.643242     0.427745
    0.411409     0.643242     0.572255
    0.591419     0.356758     0.568644
    0.408581     0.356758     0.431356
    0.354982     0.429536     0.412869
    0.573323     0.409977     0.641799
    0.641407     0.570464     0.407122
    0.567576     0.590023     0.355374
    0.645018     0.429536     0.587131
    0.432424     0.590023     0.644626
    0.358593     0.570464     0.592878
    0.426677     0.409977     0.358201
    0.555401     0.498736     0.327564
    0.444599     0.498736     0.672436
    0.562273     0.501264     0.670075
    0.437727     0.501264     0.329925
    0.500083     0.328711     0.441138
    0.671230     0.441152     0.495301
    0.497556     0.671289     0.441189
    0.671280     0.558848     0.497827
    0.499917     0.328711     0.558862
    0.328720     0.558848     0.502173
    0.502444     0.671289     0.558811
    0.328770     0.441152     0.504699
    0.648404     0.528939     0.435646
    0.351596     0.528939     0.564354
    0.650865     0.471061     0.558350
    0.349135     0.471061     0.441650
    0.468064     0.438636     0.350946
    0.561932     0.350335     0.527702
    0.525931     0.561364     0.349785
    0.560772     0.649665     0.469836
    0.531936     0.438636     0.649054
    0.439228     0.649665     0.530164
    0.474069     0.561364     0.650215
    0.438068     0.350335     0.472298
    0.500000     0.681033     0.500000
    0.500000     0.318967     0.500000
    0.503631     0.500000     0.680997
    0.496369     0.500000     0.319003
    0.319003     0.500000     0.503631
    0.680997     0.500000     0.496369
EA84   21.484 20.694 14.235 90.00 90.00 90.00 Sym.group:    0
1.0000
   21.484447     0.000000     0.000000
    0.000000    20.694300     0.000000
    0.000000     0.000000    14.234723
   O  Cu
  18   24 
Direct
    0.519775     0.663512     0.503741
    0.626511     0.400464     0.503741
    0.353714     0.436023     0.503741
    0.384483     0.386973     0.496259
    0.652043     0.452652     0.496259
    0.463475     0.660374     0.496259
    0.347957     0.547348     0.503741
    0.615517     0.613027     0.503741
    0.536525     0.339626     0.503741
    0.373489     0.599536     0.496259
    0.480225     0.336488     0.496259
    0.646286     0.563977     0.496259
    0.478237     0.712500     0.459139
    0.688144     0.413318     0.459139
    0.333620     0.374182     0.459139
    0.321878     0.392902     0.540861
    0.678400     0.393401     0.540861
    0.499722     0.713698     0.540861
    0.321600     0.606599     0.459139
    0.678122     0.607098     0.459139
    0.500278     0.286302     0.459139
    0.311856     0.586682     0.540861
    0.521763     0.287500     0.540861
    0.666380     0.625818     0.540861
    0.609176     0.506086     0.443985
    0.450489     0.398798     0.443985
    0.440336     0.595116     0.443985
    0.559664     0.404884     0.556015
    0.549511     0.601202     0.556015
    0.390824     0.493914     0.556015
    0.402517     0.566735     0.540245
    0.604411     0.554278     0.540245
    0.493072     0.378986     0.540245
    0.390592     0.542360     0.459755
    0.519369     0.380452     0.459755
    0.590039     0.577188     0.459755
    0.480631     0.619548     0.540245
    0.609408     0.457640     0.540245
    0.409961     0.422812     0.540245
    0.395589     0.445722     0.459755
    0.597483     0.433265     0.459755
    0.506928     0.621014     0.459755
EA164  21.484 20.694 14.235 90.00 90.00 90.00 Sym.group:    0
1.0000
   21.484447     0.000000     0.000000
    0.000000    20.694300     0.000000
    0.000000     0.000000    14.234723
   O  Cu
  18   24 
Direct
    0.519775     0.663512     0.503741
    0.626511     0.400464     0.503741
    0.353714     0.436023     0.503741
    0.384483     0.386973     0.496259
    0.652043     0.452652     0.496259
    0.463475     0.660374     0.496259
    0.347957     0.547348     0.503741
    0.615517     0.613027     0.503741
    0.536525     0.339626     0.503741
    0.373489     0.599536     0.496259
    0.480225     0.336488     0.496259
    0.646286     0.563977     0.496259
    0.478237     0.712500     0.459139
    0.688144     0.413318     0.459139
    0.333620     0.374182     0.459139
    0.321878     0.392902     0.540861
    0.678400     0.393401     0.540861
    0.499722     0.713698     0.540861
    0.321600     0.606599     0.459139
    0.678122     0.607098     0.459139
    0.500278     0.286302     0.459139
    0.311856     0.586682     0.540861
    0.521763     0.287500     0.540861
    0.666380     0.625818     0.540861
    0.609176     0.506086     0.443985
    0.450489     0.398798     0.443985
    0.440336     0.595116     0.443985
    0.559664     0.404884     0.556015
    0.549511     0.601202     0.556015
    0.390824     0.493914     0.556015
    0.402517     0.566735     0.540245
    0.604411     0.554278     0.540245
    0.493072     0.378986     0.540245
    0.390592     0.542360     0.459755
    0.519369     0.380452     0.459755
    0.590039     0.577188     0.459755
    0.480631     0.619548     0.540245
    0.609408     0.457640     0.540245
    0.409961     0.422812     0.540245
    0.395589     0.445722     0.459755
    0.597483     0.433265     0.459755
    0.506928     0.621014     0.459755
