EA84   21.484 20.694 14.235 90.00 90.00 90.00 Sym.group:    0
1.0000
   21.484447     0.000000     0.000000
    0.000000    20.694300     0.000000
    0.000000     0.000000    14.234723
   O  Cu
  18   24 
Direct
    0.519775     0.663512     0.503741
    0.626511     0.400464     0.503741
    0.353714     0.436023     0.503741
    0.384483     0.386973     0.496259
    0.652043     0.452652     0.496259
    0.463475     0.660374     0.496259
    0.347957     0.547348     0.503741
    0.615517     0.613027     0.503741
    0.536525     0.339626     0.503741
    0.373489     0.599536     0.496259
    0.480225     0.336488     0.496259
    0.646286     0.563977     0.496259
    0.478237     0.712500     0.459139
    0.688144     0.413318     0.459139
    0.333620     0.374182     0.459139
    0.321878     0.392902     0.540861
    0.678400     0.393401     0.540861
    0.499722     0.713698     0.540861
    0.321600     0.606599     0.459139
    0.678122     0.607098     0.459139
    0.500278     0.286302     0.459139
    0.311856     0.586682     0.540861
    0.521763     0.287500     0.540861
    0.666380     0.625818     0.540861
    0.609176     0.506086     0.443985
    0.450489     0.398798     0.443985
    0.440336     0.595116     0.443985
    0.559664     0.404884     0.556015
    0.549511     0.601202     0.556015
    0.390824     0.493914     0.556015
    0.402517     0.566735     0.540245
    0.604411     0.554278     0.540245
    0.493072     0.378986     0.540245
    0.390592     0.542360     0.459755
    0.519369     0.380452     0.459755
    0.590039     0.577188     0.459755
    0.480631     0.619548     0.540245
    0.609408     0.457640     0.540245
    0.409961     0.422812     0.540245
    0.395589     0.445722     0.459755
    0.597483     0.433265     0.459755
    0.506928     0.621014     0.459755
EA43   19.814 19.814 19.814 90.00 90.00 90.00 Sym.group:    0
1.0000
   19.813983     0.000000     0.000000
    0.000000    19.813983     0.000000
    0.000000     0.000000    19.813983
   O  Cu
  18   24 
Direct
    0.588591     0.643242     0.427745
    0.411409     0.643242     0.572255
    0.591419     0.356758     0.568644
    0.408581     0.356758     0.431356
    0.354982     0.429536     0.412869
    0.573323     0.409977     0.641799
    0.641407     0.570464     0.407122
    0.567576     0.590023     0.355374
    0.645018     0.429536     0.587131
    0.432424     0.590023     0.644626
    0.358593     0.570464     0.592878
    0.426677     0.409977     0.358201
    0.555401     0.498736     0.327564
    0.444599     0.498736     0.672436
    0.562273     0.501264     0.670075
    0.437727     0.501264     0.329925
    0.500083     0.328711     0.441138
    0.671230     0.441152     0.495301
    0.497556     0.671289     0.441189
    0.671280     0.558848     0.497827
    0.499917     0.328711     0.558862
    0.328720     0.558848     0.502173
    0.502444     0.671289     0.558811
    0.328770     0.441152     0.504699
    0.648404     0.528939     0.435646
    0.351596     0.528939     0.564354
    0.650865     0.471061     0.558350
    0.349135     0.471061     0.441650
    0.468064     0.438636     0.350946
    0.561932     0.350335     0.527702
    0.525931     0.561364     0.349785
    0.560772     0.649665     0.469836
    0.531936     0.438636     0.649054
    0.439228     0.649665     0.530164
    0.474069     0.561364     0.650215
    0.438068     0.350335     0.472298
    0.500000     0.681033     0.500000
    0.500000     0.318967     0.500000
    0.503631     0.500000     0.680997
    0.496369     0.500000     0.319003
    0.319003     0.500000     0.503631
    0.680997     0.500000     0.496369
EA94   19.799 19.822 19.824 90.00 90.00 90.00 Sym.group:    0
1.0000
   19.798793     0.000000     0.000000
    0.000000    19.822026     0.000000
    0.000000     0.000000    19.823915
   O  Cu
  18   24 
Direct
    0.547623     0.356632     0.394665
    0.453540     0.356653     0.602928
    0.408437     0.643024     0.428160
    0.588565     0.643686     0.569201
    0.621351     0.569778     0.617395
    0.344019     0.590861     0.466150
    0.553994     0.428120     0.339835
    0.622502     0.409104     0.398324
    0.377214     0.571202     0.382368
    0.377310     0.411031     0.603167
    0.447087     0.430226     0.660168
    0.656591     0.589014     0.534466
    0.659285     0.502602     0.403842
    0.352497     0.500546     0.599458
    0.315401     0.497918     0.487419
    0.676010     0.499924     0.520872
    0.556276     0.673368     0.482466
    0.460118     0.558080     0.334540
    0.557027     0.330323     0.485679
    0.458554     0.440460     0.333351
    0.442525     0.669757     0.513113
    0.542403     0.441249     0.665279
    0.442018     0.327148     0.511240
    0.539339     0.558945     0.666121
    0.524260     0.469904     0.340843
    0.476200     0.471514     0.659477
    0.404097     0.529252     0.369173
    0.595480     0.528571     0.630568
    0.654394     0.561071     0.493034
    0.455844     0.648415     0.445156
    0.637856     0.438471     0.437911
    0.513598     0.351348     0.431746
    0.349020     0.561812     0.508199
    0.486570     0.349227     0.564622
    0.360132     0.439184     0.565135
    0.541520     0.651457     0.550387
    0.499269     0.318974     0.498582
    0.499721     0.681299     0.497791
    0.324659     0.498681     0.546494
    0.677345     0.501918     0.460959
    0.543201     0.500122     0.675266
    0.457148     0.499130     0.324451
EA46   19.538 19.718 19.910 90.00 90.00 90.00 Sym.group:    0
1.0000
   19.537578     0.000000     0.000000
    0.000000    19.717722     0.000000
    0.000000     0.000000    19.910037
   O  Cu
  18   24 
Direct
    0.474865     0.500000     0.323545
    0.381122     0.405416     0.596761
    0.560942     0.653040     0.572096
    0.525135     0.500000     0.676455
    0.618878     0.405416     0.403239
    0.439058     0.653040     0.427904
    0.327923     0.500000     0.443148
    0.618878     0.594584     0.403239
    0.560942     0.346960     0.572096
    0.672077     0.500000     0.556852
    0.381122     0.594584     0.596761
    0.439058     0.346960     0.427904
    0.500000     0.684353     0.500000
    0.500000     0.315647     0.500000
    0.381219     0.500000     0.359478
    0.618781     0.500000     0.640522
    0.356798     0.500000     0.616559
    0.643202     0.500000     0.383441
    0.324757     0.556968     0.524037
    0.675243     0.443032     0.475963
    0.448155     0.407824     0.350296
    0.551845     0.592176     0.649704
    0.465105     0.350855     0.601703
    0.534895     0.649145     0.398297
    0.391694     0.350855     0.514856
    0.608306     0.649145     0.485144
    0.556462     0.443032     0.335440
    0.443538     0.556968     0.664560
    0.640347     0.407824     0.577666
    0.359653     0.592176     0.422334
    0.608306     0.350855     0.485144
    0.391694     0.649145     0.514856
    0.556462     0.556968     0.335440
    0.443538     0.443032     0.664560
    0.640347     0.592176     0.577666
    0.359653     0.407824     0.422334
    0.675243     0.556968     0.475963
    0.324757     0.443032     0.524037
    0.448155     0.592176     0.350296
    0.551845     0.407824     0.649704
    0.465105     0.649145     0.601703
    0.534895     0.350855     0.398297
EA154  19.510 19.910 19.666 90.00 90.00 90.00 Sym.group:    0
1.0000
   19.509543     0.000000     0.000000
    0.000000    19.910042     0.000000
    0.000000     0.000000    19.666470
   O  Cu
  18   24 
Direct
    0.560164     0.657999     0.558215
    0.316090     0.488640     0.458170
    0.615252     0.406260     0.396808
    0.439836     0.342001     0.441785
    0.540783     0.510777     0.668086
    0.604845     0.593100     0.387539
    0.423841     0.644315     0.425950
    0.683910     0.511360     0.541830
    0.395155     0.406900     0.612461
    0.576159     0.355685     0.574050
    0.459217     0.489223     0.331914
    0.384748     0.593740     0.603192
    0.632345     0.499813     0.369894
    0.367655     0.500187     0.630106
    0.490382     0.682085     0.490448
    0.509618     0.317915     0.509552
    0.366833     0.486665     0.371413
    0.633167     0.513335     0.628587
    0.429409     0.580517     0.350750
    0.570591     0.419483     0.649250
    0.466843     0.651296     0.596428
    0.533157     0.348704     0.403572
    0.329120     0.437125     0.543417
    0.670880     0.562875     0.456583
    0.323147     0.549635     0.537606
    0.676853     0.450365     0.462394
    0.560885     0.602159     0.639757
    0.439115     0.397841     0.360243
    0.482439     0.357006     0.611818
    0.517561     0.642994     0.388182
    0.462075     0.450436     0.672278
    0.537925     0.549564     0.327722
    0.643523     0.601502     0.560184
    0.356477     0.398498     0.439816
    0.615808     0.356617     0.482727
    0.384192     0.643383     0.517273
    0.653203     0.420010     0.569648
    0.346797     0.579990     0.430352
    0.600180     0.651565     0.467305
    0.399820     0.348435     0.532695
    0.543962     0.437007     0.333597
    0.456038     0.562993     0.666403
EA124  19.661 20.373 18.453 90.00 90.00 90.00 Sym.group:    0
1.0000
   19.660993     0.000000     0.000000
    0.000000    20.372710     0.000000
    0.000000     0.000000    18.452766
   O  Cu
  18   24 
Direct
    0.376511     0.638873     0.474282
    0.558323     0.624425     0.628298
    0.357162     0.579190     0.409108
    0.313308     0.568703     0.492359
    0.640481     0.592214     0.586665
    0.293985     0.468890     0.487762
    0.465312     0.480429     0.337088
    0.402888     0.316717     0.480452
    0.411292     0.398411     0.569697
    0.432974     0.370079     0.601555
    0.590035     0.490662     0.653981
    0.582102     0.469537     0.353303
    0.607335     0.360603     0.507387
    0.682202     0.552131     0.500553
    0.523148     0.326140     0.453053
    0.665792     0.521989     0.592440
    0.480909     0.462225     0.564863
    0.580913     0.578405     0.353587
    0.403037     0.644597     0.566906
    0.448754     0.593340     0.364700
    0.525228     0.672657     0.548167
    0.392677     0.546816     0.388578
    0.530404     0.516007     0.354877
    0.320011     0.529316     0.526674
    0.424848     0.645822     0.496604
    0.508523     0.630095     0.607658
    0.644810     0.576873     0.538768
    0.462974     0.667989     0.559982
    0.301202     0.454225     0.546466
    0.455007     0.539352     0.341501
    0.454059     0.440160     0.466889
    0.328210     0.426243     0.591676
    0.374333     0.353454     0.590115
    0.661014     0.509267     0.411340
    0.526101     0.334003     0.564979
    0.676210     0.443655     0.504146
    0.615921     0.393907     0.415457
    0.515682     0.412338     0.653275
    0.620700     0.406632     0.596557
    0.507951     0.391752     0.360248
    0.693516     0.435866     0.403800
    0.644155     0.636013     0.554204
EA128  19.744 20.088 20.267 90.00 90.00 90.00 Sym.group:    0
1.0000
   19.744127     0.000000     0.000000
    0.000000    20.087677     0.000000
    0.000000     0.000000    20.266526
   O  Cu
  18   24 
Direct
    0.411087     0.576190     0.368990
    0.506224     0.324190     0.528521
    0.606524     0.579584     0.382690
    0.349098     0.418347     0.459119
    0.665322     0.423841     0.481286
    0.514341     0.410055     0.357840
    0.607753     0.398232     0.400255
    0.355101     0.494986     0.393620
    0.441828     0.354596     0.601760
    0.507334     0.718462     0.477513
    0.614123     0.693481     0.507717
    0.531512     0.699715     0.585098
    0.341299     0.594252     0.601777
    0.461351     0.660087     0.361648
    0.434232     0.626939     0.657905
    0.629974     0.433501     0.635301
    0.322231     0.449901     0.487208
    0.490136     0.606786     0.670009
    0.347191     0.411306     0.559958
    0.454626     0.489993     0.332619
    0.602864     0.346515     0.503057
    0.511929     0.338213     0.428705
    0.510149     0.592100     0.347587
    0.311777     0.505113     0.500573
    0.663275     0.500339     0.415222
    0.559539     0.356640     0.610011
    0.417291     0.394924     0.386905
    0.412402     0.343206     0.489707
    0.655364     0.416660     0.581561
    0.572339     0.492037     0.340870
    0.688501     0.524068     0.615060
    0.706103     0.590568     0.525273
    0.508071     0.617334     0.446946
    0.597811     0.589425     0.525567
    0.481842     0.607117     0.565372
    0.525350     0.529782     0.545731
    0.473370     0.546563     0.495464
    0.316960     0.552152     0.464631
    0.514277     0.431951     0.680190
    0.396193     0.459368     0.657046
    0.320824     0.505280     0.574710
    0.662483     0.396202     0.448980
EA123  21.074 21.681 20.160 90.00 90.00 90.00 Sym.group:    0
1.0000
   21.073824     0.000000     0.000000
    0.000000    21.680562     0.000000
    0.000000     0.000000    20.160038
   O  Cu
  18   24 
Direct
    0.423341     0.524642     0.645570
    0.320568     0.488125     0.524081
    0.436430     0.643339     0.537501
    0.627220     0.617810     0.514091
    0.543125     0.660657     0.452009
    0.360837     0.599921     0.460596
    0.322584     0.408497     0.433474
    0.314083     0.494763     0.448298
    0.429945     0.649977     0.461716
    0.620735     0.624448     0.438306
    0.539803     0.383661     0.321215
    0.674300     0.394063     0.400213
    0.447734     0.346947     0.362767
    0.329788     0.391175     0.526903
    0.542010     0.311425     0.556485
    0.646512     0.460750     0.572502
    0.500296     0.447741     0.635631
    0.546584     0.519820     0.552245
    0.549610     0.654020     0.527793
    0.367322     0.593283     0.536380
    0.717059     0.570807     0.458648
    0.312999     0.598308     0.503925
    0.282539     0.529798     0.495913
    0.673783     0.632357     0.472984
    0.448207     0.696241     0.506117
    0.584273     0.637212     0.482813
    0.323752     0.448516     0.478592
    0.399912     0.619813     0.498625
    0.557255     0.408767     0.660508
    0.675202     0.364538     0.496372
    0.449039     0.304235     0.501878
    0.384078     0.364314     0.443450
    0.620033     0.382563     0.582040
    0.532751     0.489365     0.456268
    0.491042     0.472732     0.475092
    0.533161     0.475989     0.499830
    0.574787     0.473601     0.397770
    0.438138     0.419109     0.459442
    0.576126     0.429781     0.540491
    0.475689     0.463947     0.677905
    0.708830     0.531122     0.432074
    0.698516     0.471819     0.571487
EA114  19.566 19.499 20.599 90.00 90.00 90.00 Sym.group:    0
1.0000
   19.565534     0.000000     0.000000
    0.000000    19.498761     0.000000
    0.000000     0.000000    20.599193
   O  Cu
  18   24 
Direct
    0.708354     0.476128     0.461649
    0.415599     0.653169     0.455667
    0.582107     0.607325     0.348078
    0.316588     0.457264     0.433171
    0.371613     0.606978     0.419627
    0.719289     0.497493     0.529832
    0.498603     0.323632     0.570662
    0.656274     0.503080     0.625948
    0.342724     0.599782     0.482295
    0.379676     0.628436     0.562402
    0.413895     0.330837     0.522421
    0.325126     0.546709     0.555307
    0.603428     0.579632     0.646220
    0.669602     0.584429     0.579914
    0.544434     0.650436     0.609139
    0.432544     0.598177     0.638167
    0.313831     0.461575     0.506405
    0.583082     0.401289     0.374527
    0.449295     0.592845     0.330717
    0.548412     0.667648     0.473028
    0.647479     0.529047     0.343427
    0.664049     0.437280     0.387100
    0.498139     0.635946     0.398903
    0.514448     0.505776     0.466735
    0.603409     0.453976     0.426282
    0.607342     0.350122     0.478577
    0.458994     0.323607     0.491553
    0.391364     0.423524     0.405702
    0.497913     0.511790     0.339668
    0.533742     0.328399     0.495979
    0.436108     0.477731     0.367871
    0.517763     0.455830     0.460129
    0.371273     0.391797     0.584378
    0.583553     0.438283     0.657348
    0.384229     0.374046     0.516785
    0.658541     0.591746     0.531759
    0.342445     0.497965     0.563934
    0.524766     0.362088     0.596789
    0.432941     0.633539     0.575730
    0.636412     0.456810     0.608141
    0.487425     0.631349     0.630373
    0.333186     0.422488     0.547659
EA155  20.601 23.054 20.569 90.00 90.00 90.00 Sym.group:    0
1.0000
   20.600609     0.000000     0.000000
    0.000000    23.054150     0.000000
    0.000000     0.000000    20.568891
   O  Cu
  18   24 
Direct
    0.359988     0.568674     0.420898
    0.426497     0.381445     0.537075
    0.801588     0.511846     0.447546
    0.640012     0.431326     0.579102
    0.390528     0.642218     0.534342
    0.502935     0.504295     0.611853
    0.374869     0.407551     0.429736
    0.573503     0.618555     0.462925
    0.497065     0.495705     0.388147
    0.625131     0.592449     0.570264
    0.609472     0.357782     0.465658
    0.198412     0.488154     0.552454
    0.688543     0.503946     0.440737
    0.311457     0.496054     0.559263
    0.348510     0.485632     0.402053
    0.651490     0.514368     0.597947
    0.515410     0.342972     0.507731
    0.484590     0.657028     0.492269
    0.479749     0.372288     0.467108
    0.520251     0.627712     0.532892
    0.268770     0.536866     0.465834
    0.731230     0.463134     0.534166
    0.444755     0.416532     0.594140
    0.555245     0.583468     0.405860
    0.316918     0.428690     0.563761
    0.683082     0.571310     0.436239
    0.329305     0.625362     0.474030
    0.670695     0.374638     0.525970
    0.541256     0.560963     0.598886
    0.458744     0.439037     0.401114
    0.428572     0.594397     0.584037
    0.571428     0.405603     0.415963
    0.458372     0.614561     0.450438
    0.541628     0.385439     0.549562
    0.720144     0.559178     0.529712
    0.279856     0.440822     0.470288
    0.650111     0.640471     0.509935
    0.349889     0.359529     0.490065
    0.448858     0.537099     0.397882
    0.551142     0.462901     0.602118
    0.696307     0.435130     0.442970
    0.303693     0.564870     0.557030
EA127  19.935 19.730 20.412 90.00 90.00 90.00 Sym.group:    0
1.0000
   19.935145     0.000000     0.000000
    0.000000    19.730147     0.000000
    0.000000     0.000000    20.411790
   O  Cu
  18   24 
Direct
    0.487290     0.675793     0.595890
    0.600242     0.602732     0.649826
    0.509522     0.498908     0.688641
    0.638001     0.445924     0.356660
    0.678353     0.581319     0.595141
    0.700679     0.488602     0.421798
    0.600322     0.673905     0.424810
    0.637921     0.374751     0.581676
    0.523005     0.340477     0.430848
    0.512027     0.680166     0.416624
    0.315189     0.499535     0.509902
    0.339348     0.400331     0.494906
    0.341879     0.465626     0.420481
    0.412768     0.409095     0.368072
    0.464866     0.308941     0.560653
    0.672677     0.438614     0.431364
    0.333938     0.571375     0.436520
    0.396649     0.643143     0.409688
    0.547248     0.313011     0.487443
    0.678400     0.623403     0.462094
    0.524922     0.405728     0.660787
    0.700632     0.446518     0.554844
    0.497702     0.590276     0.647734
    0.695941     0.535931     0.508947
    0.536786     0.353788     0.577041
    0.549176     0.513764     0.498050
    0.505833     0.556508     0.584603
    0.621765     0.524728     0.503440
    0.528690     0.418209     0.543262
    0.508310     0.575928     0.339970
    0.492761     0.459847     0.341257
    0.598290     0.502542     0.347021
    0.345293     0.600653     0.492268
    0.368679     0.387702     0.590295
    0.388739     0.623793     0.605740
    0.381097     0.373280     0.515171
    0.385303     0.481577     0.391689
    0.341023     0.537855     0.540020
    0.428706     0.657848     0.547985
    0.358973     0.618697     0.551259
    0.439496     0.459393     0.336344
    0.411560     0.339785     0.579234
EA116  20.339 19.592 20.038 90.00 90.00 90.00 Sym.group:    0
1.0000
   20.339309     0.000000     0.000000
    0.000000    19.591709     0.000000
    0.000000     0.000000    20.037731
   O  Cu
  18   24 
Direct
    0.326188     0.623362     0.488897
    0.374347     0.356756     0.396178
    0.409380     0.522482     0.660747
    0.294053     0.541162     0.443889
    0.361591     0.488073     0.328172
    0.317867     0.410390     0.512725
    0.460716     0.309439     0.399165
    0.486206     0.340268     0.612038
    0.455532     0.664138     0.557518
    0.584313     0.494401     0.324211
    0.455844     0.629298     0.368846
    0.663400     0.445871     0.485300
    0.583809     0.550774     0.629491
    0.616704     0.631010     0.460173
    0.650535     0.464653     0.388642
    0.570539     0.449642     0.640496
    0.544845     0.678395     0.514028
    0.678188     0.449558     0.524322
    0.359142     0.404498     0.600610
    0.577072     0.379527     0.348176
    0.542122     0.454830     0.677783
    0.529544     0.300364     0.535991
    0.329172     0.445565     0.417919
    0.552243     0.332624     0.439412
    0.449786     0.427144     0.643556
    0.459241     0.487045     0.471189
    0.480363     0.483285     0.511931
    0.395082     0.465436     0.446103
    0.523012     0.398082     0.456911
    0.465018     0.455215     0.575662
    0.622106     0.610117     0.557378
    0.525523     0.575132     0.318501
    0.368267     0.628400     0.527007
    0.415901     0.599170     0.624030
    0.545032     0.657411     0.400391
    0.650230     0.498606     0.572512
    0.670043     0.546932     0.470531
    0.447959     0.677365     0.459022
    0.493163     0.530891     0.667379
    0.525033     0.630069     0.616009
    0.618478     0.386459     0.553651
    0.622410     0.576163     0.373508
EA130  22.549 17.258 21.562 90.00 90.00 90.00 Sym.group:    0
1.0000
   22.549429     0.000000     0.000000
    0.000000    17.258366     0.000000
    0.000000     0.000000    21.562055
   O  Cu
  18   24 
Direct
    0.552604     0.424471     0.618432
    0.662099     0.391771     0.555342
    0.667089     0.569306     0.537305
    0.557595     0.602007     0.600395
    0.355628     0.586385     0.554016
    0.468647     0.367928     0.604573
    0.313170     0.546702     0.508216
    0.393372     0.256926     0.490494
    0.685949     0.444056     0.448539
    0.613156     0.667045     0.442363
    0.429643     0.693200     0.443607
    0.318924     0.496366     0.451027
    0.666203     0.585628     0.444320
    0.658500     0.341948     0.452051
    0.494733     0.226532     0.457514
    0.338670     0.354795     0.455246
    0.346373     0.598474     0.447515
    0.510140     0.713891     0.442052
    0.477087     0.668184     0.574066
    0.352179     0.463664     0.566484
    0.613899     0.497481     0.581694
    0.409573     0.665435     0.514873
    0.567124     0.490648     0.537542
    0.336960     0.579242     0.484546
    0.373734     0.298605     0.466735
    0.443515     0.343007     0.532437
    0.519641     0.335490     0.530800
    0.403978     0.423639     0.534743
    0.382605     0.718869     0.489766
    0.607208     0.728829     0.486927
    0.723857     0.477307     0.493505
    0.670153     0.277538     0.500376
    0.710993     0.569539     0.490757
    0.540094     0.759348     0.486725
    0.467090     0.697958     0.489472
    0.634896     0.621650     0.489978
    0.667062     0.391039     0.496850
    0.274653     0.457386     0.499183
    0.312560     0.490637     0.544149
    0.497584     0.478400     0.451814
    0.558603     0.352963     0.403104
    0.422460     0.345710     0.400468
EA73   19.269 21.614 21.518 90.00 90.00 90.00 Sym.group:    0
1.0000
   19.268559     0.000000     0.000000
    0.000000    21.614361     0.000000
    0.000000     0.000000    21.517618
   O  Cu
  18   24 
Direct
    0.596099     0.376845     0.519628
    0.380935     0.380320     0.512075
    0.696810     0.547585     0.513906
    0.479151     0.337225     0.443292
    0.669792     0.420097     0.445368
    0.678447     0.618398     0.435014
    0.297166     0.452652     0.430862
    0.602258     0.361311     0.446214
    0.387095     0.364785     0.438660
    0.702970     0.532051     0.440491
    0.655167     0.668897     0.422930
    0.353962     0.452623     0.615937
    0.643010     0.626345     0.567933
    0.307662     0.594342     0.558897
    0.457873     0.575145     0.643044
    0.312683     0.644633     0.388369
    0.503894     0.578496     0.499303
    0.496876     0.535739     0.523884
    0.472992     0.352759     0.516707
    0.663632     0.435631     0.518783
    0.723418     0.432127     0.483788
    0.511090     0.301423     0.483539
    0.272398     0.412587     0.469396
    0.330986     0.355344     0.474476
    0.591292     0.317116     0.485442
    0.745033     0.505064     0.480611
    0.685261     0.582528     0.474404
    0.631215     0.400161     0.482348
    0.430681     0.360925     0.477590
    0.417185     0.548615     0.460113
    0.429901     0.505846     0.495173
    0.442770     0.576603     0.485798
    0.418707     0.690316     0.540467
    0.642632     0.476708     0.596334
    0.267463     0.465703     0.511613
    0.526374     0.464631     0.649318
    0.447528     0.728338     0.435118
    0.547671     0.713468     0.511315
    0.555674     0.605306     0.615302
    0.388361     0.389456     0.575911
    0.297650     0.625432     0.473704
    0.338238     0.686423     0.456942
EA149  19.899 19.899 17.004 90.00 90.00 90.00 Sym.group:    0
1.0000
   19.899189     0.000000     0.000000
    0.000000    19.899189     0.000000
    0.000000     0.000000    17.003713
   O  Cu
  18   24 
Direct
    0.414606     0.446512     0.628316
    0.446512     0.585394     0.628316
    0.585394     0.553488     0.628316
    0.553488     0.414606     0.628316
    0.514893     0.599656     0.371684
    0.400344     0.514893     0.371684
    0.485107     0.400344     0.371684
    0.599656     0.485107     0.371684
    0.427604     0.375038     0.399219
    0.375038     0.572396     0.399219
    0.572396     0.624962     0.399219
    0.624962     0.427604     0.399219
    0.585604     0.616312     0.600781
    0.383688     0.585604     0.600781
    0.414396     0.383688     0.600781
    0.616312     0.414396     0.600781
    0.548442     0.668914     0.585962
    0.668914     0.451558     0.585962
    0.451558     0.331086     0.585962
    0.331086     0.548442     0.585962
    0.364532     0.388075     0.414038
    0.611925     0.364532     0.414038
    0.635468     0.611925     0.414038
    0.388075     0.635468     0.414038
    0.358829     0.377416     0.488730
    0.377416     0.641171     0.488730
    0.641171     0.622584     0.488730
    0.622584     0.358829     0.488730
    0.555933     0.678404     0.511270
    0.321596     0.555933     0.511270
    0.444067     0.321596     0.511270
    0.678404     0.444067     0.511270
    0.635592     0.528279     0.500000
    0.528279     0.364408     0.500000
    0.364408     0.471721     0.500000
    0.471721     0.635592     0.500000
    0.454641     0.717482     0.500000
    0.717482     0.545359     0.500000
    0.545359     0.282518     0.500000
    0.282518     0.454641     0.500000
    0.500000     0.500000     0.424945
    0.500000     0.500000     0.575055
EA156  21.844 21.897 18.239 90.00 90.00 90.00 Sym.group:    0
1.0000
   21.844336     0.000000     0.000000
    0.000000    21.897494     0.000000
    0.000000     0.000000    18.238924
   O  Cu
  18   24 
Direct
    0.409644     0.383074     0.525512
    0.598129     0.377178     0.513608
    0.325007     0.556460     0.515527
    0.508907     0.339743     0.432101
    0.343689     0.424450     0.438130
    0.347603     0.626883     0.419847
    0.677044     0.443517     0.418330
    0.399309     0.362553     0.437162
    0.591499     0.362365     0.426991
    0.325774     0.541338     0.429615
    0.373647     0.674454     0.404391
    0.626407     0.447039     0.636321
    0.381901     0.630954     0.578776
    0.674323     0.584162     0.569577
    0.543142     0.573118     0.668398
    0.672344     0.634227     0.368298
    0.500502     0.577809     0.499343
    0.505064     0.535647     0.527804
    0.515951     0.353155     0.518465
    0.353365     0.444077     0.526208
    0.299096     0.442641     0.482289
    0.480357     0.304217     0.480014
    0.695800     0.402826     0.463249
    0.640436     0.349884     0.469473
    0.410070     0.321569     0.480011
    0.284493     0.515548     0.481101
    0.339680     0.590700     0.467568
    0.377543     0.404530     0.481701
    0.553011     0.360826     0.472764
    0.575304     0.544536     0.453403
    0.562637     0.503314     0.493903
    0.554156     0.573445     0.483968
    0.581389     0.684190     0.547982
    0.377353     0.484458     0.619331
    0.703257     0.455100     0.513353
    0.476425     0.467758     0.675269
    0.558535     0.723478     0.423638
    0.469169     0.713236     0.514111
    0.458670     0.607809     0.635425
    0.592318     0.386535     0.588897
    0.684682     0.614518     0.469009
    0.652366     0.676677     0.449135
EA133  19.958 19.553 20.255 90.00 90.00 90.00 Sym.group:    0
1.0000
   19.958208     0.000000     0.000000
    0.000000    19.552635     0.000000
    0.000000     0.000000    20.254736
   O  Cu
  18   24 
Direct
    0.499721     0.315776     0.399737
    0.596638     0.450778     0.340718
    0.558341     0.480597     0.504780
    0.540586     0.456866     0.463093
    0.352903     0.426881     0.585335
    0.557130     0.313394     0.543854
    0.311231     0.455665     0.506334
    0.625653     0.376656     0.565355
    0.438186     0.650143     0.516079
    0.672026     0.529682     0.482129
    0.385028     0.619990     0.507849
    0.556418     0.653170     0.511930
    0.610779     0.625771     0.499927
    0.328043     0.520872     0.494200
    0.373083     0.677742     0.490378
    0.726533     0.516801     0.450734
    0.393843     0.680701     0.549908
    0.658583     0.527260     0.590657
    0.660096     0.404565     0.435162
    0.420938     0.400594     0.351616
    0.666135     0.407040     0.541926
    0.551168     0.375752     0.361197
    0.396876     0.341750     0.548380
    0.499006     0.350014     0.611111
    0.331412     0.452105     0.461070
    0.400541     0.404327     0.592117
    0.506252     0.324838     0.544011
    0.619933     0.429786     0.579654
    0.445483     0.337456     0.585010
    0.332324     0.483919     0.393198
    0.273892     0.505209     0.466618
    0.619920     0.684064     0.481715
    0.599648     0.685971     0.542685
    0.394865     0.556061     0.458923
    0.603364     0.561400     0.451606
    0.498533     0.603960     0.544609
    0.372899     0.501469     0.521557
    0.575220     0.591426     0.528041
    0.549325     0.613327     0.473599
    0.422366     0.587511     0.533406
    0.628386     0.508012     0.512591
    0.446692     0.610698     0.477200
EA138  19.297 19.724 19.373 90.00 90.00 90.00 Sym.group:    0
1.0000
   19.296805     0.000000     0.000000
    0.000000    19.724449     0.000000
    0.000000     0.000000    19.373303
   O  Cu
  18   24 
Direct
    0.628553     0.477835     0.632493
    0.655771     0.608462     0.538487
    0.583459     0.473891     0.663906
    0.471520     0.335258     0.583889
    0.485769     0.636733     0.631673
    0.676261     0.565499     0.434105
    0.682595     0.469618     0.440300
    0.644425     0.509835     0.362011
    0.519398     0.320569     0.542324
    0.630467     0.383188     0.430167
    0.445517     0.665836     0.445386
    0.354157     0.378598     0.521752
    0.328197     0.427034     0.447064
    0.443713     0.674001     0.537898
    0.369050     0.642288     0.491196
    0.393605     0.361285     0.439854
    0.423085     0.628487     0.619216
    0.436588     0.401367     0.364840
    0.465953     0.367200     0.627536
    0.619833     0.648457     0.538280
    0.482114     0.488821     0.590046
    0.594926     0.498687     0.511457
    0.464399     0.474391     0.680596
    0.685715     0.493745     0.526423
    0.493141     0.497805     0.533678
    0.538413     0.501763     0.502141
    0.647008     0.596643     0.465751
    0.657506     0.437582     0.476001
    0.553392     0.342765     0.506390
    0.627194     0.366145     0.490635
    0.545161     0.577612     0.356395
    0.341515     0.580043     0.423541
    0.301750     0.502397     0.499500
    0.349930     0.596658     0.494449
    0.334954     0.475668     0.440326
    0.443462     0.366602     0.428339
    0.476794     0.635727     0.418477
    0.473776     0.649264     0.571946
    0.378037     0.395303     0.564213
    0.547488     0.623192     0.394027
    0.493154     0.380245     0.374413
    0.312255     0.543498     0.458876
EA115  20.143 20.262 19.444 90.00 90.00 90.00 Sym.group:    0
1.0000
   20.143387     0.000000     0.000000
    0.000000    20.262281     0.000000
    0.000000     0.000000    19.443985
   O  Cu
  18   24 
Direct
    0.684600     0.450211     0.459777
    0.330576     0.479062     0.404907
    0.417255     0.686653     0.527313
    0.632065     0.473841     0.378709
    0.681903     0.544751     0.437009
    0.384914     0.400394     0.388027
    0.515068     0.709162     0.505224
    0.617814     0.626182     0.405294
    0.611036     0.677737     0.521554
    0.384622     0.644413     0.433258
    0.455937     0.452740     0.336451
    0.543736     0.387709     0.590348
    0.465700     0.341371     0.499189
    0.575091     0.365247     0.519998
    0.451216     0.431098     0.676954
    0.330593     0.452550     0.582028
    0.397036     0.574095     0.648281
    0.472614     0.551666     0.533778
    0.699344     0.474987     0.559236
    0.563108     0.392274     0.377542
    0.575262     0.468336     0.367786
    0.442149     0.399312     0.387115
    0.546270     0.679837     0.474030
    0.351959     0.529784     0.415135
    0.657797     0.585992     0.464506
    0.662330     0.429054     0.502214
    0.339995     0.602594     0.451509
    0.620023     0.660533     0.460803
    0.509889     0.417401     0.347777
    0.607289     0.442084     0.588486
    0.477219     0.313726     0.554974
    0.548484     0.329281     0.568530
    0.589810     0.405167     0.553359
    0.471345     0.480791     0.525335
    0.310731     0.575664     0.514530
    0.570964     0.647236     0.601567
    0.423720     0.347454     0.581655
    0.514635     0.570842     0.678285
    0.424936     0.652653     0.594426
    0.525869     0.414352     0.650783
    0.320279     0.438297     0.487671
    0.294817     0.493465     0.444647
EA140  17.732 21.526 21.275 90.00 90.00 90.00 Sym.group:    0
1.0000
   17.732339     0.000000     0.000000
    0.000000    21.526233     0.000000
    0.000000     0.000000    21.274844
   O  Cu
  18   24 
Direct
    0.622019     0.629257     0.432354
    0.409971     0.651210     0.451631
    0.275116     0.505541     0.462386
    0.514668     0.675828     0.548562
    0.304584     0.408560     0.561965
    0.322577     0.590019     0.566097
    0.633575     0.639501     0.537710
    0.418857     0.663741     0.557169
    0.290321     0.513917     0.567466
    0.705526     0.460116     0.558415
    0.659525     0.559244     0.408259
    0.344806     0.359036     0.470297
    0.444980     0.338572     0.432096
    0.621657     0.439445     0.603807
    0.663645     0.370091     0.566677
    0.438353     0.297658     0.493665
    0.557569     0.312459     0.575004
    0.557808     0.294684     0.495457
    0.299176     0.401805     0.456150
    0.310279     0.580778     0.460791
    0.551281     0.706694     0.489988
    0.298858     0.630111     0.513694
    0.246146     0.415145     0.517345
    0.233048     0.482630     0.514611
    0.363061     0.677408     0.511352
    0.628494     0.682148     0.485938
    0.654620     0.602277     0.483172
    0.462221     0.664147     0.500132
    0.302494     0.546785     0.514137
    0.735025     0.454915     0.493844
    0.575469     0.538533     0.602515
    0.577471     0.447736     0.380411
    0.699628     0.577738     0.467510
    0.428284     0.427716     0.391474
    0.559297     0.462800     0.605147
    0.487435     0.374175     0.416983
    0.628790     0.347780     0.543532
    0.698355     0.497181     0.529880
    0.682457     0.525757     0.436281
    0.729521     0.518526     0.479590
    0.560130     0.293136     0.536969
    0.502904     0.435201     0.379536
EA129  20.068 19.779 20.446 90.00 90.00 90.00 Sym.group:    0
1.0000
   20.067685     0.000000     0.000000
    0.000000    19.779319     0.000000
    0.000000     0.000000    20.445811
   O  Cu
  18   24 
Direct
    0.687934     0.426314     0.454768
    0.481451     0.284032     0.459275
    0.699315     0.519171     0.490623
    0.672504     0.502255     0.401168
    0.437690     0.299205     0.542063
    0.389125     0.315773     0.463335
    0.623847     0.590545     0.397533
    0.528548     0.543311     0.327954
    0.513822     0.543574     0.656884
    0.315941     0.415935     0.454615
    0.364981     0.598780     0.389478
    0.487278     0.677664     0.514488
    0.340000     0.565034     0.578152
    0.311688     0.510909     0.409014
    0.415827     0.567462     0.644482
    0.633491     0.574540     0.575656
    0.456586     0.602410     0.368059
    0.435266     0.655524     0.498128
    0.677975     0.492351     0.581402
    0.576879     0.301024     0.495956
    0.669594     0.542263     0.528115
    0.372661     0.363773     0.448618
    0.391464     0.477185     0.368795
    0.509310     0.597121     0.379495
    0.625116     0.514228     0.379715
    0.650707     0.388233     0.468611
    0.525821     0.311117     0.441910
    0.605708     0.322823     0.446659
    0.580246     0.571998     0.355146
    0.399839     0.648224     0.558716
    0.337557     0.380231     0.547786
    0.570734     0.456745     0.646801
    0.600271     0.566873     0.607569
    0.352047     0.470034     0.622195
    0.414886     0.668549     0.445075
    0.326179     0.600711     0.483422
    0.456741     0.457109     0.669615
    0.584283     0.647636     0.521803
    0.504533     0.635300     0.606136
    0.506954     0.359318     0.624515
    0.296642     0.490585     0.522654
    0.668559     0.544131     0.623613
EA136  19.570 19.646 19.496 90.00 90.00 90.00 Sym.group:    0
1.0000
   19.570271     0.000000     0.000000
    0.000000    19.645562     0.000000
    0.000000     0.000000    19.495819
   O  Cu
  18   24 
Direct
    0.662081     0.468199     0.434221
    0.665003     0.520649     0.436736
    0.637096     0.568154     0.619470
    0.561885     0.326618     0.512413
    0.469903     0.318599     0.527332
    0.638876     0.507932     0.635821
    0.579164     0.362096     0.602774
    0.485039     0.684114     0.493951
    0.442791     0.401068     0.376766
    0.533159     0.569376     0.349474
    0.338819     0.411787     0.538112
    0.364930     0.586719     0.610536
    0.354296     0.563705     0.420438
    0.369163     0.386496     0.445270
    0.597902     0.493394     0.359674
    0.403931     0.648477     0.444976
    0.395253     0.514286     0.674151
    0.382794     0.358961     0.507231
    0.646307     0.595445     0.575358
    0.561412     0.565634     0.489272
    0.554102     0.434416     0.482983
    0.622199     0.625704     0.464876
    0.607859     0.368281     0.452536
    0.523572     0.528242     0.504459
    0.370238     0.414401     0.613741
    0.517556     0.548729     0.692751
    0.592194     0.364481     0.529598
    0.617853     0.462539     0.623992
    0.474714     0.588776     0.676611
    0.627700     0.395127     0.589871
    0.331589     0.589816     0.515196
    0.486215     0.481413     0.331653
    0.584646     0.667864     0.490314
    0.471131     0.333361     0.446332
    0.432914     0.579370     0.357957
    0.322268     0.498314     0.586071
    0.315863     0.484453     0.471574
    0.511660     0.651893     0.402234
    0.543473     0.392023     0.376112
    0.410336     0.662337     0.559472
    0.613629     0.598756     0.403295
    0.378484     0.477997     0.374396
EA80   19.823 19.647 19.758 90.00 90.00 90.00 Sym.group:    0
1.0000
   19.823062     0.000000     0.000000
    0.000000    19.646762     0.000000
    0.000000     0.000000    19.757608
   O  Cu
  18   24 
Direct
    0.485637     0.401079     0.330066
    0.636561     0.435986     0.409971
    0.394906     0.647285     0.423300
    0.373390     0.359817     0.416964
    0.369619     0.491622     0.342776
    0.382964     0.366232     0.592712
    0.437394     0.469186     0.509105
    0.436253     0.503068     0.468965
    0.513761     0.457085     0.473243
    0.600223     0.616033     0.599106
    0.360724     0.600740     0.574462
    0.666299     0.551106     0.568259
    0.641424     0.624884     0.512101
    0.564119     0.335922     0.568740
    0.334532     0.509325     0.588202
    0.664022     0.574923     0.427565
    0.431433     0.375451     0.614797
    0.646791     0.388082     0.543034
    0.497164     0.487746     0.443642
    0.511945     0.316500     0.555579
    0.302618     0.483116     0.448653
    0.499864     0.627474     0.359899
    0.311301     0.465234     0.559673
    0.315317     0.571024     0.518610
    0.593687     0.568887     0.363582
    0.505136     0.526162     0.310049
    0.587232     0.339795     0.477398
    0.484559     0.310745     0.446307
    0.566915     0.412900     0.360776
    0.374863     0.574973     0.374758
    0.515401     0.665219     0.573517
    0.628481     0.477894     0.625416
    0.437635     0.595067     0.638662
    0.657863     0.499633     0.558794
    0.582826     0.382573     0.585407
    0.616616     0.622013     0.465614
    0.548253     0.607355     0.609942
    0.410882     0.619383     0.572468
    0.367423     0.467732     0.595235
    0.475144     0.637701     0.612797
    0.623394     0.603718     0.390164
    0.645427     0.429331     0.589689
EA142  19.392 20.156 20.522 90.00 90.00 90.00 Sym.group:    0
1.0000
   19.392324     0.000000     0.000000
    0.000000    20.155951     0.000000
    0.000000     0.000000    20.522147
   O  Cu
  18   24 
Direct
    0.343825     0.472392     0.517518
    0.419554     0.643979     0.561033
    0.477548     0.325074     0.490203
    0.348916     0.602878     0.471082
    0.366175     0.417436     0.429063
    0.331178     0.494567     0.445135
    0.464901     0.347250     0.417819
    0.492767     0.606777     0.668320
    0.569161     0.320680     0.555864
    0.576202     0.467097     0.671336
    0.532106     0.485792     0.546845
    0.716207     0.559326     0.461505
    0.623243     0.353494     0.547355
    0.449757     0.524928     0.343300
    0.662693     0.627336     0.429358
    0.601006     0.686793     0.554379
    0.677935     0.394662     0.470072
    0.620928     0.566040     0.358832
    0.361563     0.580702     0.543466
    0.378822     0.395261     0.501447
    0.357623     0.359114     0.453578
    0.300709     0.580580     0.501926
    0.414164     0.704378     0.536293
    0.289154     0.510018     0.485021
    0.421942     0.313388     0.446253
    0.518059     0.331318     0.455258
    0.357240     0.445648     0.473573
    0.386134     0.622078     0.515841
    0.527036     0.559179     0.534631
    0.421149     0.373380     0.581610
    0.444840     0.455568     0.659958
    0.574780     0.385112     0.621876
    0.422006     0.616313     0.620907
    0.503000     0.612032     0.364188
    0.717942     0.495700     0.533602
    0.504252     0.537041     0.350825
    0.610798     0.621048     0.410706
    0.699608     0.508260     0.464066
    0.653212     0.399727     0.542224
    0.707633     0.441218     0.501243
    0.590263     0.662890     0.609657
    0.563967     0.593545     0.352831
EA126  19.943 19.723 20.742 90.00 90.00 90.00 Sym.group:    0
1.0000
   19.943229     0.000000     0.000000
    0.000000    19.723464     0.000000
    0.000000     0.000000    20.741514
   O  Cu
  18   24 
Direct
    0.506199     0.336209     0.575964
    0.307279     0.422556     0.469980
    0.506980     0.694944     0.542258
    0.421283     0.664761     0.585652
    0.337917     0.447885     0.385284
    0.295847     0.515370     0.443865
    0.512039     0.646596     0.620601
    0.394229     0.517701     0.336432
    0.476927     0.563111     0.665682
    0.624329     0.573867     0.433230
    0.612483     0.375413     0.465791
    0.580190     0.674869     0.512342
    0.675468     0.505509     0.505960
    0.584519     0.330824     0.560729
    0.656129     0.590766     0.499891
    0.644284     0.392312     0.532452
    0.545476     0.300244     0.586958
    0.519585     0.330084     0.438371
    0.403880     0.363561     0.585802
    0.299370     0.554818     0.533453
    0.377274     0.345707     0.472465
    0.366570     0.658320     0.505172
    0.320953     0.559776     0.463282
    0.384454     0.627914     0.568322
    0.517093     0.455415     0.643885
    0.466145     0.341631     0.542187
    0.339931     0.405799     0.506579
    0.390747     0.447846     0.366084
    0.384963     0.346036     0.531274
    0.533751     0.530953     0.665199
    0.324079     0.612303     0.520895
    0.548389     0.657969     0.445681
    0.643667     0.488611     0.439298
    0.697893     0.464185     0.464960
    0.610584     0.685778     0.461199
    0.660057     0.630986     0.453088
    0.677577     0.390438     0.482220
    0.597041     0.354736     0.513499
    0.647838     0.539129     0.470344
    0.524137     0.676127     0.490625
    0.587181     0.456887     0.376370
    0.495265     0.522056     0.336676
EA125  20.315 19.944 19.763 90.00 90.00 90.00 Sym.group:    0
1.0000
   20.315097     0.000000     0.000000
    0.000000    19.944093     0.000000
    0.000000     0.000000    19.762898
   O  Cu
  18   24 
Direct
    0.564615     0.454415     0.690379
    0.304656     0.482224     0.567197
    0.580173     0.298822     0.543151
    0.463593     0.460575     0.698017
    0.577033     0.652205     0.587903
    0.383316     0.577177     0.641170
    0.388916     0.369135     0.614129
    0.695659     0.475579     0.531959
    0.632860     0.568319     0.621603
    0.444104     0.302788     0.468315
    0.537639     0.513959     0.307024
    0.540250     0.348005     0.365072
    0.535565     0.457344     0.457689
    0.439191     0.658308     0.513316
    0.635688     0.580294     0.420329
    0.366028     0.612608     0.469532
    0.672873     0.522780     0.487059
    0.315586     0.525115     0.464175
    0.436070     0.302020     0.556903
    0.634121     0.364040     0.596082
    0.427080     0.653275     0.595236
    0.378788     0.470509     0.636304
    0.635861     0.464770     0.615760
    0.476083     0.481748     0.523793
    0.522238     0.480467     0.519269
    0.427646     0.474784     0.578623
    0.575222     0.471688     0.568578
    0.494993     0.592852     0.511615
    0.474038     0.442340     0.476584
    0.643529     0.401578     0.410361
    0.422585     0.478827     0.322719
    0.653809     0.511950     0.391782
    0.349342     0.461793     0.403729
    0.406727     0.377185     0.370168
    0.541240     0.427387     0.324160
    0.496320     0.655720     0.429449
    0.597521     0.637278     0.492103
    0.367846     0.573179     0.434311
    0.489224     0.649002     0.506917
    0.589997     0.602057     0.423957
    0.550214     0.655947     0.458675
    0.331762     0.509953     0.404902
EA119  22.563 21.605 17.785 90.00 90.00 90.00 Sym.group:    0
1.0000
   22.562573     0.000000     0.000000
    0.000000    21.605289     0.000000
    0.000000     0.000000    17.785236
   O  Cu
  18   24 
Direct
    0.662975     0.517274     0.517545
    0.521596     0.641798     0.525741
    0.673970     0.442069     0.418971
    0.306335     0.476437     0.438005
    0.413969     0.636928     0.433775
    0.597787     0.619744     0.424258
    0.631532     0.334729     0.420292
    0.663787     0.528067     0.420168
    0.522408     0.652591     0.428364
    0.348773     0.583777     0.436684
    0.558680     0.498242     0.660073
    0.669450     0.498164     0.565882
    0.534369     0.356210     0.602356
    0.334716     0.412244     0.565657
    0.483946     0.561272     0.661381
    0.421175     0.270135     0.413746
    0.296912     0.451893     0.514886
    0.669021     0.335531     0.473506
    0.413156     0.626135     0.531152
    0.596975     0.608951     0.521636
    0.707867     0.399797     0.465619
    0.644948     0.627775     0.470625
    0.426826     0.681834     0.482183
    0.497473     0.692038     0.478657
    0.687946     0.568048     0.467960
    0.299273     0.577846     0.487874
    0.666387     0.479370     0.468362
    0.558875     0.628706     0.475025
    0.382234     0.603193     0.483840
    0.313061     0.361318     0.415637
    0.442831     0.321061     0.563766
    0.351521     0.510424     0.605553
    0.606003     0.425917     0.588793
    0.373683     0.336711     0.490853
    0.512492     0.454926     0.482052
    0.558741     0.440578     0.534844
    0.314174     0.420255     0.473491
    0.459726     0.584716     0.569552
    0.536246     0.573708     0.559480
    0.407768     0.529765     0.562846
    0.364870     0.459038     0.378330
    0.565524     0.270786     0.520579
EA121  20.499 20.663 19.366 90.00 90.00 90.00 Sym.group:    0
1.0000
   20.499344     0.000000     0.000000
    0.000000    20.662661     0.000000
    0.000000     0.000000    19.366200
   O  Cu
  18   24 
Direct
    0.446571     0.340061     0.392149
    0.381847     0.496664     0.334226
    0.442146     0.483563     0.473375
    0.624431     0.397896     0.612336
    0.392568     0.351867     0.552708
    0.670911     0.414283     0.526654
    0.340512     0.431077     0.580321
    0.682563     0.482167     0.451851
    0.318552     0.564242     0.530767
    0.559334     0.666468     0.520457
    0.352332     0.680676     0.543300
    0.679635     0.633352     0.531671
    0.386299     0.590365     0.573274
    0.596436     0.605992     0.478232
    0.526785     0.528446     0.593261
    0.453089     0.559453     0.439159
    0.369807     0.507412     0.557232
    0.343603     0.613466     0.436917
    0.497247     0.518879     0.459386
    0.309830     0.469973     0.435461
    0.544456     0.397675     0.346265
    0.307132     0.471999     0.555495
    0.343582     0.377219     0.493353
    0.617012     0.479155     0.375704
    0.522951     0.505067     0.314576
    0.409166     0.412335     0.352398
    0.558918     0.331427     0.563325
    0.461017     0.367955     0.632322
    0.648836     0.417736     0.475097
    0.571723     0.390526     0.617223
    0.445948     0.347699     0.554829
    0.510478     0.340940     0.603140
    0.654015     0.449254     0.401268
    0.508620     0.621595     0.476298
    0.598930     0.478324     0.565847
    0.678188     0.582022     0.501275
    0.650476     0.679178     0.544290
    0.303209     0.654790     0.529478
    0.461051     0.682398     0.578538
    0.689473     0.533530     0.486402
    0.737133     0.555243     0.536277
    0.403186     0.587631     0.473864
EA5    19.994 19.996 19.994 90.00 90.00 90.00 Sym.group:    0
1.0000
   19.994380     0.000000     0.000000
    0.000000    19.995836     0.000000
    0.000000     0.000000    19.994380
   O  Cu
  18   24 
Direct
    0.464464     0.542670     0.698385
    0.345704     0.573407     0.615082
    0.327615     0.428845     0.587522
    0.446374     0.398107     0.670825
    0.677193     0.604674     0.509223
    0.535536     0.457330     0.301615
    0.322807     0.395326     0.490777
    0.653553     0.408674     0.602569
    0.672385     0.571155     0.412478
    0.483296     0.705150     0.508295
    0.553626     0.601893     0.329175
    0.654296     0.426593     0.384918
    0.554253     0.587831     0.678275
    0.445747     0.412169     0.321725
    0.346447     0.591326     0.397431
    0.516704     0.294850     0.491705
    0.353402     0.639817     0.537389
    0.565388     0.683902     0.565878
    0.646598     0.360183     0.462611
    0.333942     0.491398     0.378380
    0.523658     0.343340     0.631662
    0.666058     0.508602     0.621620
    0.476342     0.656660     0.368338
    0.434612     0.316098     0.434122
    0.392160     0.485226     0.648287
    0.607840     0.514774     0.351713
    0.620040     0.599843     0.597246
    0.379960     0.400157     0.402754
    0.411695     0.653769     0.451104
    0.588305     0.346231     0.548896
    0.519250     0.502637     0.473530
    0.480750     0.497363     0.526470
    0.478572     0.482178     0.482641
    0.521428     0.517822     0.517359
    0.515763     0.472552     0.508728
    0.484237     0.527448     0.491272
    0.436934     0.491360     0.586720
    0.563066     0.508640     0.413280
    0.570201     0.558390     0.556870
    0.429799     0.441610     0.443130
    0.448358     0.589926     0.471406
    0.551642     0.410074     0.528594
EA118  19.430 18.617 19.549 90.00 90.00 90.00 Sym.group:    0
1.0000
   19.429657     0.000000     0.000000
    0.000000    18.616542     0.000000
    0.000000     0.000000    19.548940
   O  Cu
  18   24 
Direct
    0.660282     0.475674     0.551411
    0.584842     0.631689     0.561181
    0.421441     0.642527     0.551700
    0.536695     0.669381     0.460052
    0.663889     0.557418     0.457734
    0.384045     0.609752     0.444659
    0.536124     0.604904     0.628116
    0.407781     0.589328     0.618412
    0.591749     0.297379     0.450032
    0.605837     0.388511     0.518435
    0.595818     0.361017     0.553843
    0.455356     0.491570     0.631584
    0.376117     0.450550     0.382686
    0.402322     0.346417     0.527932
    0.468487     0.306361     0.461675
    0.363541     0.521016     0.599868
    0.534874     0.455461     0.528688
    0.319573     0.546904     0.525803
    0.563658     0.635402     0.386026
    0.648579     0.529704     0.381580
    0.436577     0.611547     0.375628
    0.396412     0.541853     0.388273
    0.640434     0.465012     0.396751
    0.608764     0.596198     0.407006
    0.486753     0.634620     0.402768
    0.480800     0.615571     0.603807
    0.594639     0.554325     0.605382
    0.650787     0.514802     0.503683
    0.556715     0.639210     0.509295
    0.409988     0.616560     0.497747
    0.532954     0.426041     0.441942
    0.690220     0.418427     0.509616
    0.649262     0.342495     0.528816
    0.315816     0.496311     0.449956
    0.497982     0.321630     0.554326
    0.331600     0.433591     0.537438
    0.365657     0.375556     0.451238
    0.529925     0.409056     0.616758
    0.413381     0.400263     0.601150
    0.452703     0.369080     0.374193
    0.286144     0.419268     0.460284
    0.551477     0.687618     0.562526
EA100  19.724 20.834 20.575 90.00 90.00 90.00 Sym.group:    0
1.0000
   19.723565     0.000000     0.000000
    0.000000    20.833557     0.000000
    0.000000     0.000000    20.575423
   O  Cu
  18   24 
Direct
    0.296914     0.530073     0.543483
    0.373385     0.654334     0.555729
    0.400970     0.650137     0.413499
    0.318703     0.534199     0.400152
    0.503996     0.338019     0.620138
    0.699372     0.469274     0.455377
    0.498557     0.651110     0.375732
    0.401551     0.339557     0.435733
    0.599638     0.346477     0.585171
    0.496982     0.539084     0.700338
    0.676148     0.471027     0.596730
    0.616310     0.353692     0.442169
    0.330768     0.451825     0.599095
    0.680770     0.549481     0.404131
    0.599612     0.661829     0.568133
    0.502470     0.459525     0.308702
    0.456818     0.654796     0.621013
    0.440999     0.454791     0.687014
    0.537847     0.345933     0.383719
    0.615499     0.663287     0.469469
    0.361390     0.455759     0.354162
    0.386464     0.339257     0.534019
    0.635722     0.549209     0.640629
    0.556218     0.541299     0.312538
    0.343692     0.594072     0.476485
    0.655526     0.405183     0.519514
    0.413864     0.390946     0.614596
    0.592531     0.603915     0.386898
    0.548446     0.606634     0.636615
    0.448509     0.398346     0.364727
    0.527857     0.483117     0.503818
    0.472224     0.516887     0.496014
    0.515973     0.519017     0.479598
    0.484103     0.480991     0.520234
    0.491067     0.481390     0.475626
    0.509010     0.518619     0.524203
    0.408348     0.554798     0.484585
    0.590680     0.444265     0.510017
    0.452646     0.434976     0.565749
    0.557114     0.559419     0.432771
    0.530049     0.562588     0.580359
    0.471257     0.440863     0.421317
EA153  20.484 20.697 18.613 90.00 90.00 90.00 Sym.group:    0
1.0000
   20.483727     0.000000     0.000000
    0.000000    20.696888     0.000000
    0.000000     0.000000    18.613418
   O  Cu
  18   24 
Direct
    0.500997     0.570729     0.681367
    0.535290     0.676916     0.581540
    0.658005     0.617628     0.545139
    0.626748     0.510045     0.645761
    0.687377     0.596387     0.443535
    0.522198     0.345353     0.600369
    0.421963     0.518997     0.674195
    0.677233     0.383590     0.470267
    0.338505     0.603823     0.424266
    0.353492     0.375569     0.446085
    0.443662     0.689614     0.506052
    0.475607     0.318595     0.539201
    0.313782     0.494503     0.525149
    0.376402     0.623474     0.459649
    0.350695     0.414630     0.479787
    0.417692     0.656966     0.471866
    0.684191     0.634968     0.512325
    0.341889     0.550748     0.563223
    0.561892     0.310272     0.454041
    0.639116     0.417422     0.617269
    0.435373     0.384743     0.624428
    0.697777     0.458676     0.400073
    0.582258     0.596505     0.617889
    0.657755     0.545044     0.360441
    0.602933     0.358098     0.537046
    0.531598     0.520552     0.504067
    0.534775     0.477894     0.489310
    0.556742     0.558173     0.560459
    0.600691     0.527470     0.410076
    0.508849     0.326979     0.502627
    0.332929     0.461561     0.490885
    0.541290     0.618167     0.370822
    0.398999     0.559477     0.377464
    0.412684     0.415508     0.390690
    0.563723     0.384464     0.396007
    0.395662     0.506092     0.575460
    0.463314     0.600464     0.376149
    0.392383     0.484991     0.388033
    0.486848     0.386713     0.396895
    0.428266     0.574488     0.565314
    0.430836     0.442096     0.578606
    0.517579     0.501615     0.446176
EA132  18.331 20.148 20.276 90.00 90.00 90.00 Sym.group:    0
1.0000
   18.331245     0.000000     0.000000
    0.000000    20.148265     0.000000
    0.000000     0.000000    20.275903
   O  Cu
  18   24 
Direct
    0.658720     0.624045     0.482546
    0.481429     0.599012     0.341860
    0.532550     0.575292     0.340690
    0.491621     0.623475     0.605329
    0.462116     0.688266     0.450611
    0.683750     0.447324     0.533668
    0.629841     0.365331     0.514264
    0.663154     0.420982     0.459201
    0.634089     0.584571     0.589946
    0.668031     0.516660     0.430345
    0.326665     0.450515     0.501216
    0.359467     0.401721     0.507527
    0.323964     0.557734     0.494774
    0.532050     0.345809     0.489787
    0.354310     0.606445     0.495226
    0.467032     0.346884     0.501541
    0.297850     0.394481     0.543817
    0.291906     0.409615     0.476347
    0.441912     0.593263     0.610048
    0.506739     0.694568     0.486022
    0.665217     0.594024     0.445966
    0.543382     0.579452     0.520500
    0.595369     0.651916     0.558829
    0.511020     0.534342     0.496640
    0.639838     0.460456     0.599539
    0.631387     0.447477     0.426592
    0.665536     0.491156     0.550131
    0.572353     0.549880     0.611024
    0.645083     0.523414     0.601126
    0.626178     0.510078     0.386728
    0.292212     0.618326     0.530368
    0.485089     0.299026     0.533397
    0.287206     0.596249     0.465134
    0.516476     0.295129     0.463850
    0.430888     0.410977     0.543594
    0.565099     0.404580     0.440351
    0.389981     0.571086     0.458224
    0.486846     0.384867     0.461356
    0.368806     0.552048     0.527296
    0.510214     0.388079     0.525149
    0.393473     0.432470     0.466552
    0.371150     0.458974     0.532888
EA60   20.938 21.224 20.443 90.00 90.00 90.00 Sym.group:    0
1.0000
   20.938245     0.000000     0.000000
    0.000000    21.223531     0.000000
    0.000000     0.000000    20.442644
   O  Cu
  18   24 
Direct
    0.649461     0.620650     0.390403
    0.710702     0.567828     0.468591
    0.575916     0.336163     0.422690
    0.659459     0.661844     0.496734
    0.644374     0.395111     0.620316
    0.453346     0.712468     0.486366
    0.571774     0.541874     0.305447
    0.544555     0.715641     0.552958
    0.371594     0.388403     0.525401
    0.518355     0.397755     0.663269
    0.445164     0.442735     0.344845
    0.382640     0.543137     0.650603
    0.556997     0.335703     0.474299
    0.337405     0.570936     0.453806
    0.329332     0.565760     0.560663
    0.554099     0.487309     0.702650
    0.454941     0.330881     0.497597
    0.309332     0.460976     0.553135
    0.479220     0.479081     0.299631
    0.655718     0.495925     0.665869
    0.708510     0.470615     0.567689
    0.578108     0.433376     0.323591
    0.577959     0.419943     0.540131
    0.580754     0.543931     0.413737
    0.630175     0.527632     0.526275
    0.536413     0.432557     0.423740
    0.461797     0.522828     0.396885
    0.560881     0.623302     0.505240
    0.539287     0.544082     0.542871
    0.510843     0.551029     0.473526
    0.553309     0.494133     0.489679
    0.499253     0.363606     0.388847
    0.401031     0.618710     0.384703
    0.349925     0.455819     0.603784
    0.322680     0.472564     0.485254
    0.543335     0.336514     0.580635
    0.472358     0.574873     0.695022
    0.405000     0.639338     0.617051
    0.431666     0.368254     0.611413
    0.366992     0.505288     0.376505
    0.387584     0.395346     0.419626
    0.377756     0.656083     0.498520
EA79   19.475 19.448 19.640 90.00 90.00 90.00 Sym.group:    0
1.0000
   19.474752     0.000000     0.000000
    0.000000    19.447693     0.000000
    0.000000     0.000000    19.639762
   O  Cu
  18   24 
Direct
    0.661179     0.433725     0.578133
    0.631226     0.588900     0.598046
    0.365770     0.377626     0.570353
    0.628980     0.397146     0.600088
    0.533724     0.315583     0.456510
    0.493225     0.495769     0.691976
    0.335817     0.532803     0.590268
    0.407925     0.355168     0.594267
    0.339924     0.506880     0.405408
    0.630731     0.630307     0.494396
    0.659641     0.563430     0.434025
    0.360994     0.597040     0.426555
    0.316946     0.542093     0.489824
    0.593520     0.626298     0.407827
    0.569821     0.346626     0.414723
    0.352419     0.592748     0.566503
    0.627692     0.493971     0.371625
    0.508325     0.668309     0.435286
    0.367897     0.562539     0.620879
    0.533606     0.308741     0.509078
    0.588954     0.604516     0.626700
    0.511129     0.419587     0.563434
    0.485923     0.550166     0.580192
    0.591682     0.511097     0.508506
    0.523106     0.348562     0.618619
    0.473661     0.604727     0.651492
    0.681136     0.528084     0.510861
    0.503673     0.463800     0.529082
    0.493558     0.516201     0.535807
    0.535999     0.500523     0.507039
    0.345834     0.413687     0.438460
    0.437681     0.600433     0.364617
    0.440559     0.382291     0.370466
    0.408823     0.617790     0.430859
    0.605487     0.622573     0.539231
    0.335752     0.526659     0.535834
    0.373859     0.468220     0.395804
    0.653430     0.511642     0.439061
    0.586413     0.394765     0.402433
    0.387178     0.392429     0.398731
    0.645271     0.444290     0.403040
    0.471526     0.642257     0.393962
EA97   23.302 23.557 14.113 90.00 90.00 90.00 Sym.group:    0
1.0000
   23.302128     0.000000     0.000000
    0.000000    23.557234     0.000000
    0.000000     0.000000    14.112635
   O  Cu
  18   24 
Direct
    0.558554     0.510044     0.526086
    0.479516     0.444819     0.526085
    0.461930     0.545139     0.526086
    0.676646     0.622831     0.466101
    0.519216     0.287262     0.466101
    0.304138     0.589907     0.466102
    0.449814     0.398024     0.513562
    0.435812     0.593980     0.513563
    0.614374     0.507996     0.513563
    0.319280     0.308485     0.471660
    0.422688     0.750570     0.471660
    0.758032     0.440944     0.471660
    0.561105     0.371183     0.532205
    0.356668     0.512063     0.532205
    0.582228     0.616754     0.532204
    0.524225     0.459795     0.555898
    0.452688     0.499350     0.555899
    0.523088     0.540855     0.555899
    0.644983     0.564978     0.483964
    0.484397     0.343313     0.483963
    0.370620     0.591710     0.483965
    0.513384     0.427285     0.451550
    0.429645     0.524893     0.451551
    0.556971     0.547823     0.451551
    0.639528     0.480263     0.529859
    0.412956     0.390342     0.529859
    0.447515     0.629396     0.529860
    0.547969     0.695634     0.487899
    0.647295     0.361090     0.487901
    0.304737     0.443276     0.487900
    0.581866     0.312855     0.535616
    0.295220     0.523443     0.535614
    0.622915     0.663702     0.535613
    0.602587     0.494673     0.451850
    0.444042     0.414783     0.451850
    0.453370     0.590544     0.451851
    0.700034     0.501896     0.522833
    0.401643     0.327694     0.522832
    0.398323     0.670410     0.522833
    0.509945     0.388909     0.470915
    0.397768     0.547026     0.470916
    0.592288     0.564064     0.470916
EA151  23.369 23.555 14.115 90.00 90.00 90.00 Sym.group:    0
1.0000
   23.368974     0.000000     0.000000
    0.000000    23.554756     0.000000
    0.000000     0.000000    14.115398
   O  Cu
  18   24 
Direct
    0.558187     0.488567     0.528178
    0.480886     0.555710     0.528177
    0.460927     0.455722     0.528177
    0.672271     0.371794     0.462619
    0.525776     0.712117     0.462618
    0.301953     0.416089     0.462620
    0.452582     0.603313     0.515526
    0.433527     0.407602     0.515526
    0.613892     0.489085     0.515527
    0.324432     0.695849     0.471733
    0.416825     0.251229     0.471733
    0.758743     0.552922     0.471733
    0.562634     0.625564     0.530333
    0.359077     0.491034     0.530334
    0.578288     0.383402     0.530332
    0.525125     0.539626     0.558197
    0.452848     0.501774     0.558198
    0.522028     0.458600     0.558198
    0.642856     0.431437     0.486616
    0.488422     0.657023     0.486614
    0.368721     0.411540     0.486615
    0.514883     0.572234     0.454010
    0.429505     0.476670     0.454011
    0.555613     0.451096     0.454012
    0.639708     0.516049     0.531406
    0.416137     0.612012     0.531405
    0.444154     0.371939     0.531406
    0.543944     0.303921     0.483126
    0.649187     0.635797     0.483128
    0.306869     0.560282     0.483129
    0.584519     0.683303     0.526482
    0.297733     0.480967     0.526481
    0.617748     0.335732     0.526479
    0.602551     0.503004     0.453675
    0.446102     0.586610     0.453674
    0.451346     0.410387     0.453675
    0.699437     0.492846     0.524610
    0.406527     0.674931     0.524607
    0.394037     0.332222     0.524608
    0.512591     0.610720     0.473490
    0.397057     0.455459     0.473490
    0.590352     0.433822     0.473491
EA13   23.817 23.272 14.226 90.00 90.00 90.00 Sym.group:    0
1.0000
   23.816963     0.000000     0.000000
    0.000000    23.271519     0.000000
    0.000000     0.000000    14.226150
   O  Cu
  18   24 
Direct
    0.327378     0.592434     0.555748
    0.491906     0.699215     0.555748
    0.664528     0.606781     0.555748
    0.672622     0.407566     0.555748
    0.508094     0.300785     0.555748
    0.335472     0.393219     0.555748
    0.408640     0.676105     0.444252
    0.305301     0.507078     0.444252
    0.396661     0.330973     0.444252
    0.591360     0.323895     0.444252
    0.694699     0.492922     0.444252
    0.603339     0.669027     0.444252
    0.327378     0.592434     0.444252
    0.491906     0.699215     0.444252
    0.664528     0.606781     0.444252
    0.672622     0.407566     0.444252
    0.508094     0.300785     0.444252
    0.335472     0.393219     0.444252
    0.408640     0.676105     0.555748
    0.305301     0.507078     0.555748
    0.396661     0.330973     0.555748
    0.591360     0.323895     0.555748
    0.694699     0.492922     0.555748
    0.603339     0.669027     0.555748
    0.403866     0.278494     0.500000
    0.264497     0.474453     0.500000
    0.360630     0.695958     0.500000
    0.596134     0.721506     0.500000
    0.735503     0.525547     0.500000
    0.639370     0.304042     0.500000
    0.715847     0.599726     0.500000
    0.523536     0.741173     0.500000
    0.307689     0.641448     0.500000
    0.284153     0.400274     0.500000
    0.476464     0.258827     0.500000
    0.692311     0.358552     0.500000
    0.549147     0.314529     0.500000
    0.367629     0.363705     0.500000
    0.318483     0.549176     0.500000
    0.450853     0.685471     0.500000
    0.632371     0.636295     0.500000
    0.681517     0.450824     0.500000
EA103  23.705 24.009 14.311 90.00 90.00 90.00 Sym.group:    0
1.0000
   23.704825     0.000000     0.000000
    0.000000    24.009428     0.000000
    0.000000     0.000000    14.310685
   O  Cu
  18   24 
Direct
    0.372994     0.355424     0.558373
    0.304994     0.534398     0.554648
    0.432756     0.681047     0.553235
    0.627006     0.644576     0.558373
    0.695006     0.465602     0.554648
    0.567244     0.318953     0.553235
    0.308721     0.449418     0.445486
    0.449259     0.314128     0.446630
    0.639569     0.366609     0.441629
    0.691279     0.550582     0.445486
    0.550741     0.685872     0.446630
    0.360431     0.633391     0.441629
    0.372595     0.354015     0.447527
    0.301579     0.534821     0.443826
    0.435129     0.676871     0.442390
    0.627405     0.645985     0.447527
    0.698421     0.465179     0.443826
    0.564871     0.323129     0.442390
    0.305677     0.448648     0.556275
    0.451304     0.318750     0.557496
    0.640402     0.364767     0.552484
    0.694323     0.551352     0.556275
    0.548696     0.681250     0.557496
    0.359598     0.635233     0.552484
    0.691705     0.359855     0.498320
    0.472402     0.269941     0.497738
    0.279074     0.405795     0.503941
    0.308295     0.640145     0.498320
    0.527598     0.730059     0.497738
    0.720926     0.594205     0.503941
    0.452206     0.727057     0.501859
    0.271324     0.575162     0.496006
    0.321807     0.344344     0.502134
    0.547794     0.272943     0.501859
    0.728676     0.424838     0.496006
    0.678193     0.655656     0.502134
    0.693835     0.508134     0.500040
    0.601558     0.345709     0.497257
    0.412877     0.338196     0.502704
    0.306165     0.491866     0.500040
    0.398442     0.654291     0.497257
    0.587123     0.661804     0.502704
EA69   20.688 20.273 21.269 90.00 90.00 90.00 Sym.group:    0
1.0000
   20.687521     0.000000     0.000000
    0.000000    20.272601     0.000000
    0.000000     0.000000    21.269430
   O  Cu
  18   24 
Direct
    0.639511     0.394750     0.564064
    0.316717     0.447582     0.553325
    0.379411     0.342070     0.395377
    0.578909     0.309419     0.402015
    0.462405     0.303023     0.564697
    0.318747     0.379642     0.474456
    0.430247     0.571861     0.627767
    0.563156     0.324304     0.582907
    0.315644     0.569583     0.514571
    0.495390     0.677893     0.521954
    0.672267     0.574992     0.515773
    0.695235     0.458242     0.438935
    0.608907     0.647394     0.450869
    0.403843     0.660542     0.451222
    0.285105     0.484535     0.439640
    0.313292     0.574290     0.445469
    0.493038     0.682600     0.452851
    0.669915     0.579699     0.446670
    0.526655     0.272908     0.485304
    0.377808     0.462803     0.632382
    0.648005     0.500765     0.575439
    0.685766     0.437215     0.480307
    0.465556     0.375733     0.639231
    0.476667     0.296427     0.383321
    0.406496     0.292574     0.481306
    0.572228     0.430982     0.638850
    0.649264     0.385819     0.382704
    0.633326     0.328155     0.484922
    0.550405     0.552195     0.631765
    0.368735     0.356124     0.576438
    0.611259     0.642688     0.519971
    0.406195     0.655835     0.520324
    0.741341     0.489257     0.475736
    0.355490     0.680607     0.487093
    0.605485     0.700827     0.488990
    0.296498     0.624414     0.483345
    0.724845     0.568384     0.480775
    0.529998     0.723764     0.490281
    0.638846     0.609535     0.483210
    0.302603     0.526382     0.477068
    0.450104     0.666881     0.486439
    0.334686     0.437306     0.372239
EA159  22.199 21.099 19.584 90.00 90.00 90.00 Sym.group:    0
1.0000
   22.199301     0.000000     0.000000
    0.000000    21.098804     0.000000
    0.000000     0.000000    19.584492
   O  Cu
  18   24 
Direct
    0.704890     0.488230     0.558724
    0.590801     0.652203     0.453753
    0.659075     0.480702     0.638021
    0.513997     0.329540     0.399747
    0.445071     0.380688     0.360332
    0.671246     0.401295     0.572086
    0.542204     0.602538     0.379084
    0.521915     0.434013     0.324417
    0.572876     0.442991     0.679004
    0.666514     0.581888     0.442454
    0.662552     0.363545     0.473846
    0.383999     0.705561     0.527386
    0.278919     0.435467     0.563412
    0.275413     0.440056     0.521518
    0.520555     0.694763     0.458521
    0.333701     0.582542     0.490880
    0.366306     0.355147     0.498215
    0.525439     0.690713     0.523339
    0.551694     0.309541     0.486026
    0.678127     0.586905     0.561524
    0.560596     0.342717     0.424319
    0.632597     0.371991     0.543922
    0.535852     0.548548     0.364216
    0.687718     0.516590     0.520977
    0.611406     0.503744     0.652740
    0.616786     0.630809     0.488184
    0.681377     0.589233     0.500825
    0.489444     0.489128     0.329709
    0.611878     0.327154     0.478038
    0.338848     0.576705     0.555925
    0.371765     0.348004     0.563440
    0.358880     0.675399     0.513184
    0.296000     0.403510     0.541349
    0.423251     0.570082     0.506091
    0.407681     0.441080     0.516299
    0.536209     0.596493     0.489676
    0.374876     0.646101     0.554649
    0.325554     0.404796     0.578428
    0.368137     0.653743     0.469499
    0.318408     0.414147     0.493042
    0.502968     0.489494     0.568806
    0.484474     0.502202     0.434393
EA58   18.430 21.571 21.630 90.00 90.00 90.00 Sym.group:    0
1.0000
   18.429566     0.000000     0.000000
    0.000000    21.570833     0.000000
    0.000000     0.000000    21.629596
   O  Cu
  18   24 
Direct
    0.553039     0.476634     0.496723
    0.594041     0.324132     0.470980
    0.647384     0.674984     0.448794
    0.607628     0.446782     0.493149
    0.785497     0.417499     0.476884
    0.645655     0.582684     0.501516
    0.510149     0.377827     0.508518
    0.642768     0.605622     0.538081
    0.423631     0.336711     0.521394
    0.464385     0.504705     0.615493
    0.374641     0.582656     0.399775
    0.434107     0.656708     0.540329
    0.298673     0.490511     0.530015
    0.511777     0.687990     0.474481
    0.356171     0.498090     0.595195
    0.343973     0.481421     0.379774
    0.553823     0.533884     0.513742
    0.380186     0.482869     0.477581
    0.599195     0.386330     0.475460
    0.553931     0.570075     0.436698
    0.520737     0.451485     0.443332
    0.651049     0.453144     0.507070
    0.422783     0.340519     0.476631
    0.730306     0.541230     0.479739
    0.703842     0.615344     0.509884
    0.521233     0.317171     0.520908
    0.598316     0.466493     0.447349
    0.695981     0.401965     0.508165
    0.547039     0.417813     0.460951
    0.302118     0.545039     0.465267
    0.431433     0.405455     0.590003
    0.545184     0.658974     0.554781
    0.373481     0.333287     0.453026
    0.559521     0.448305     0.593005
    0.337935     0.589641     0.549923
    0.383690     0.645141     0.471479
    0.563421     0.567422     0.600054
    0.331625     0.396907     0.538519
    0.298217     0.425922     0.458218
    0.437743     0.598190     0.601407
    0.475960     0.643388     0.389825
    0.287735     0.619051     0.485883
EA120  20.602 19.469 20.980 90.00 90.00 90.00 Sym.group:    0
1.0000
   20.601744     0.000000     0.000000
    0.000000    19.469217     0.000000
    0.000000     0.000000    20.979678
   O  Cu
  18   24 
Direct
    0.492878     0.447474     0.477424
    0.340708     0.387246     0.496817
    0.468083     0.393063     0.476688
    0.385135     0.474726     0.462091
    0.634053     0.385917     0.431198
    0.332375     0.549815     0.450944
    0.664144     0.584497     0.443949
    0.477695     0.685791     0.456154
    0.551357     0.455879     0.460831
    0.481571     0.605319     0.510033
    0.640566     0.318188     0.471361
    0.474770     0.430447     0.668063
    0.604754     0.311782     0.557240
    0.617480     0.432653     0.637760
    0.462044     0.309576     0.587544
    0.420731     0.518878     0.658791
    0.583911     0.650538     0.594125
    0.635717     0.659804     0.469886
    0.405489     0.391194     0.494361
    0.478635     0.355271     0.458569
    0.338718     0.547161     0.501778
    0.322784     0.457559     0.444546
    0.430423     0.307295     0.452147
    0.433244     0.441997     0.515466
    0.400666     0.557850     0.376138
    0.677791     0.484089     0.420858
    0.327162     0.589385     0.531167
    0.458869     0.446224     0.366849
    0.583615     0.664703     0.435888
    0.582367     0.459133     0.364245
    0.383791     0.643814     0.440101
    0.414690     0.671284     0.534305
    0.600490     0.578738     0.371926
    0.485263     0.649014     0.615072
    0.662089     0.522609     0.607540
    0.403444     0.591219     0.593460
    0.653807     0.595091     0.540298
    0.521591     0.465648     0.517803
    0.497110     0.505710     0.513602
    0.541800     0.506401     0.504112
    0.530990     0.416752     0.566862
    0.597199     0.550266     0.522009
EA143  22.660 17.391 22.666 90.00 90.00 90.00 Sym.group:    0
1.0000
   22.659670     0.000000     0.000000
    0.000000    17.391147     0.000000
    0.000000     0.000000    22.665537
   O  Cu
  18   24 
Direct
    0.594120     0.294058     0.468171
    0.402589     0.280632     0.459812
    0.297120     0.489248     0.445889
    0.489821     0.254399     0.549543
    0.657734     0.373882     0.552223
    0.325482     0.383851     0.536289
    0.598864     0.294720     0.552892
    0.407333     0.281293     0.544534
    0.301864     0.489909     0.530610
    0.487159     0.717215     0.482623
    0.654614     0.590083     0.480831
    0.596422     0.699831     0.538223
    0.405378     0.713880     0.546328
    0.682203     0.463266     0.545236
    0.487666     0.742661     0.541225
    0.655120     0.615530     0.539433
    0.323704     0.604446     0.555133
    0.643373     0.485719     0.398896
    0.652990     0.373221     0.467502
    0.320738     0.383190     0.451568
    0.705732     0.383572     0.511781
    0.519516     0.202425     0.510908
    0.304807     0.321857     0.495735
    0.258599     0.529353     0.484625
    0.358132     0.255042     0.501106
    0.624353     0.335943     0.510038
    0.446728     0.270264     0.504584
    0.313398     0.437326     0.491153
    0.404872     0.688433     0.487725
    0.358421     0.728722     0.517891
    0.590267     0.757129     0.505953
    0.722751     0.492999     0.512101
    0.705107     0.592195     0.508321
    0.519414     0.785031     0.507909
    0.305212     0.657427     0.523628
    0.446789     0.712619     0.514587
    0.623947     0.642852     0.509696
    0.553412     0.474767     0.500309
    0.403543     0.624861     0.426092
    0.701696     0.426752     0.479797
    0.502739     0.569073     0.378897
    0.646273     0.580323     0.430204
EA70   20.306 21.391 19.342 90.00 90.00 90.00 Sym.group:    0
1.0000
   20.305604     0.000000     0.000000
    0.000000    21.390630     0.000000
    0.000000     0.000000    19.342018
   O  Cu
  18   24 
Direct
    0.274876     0.517410     0.559608
    0.396999     0.352897     0.450602
    0.327846     0.521438     0.641668
    0.491007     0.673496     0.397054
    0.559742     0.616051     0.358053
    0.316872     0.600991     0.573584
    0.452846     0.398855     0.375107
    0.477458     0.563232     0.325889
    0.422853     0.552391     0.678473
    0.316396     0.425238     0.442582
    0.328628     0.636050     0.474786
    0.617739     0.294461     0.529317
    0.744256     0.557126     0.564023
    0.748822     0.553190     0.521580
    0.473340     0.310274     0.451517
    0.679230     0.413329     0.490766
    0.652460     0.639950     0.498411
    0.466232     0.316400     0.517596
    0.448533     0.691234     0.484644
    0.298131     0.418727     0.564168
    0.440252     0.659034     0.422692
    0.360592     0.627544     0.545380
    0.460478     0.451623     0.361969
    0.290936     0.488878     0.522219
    0.378813     0.495588     0.658340
    0.367806     0.375397     0.487199
    0.297302     0.417406     0.502774
    0.512603     0.508780     0.327701
    0.383244     0.672813     0.477769
    0.672122     0.419456     0.556846
    0.645351     0.646077     0.564490
    0.646934     0.323016     0.514132
    0.726990     0.589503     0.541418
    0.581506     0.429669     0.509063
    0.604287     0.556094     0.519515
    0.456204     0.408464     0.487381
    0.629658     0.352696     0.556677
    0.693871     0.588478     0.579734
    0.638964     0.344675     0.470172
    0.703177     0.580457     0.493229
    0.500037     0.512084     0.568642
    0.514604     0.499528     0.433231
EA141  22.244 18.885 21.433 90.00 90.00 90.00 Sym.group:    0
1.0000
   22.244328     0.000000     0.000000
    0.000000    18.885118     0.000000
    0.000000     0.000000    21.432820
   O  Cu
  18   24 
Direct
    0.615457     0.355391     0.473583
    0.640413     0.628218     0.523253
    0.437436     0.276340     0.494112
    0.716846     0.421707     0.490452
    0.449192     0.374607     0.540157
    0.624330     0.440751     0.442600
    0.562593     0.475089     0.570911
    0.526522     0.575215     0.418143
    0.475233     0.459723     0.412609
    0.323429     0.450234     0.555958
    0.326722     0.377044     0.479536
    0.429373     0.589222     0.624942
    0.327580     0.586619     0.526356
    0.497475     0.711520     0.529017
    0.414877     0.691673     0.467679
    0.299935     0.493446     0.454455
    0.328466     0.593648     0.462860
    0.498361     0.718550     0.465520
    0.549188     0.399913     0.438043
    0.608643     0.555591     0.552661
    0.491017     0.293933     0.518589
    0.695781     0.483536     0.469626
    0.705476     0.361558     0.494714
    0.383560     0.293533     0.485210
    0.542465     0.296312     0.528510
    0.689914     0.542056     0.463652
    0.525992     0.236978     0.483548
    0.748237     0.519917     0.509072
    0.444628     0.407032     0.442024
    0.607243     0.437362     0.540196
    0.560955     0.623657     0.453513
    0.504578     0.513431     0.477324
    0.456086     0.372270     0.623751
    0.540346     0.570588     0.621210
    0.368183     0.349558     0.569918
    0.604267     0.675690     0.519203
    0.368976     0.711640     0.504430
    0.601885     0.740878     0.493815
    0.312680     0.647776     0.501291
    0.532310     0.764222     0.500208
    0.315812     0.539344     0.490218
    0.347539     0.444229     0.387130
EA139  20.049 21.169 21.012 90.00 90.00 90.00 Sym.group:    0
1.0000
   20.048679     0.000000     0.000000
    0.000000    21.168909     0.000000
    0.000000     0.000000    21.012327
   O  Cu
  18   24 
Direct
    0.493617     0.474940     0.313319
    0.741459     0.476378     0.471166
    0.334932     0.494363     0.439544
    0.407694     0.383159     0.390725
    0.420854     0.586143     0.362139
    0.598033     0.470319     0.321441
    0.603772     0.308415     0.464102
    0.626029     0.651710     0.415757
    0.596143     0.321155     0.602077
    0.474932     0.671669     0.534826
    0.672779     0.647399     0.509714
    0.574353     0.466585     0.668703
    0.578369     0.690044     0.530374
    0.450342     0.384191     0.604087
    0.349577     0.542954     0.553160
    0.377602     0.607016     0.436823
    0.358325     0.435347     0.520667
    0.339437     0.511938     0.489428
    0.663166     0.371857     0.410596
    0.452716     0.315097     0.452352
    0.409749     0.484460     0.371708
    0.674753     0.472736     0.392322
    0.524016     0.311722     0.528116
    0.513101     0.488826     0.479599
    0.560405     0.486732     0.483279
    0.461984     0.486666     0.426237
    0.616961     0.479810     0.438292
    0.528807     0.385648     0.517707
    0.674660     0.518636     0.635680
    0.416066     0.605821     0.583805
    0.402129     0.632915     0.468827
    0.644153     0.626512     0.606719
    0.524989     0.641129     0.621844
    0.502437     0.684968     0.435805
    0.481851     0.542290     0.660152
    0.728041     0.567552     0.544209
    0.368464     0.466361     0.584398
    0.327754     0.622512     0.481018
    0.339844     0.410722     0.576407
    0.302891     0.560570     0.515289
    0.393185     0.357188     0.589234
    0.489631     0.355547     0.568351
EA150  20.918 22.007 21.158 90.00 90.00 90.00 Sym.group:    0
1.0000
   20.918086     0.000000     0.000000
    0.000000    22.007393     0.000000
    0.000000     0.000000    21.158162
   O  Cu
  18   24 
Direct
    0.672883     0.604318     0.425084
    0.646899     0.538062     0.355613
    0.396018     0.581672     0.356426
    0.700543     0.507652     0.453012
    0.478829     0.367802     0.317124
    0.725624     0.511183     0.614368
    0.573246     0.689500     0.475346
    0.726173     0.462767     0.572127
    0.316190     0.468925     0.555862
    0.412094     0.337948     0.492437
    0.415466     0.642862     0.519008
    0.494800     0.352818     0.627926
    0.381686     0.529992     0.382885
    0.497784     0.590728     0.594361
    0.504613     0.406864     0.623058
    0.538865     0.301148     0.444558
    0.320801     0.492635     0.447967
    0.372348     0.454637     0.633949
    0.465676     0.686814     0.510927
    0.573058     0.342224     0.342396
    0.577540     0.413048     0.317187
    0.487500     0.665745     0.404745
    0.467686     0.467951     0.412454
    0.578539     0.588881     0.468616
    0.588421     0.486744     0.425850
    0.459677     0.571922     0.440287
    0.491629     0.598156     0.552091
    0.632395     0.506230     0.534969
    0.551979     0.466511     0.511703
    0.544251     0.529551     0.534579
    0.518741     0.514536     0.468826
    0.381569     0.598981     0.429185
    0.541712     0.584806     0.650999
    0.406543     0.390766     0.582029
    0.357897     0.508892     0.643989
    0.379340     0.431493     0.398607
    0.552293     0.335784     0.567282
    0.598465     0.394345     0.635350
    0.283842     0.395145     0.498920
    0.422593     0.617708     0.619625
    0.341154     0.569473     0.539253
    0.622638     0.492782     0.619021
EA76   19.932 21.569 19.938 90.00 90.00 90.00 Sym.group:    0
1.0000
   19.932452     0.000000     0.000000
    0.000000    21.568979     0.000000
    0.000000     0.000000    19.938094
   O  Cu
  18   24 
Direct
    0.434912     0.670084     0.570816
    0.645960     0.640275     0.589849
    0.313301     0.517863     0.548515
    0.565870     0.679283     0.509827
    0.367495     0.622833     0.486285
    0.332725     0.432720     0.470102
    0.441664     0.671201     0.496911
    0.320054     0.518981     0.474611
    0.728623     0.547303     0.469455
    0.502849     0.297283     0.600706
    0.364813     0.422627     0.439223
    0.721158     0.454519     0.445002
    0.599722     0.322649     0.630001
    0.427549     0.460419     0.365045
    0.604658     0.454722     0.347247
    0.507669     0.531378     0.342087
    0.419595     0.340503     0.453853
    0.640453     0.321884     0.532876
    0.360743     0.621716     0.560190
    0.325973     0.431603     0.544007
    0.301695     0.388716     0.501393
    0.307811     0.625138     0.517819
    0.533840     0.725034     0.547022
    0.703743     0.650903     0.558991
    0.452922     0.719769     0.538608
    0.276904     0.557479     0.510213
    0.325402     0.475448     0.509557
    0.402679     0.644617     0.528574
    0.605003     0.657782     0.549613
    0.671666     0.627563     0.480094
    0.727546     0.419754     0.544679
    0.406446     0.332665     0.581761
    0.693056     0.413551     0.473272
    0.638614     0.355481     0.602316
    0.484297     0.458513     0.362152
    0.477900     0.313413     0.553740
    0.623979     0.524118     0.374227
    0.705426     0.567477     0.513813
    0.380230     0.395792     0.485201
    0.405791     0.328465     0.517057
    0.557077     0.493831     0.334069
    0.692185     0.364647     0.539221
EA89   23.027 23.033 15.686 90.00 90.00 90.00 Sym.group:    0
1.0000
   23.027455     0.000000     0.000000
    0.000000    23.033151     0.000000
    0.000000     0.000000    15.686121
   O  Cu
  18   24 
Direct
    0.395868     0.631213     0.476612
    0.369000     0.395998     0.528743
    0.604147     0.369074     0.475861
    0.631105     0.604084     0.529872
    0.429339     0.297610     0.516273
    0.702555     0.429329     0.488476
    0.570739     0.702512     0.517699
    0.297472     0.570907     0.488536
    0.440156     0.383790     0.571213
    0.616198     0.440237     0.433732
    0.560017     0.616178     0.572157
    0.383769     0.560197     0.433917
    0.550102     0.474140     0.599689
    0.525797     0.550210     0.405951
    0.450084     0.525688     0.599770
    0.474166     0.450292     0.405535
    0.456972     0.597379     0.434894
    0.402913     0.457001     0.570657
    0.542994     0.403047     0.434231
    0.597274     0.542959     0.571253
    0.480121     0.315432     0.543121
    0.684625     0.480127     0.461908
    0.520001     0.684642     0.544307
    0.315377     0.520198     0.461629
    0.690094     0.378124     0.496252
    0.621930     0.690023     0.509938
    0.309949     0.622092     0.496670
    0.378121     0.310121     0.508263
    0.470754     0.680436     0.553494
    0.319454     0.471035     0.452370
    0.529339     0.319522     0.552072
    0.680489     0.529340     0.453198
    0.264394     0.485214     0.510340
    0.514700     0.266318     0.497802
    0.733872     0.514643     0.507307
    0.485998     0.730169     0.491487
    0.405938     0.558131     0.558908
    0.441871     0.406133     0.446317
    0.594187     0.441870     0.558676
    0.558101     0.594213     0.447111
    0.500029     0.500125     0.484094
    0.499986     0.500245     0.409664
