EA49   18.198 18.327 18.686 90.00 90.00 90.00 Sym.group:    0
1.0000
   18.198066     0.000000     0.000000
    0.000000    18.326882     0.000000
    0.000000     0.000000    18.686443
   O  Cu
  18   24 
Direct
    0.434013     0.578597     0.500000
    0.586787     0.512263     0.447238
    0.507633     0.446740     0.585370
    0.565987     0.421403     0.500000
    0.413213     0.487737     0.447238
    0.492367     0.553260     0.585370
    0.541287     0.593756     0.500000
    0.413213     0.487737     0.552762
    0.507633     0.446740     0.414630
    0.458713     0.406244     0.500000
    0.586787     0.512263     0.552762
    0.492367     0.553260     0.414630
    0.500000     0.500000     0.661787
    0.500000     0.500000     0.338213
    0.476595     0.663316     0.500000
    0.523405     0.336684     0.500000
    0.664472     0.523240     0.500000
    0.335528     0.476760     0.500000
    0.621358     0.600459     0.549995
    0.378642     0.399541     0.450005
    0.430241     0.624943     0.419107
    0.569759     0.375057     0.580893
    0.589469     0.461152     0.369112
    0.410531     0.538848     0.630888
    0.575004     0.562088     0.369112
    0.424996     0.437912     0.630888
    0.355237     0.562856     0.450005
    0.644763     0.437144     0.549995
    0.468110     0.360693     0.419107
    0.531890     0.639307     0.580893
    0.424996     0.437912     0.369112
    0.575004     0.562088     0.630888
    0.355237     0.562856     0.549995
    0.644763     0.437144     0.450005
    0.468110     0.360693     0.580893
    0.531890     0.639307     0.419107
    0.378642     0.399541     0.549995
    0.621358     0.600459     0.450005
    0.430241     0.624943     0.580893
    0.569759     0.375057     0.419107
    0.589469     0.461152     0.630888
    0.410531     0.538848     0.369112
