Generation:1
EA1
 1.0000000000000000
     9.3606384628222123    0.0000000000000000    0.0000000000000000
     0.0000000000000000    9.3606384628222123    0.0000000000000000
     0.0000000000000000    0.0000000000000000   18.0098743123918297
 O   Cu 
  18  24
Direct
  0.5000000000000000  0.5000000000000000  0.7223745200398366
  0.5000000000000000  0.5000000000000000  0.2776254799601634
  0.5000000000000000  0.5000000000000000  0.5632418741055252
  0.5000000000000000  0.5000000000000000  0.4367581258944749
  0.6416156915112738  0.9461183807741087  0.6823243396821687
  0.3583843084887261  0.0538816192258912  0.6823243396821685
  0.9461183807741087  0.3583843084887261  0.3176756603178314
  0.0538816192258912  0.6416156915112738  0.3176756603178313
  0.6629385991760232  0.5020533840063388  0.6522407180617716
  0.3370614008239768  0.4979466159936612  0.6522407180617716
  0.5020533840063388  0.3370614008239768  0.3477592819382284
  0.4979466159936612  0.6629385991760232  0.3477592819382284
  0.8940818510743737  0.5790524542926009  0.6893962850202519
  0.1059181489256263  0.4209475457073992  0.6893962850202519
  0.5790524542926009  0.1059181489256263  0.3106037149797481
  0.4209475457073992  0.8940818510743737  0.3106037149797481
  0.5000000000000000  0.5000000000000000  0.6286628327866178
  0.5000000000000000  0.5000000000000000  0.3713371672133821
  0.8333076858818302  0.6628950460230432  0.6132039104047149
  0.1666923141181698  0.3371049539769568  0.6132039104047149
  0.6628950460230432  0.1666923141181698  0.3867960895952852
  0.3371049539769568  0.8333076858818302  0.3867960895952852
  0.9847045707328129  0.7222711063700309  0.5982776946118187
  0.0152954292671870  0.2777288936299691  0.5982776946118187
  0.7222711063700309  0.0152954292671870  0.4017223053881814
  0.2777288936299691  0.9847045707328129  0.4017223053881814
  0.7364150738961366  0.7664023002328840  0.6308028240796898
  0.2635849261038635  0.2335976997671160  0.6308028240796897
  0.7664023002328840  0.2635849261038635  0.3691971759203103
  0.2335976997671160  0.7364150738961366  0.3691971759203103
  0.7883234097324122  0.7623046429544315  0.5007033928789600
  0.2116765902675877  0.2376953570455685  0.5007033928789599
  0.7623046429544315  0.2116765902675877  0.4992966071210400
  0.2376953570455685  0.7883234097324122  0.4992966071210400
  0.9598655768722878  1.0000000000000000  0.5060701918493422
  0.0401344231277123  0.0000000000000000  0.5060701918493422
  1.0000000000000000  0.0401344231277123  0.4939298081506578
  0.0000000000000000  0.9598655768722878  0.4939298081506578
  0.7410494833547543  0.8426730115185156  0.5678476542826799
  0.2589505166452458  0.1573269884814844  0.5678476542826799
  0.8426730115185156  0.2589505166452458  0.4321523457173200
  0.1573269884814844  0.7410494833547543  0.4321523457173200
EA2
 1.0000000000000000
     6.4322513580314693    0.0000000000000000    0.0000000000000000
     0.0000000000000000    6.4322513580314693    0.0000000000000000
     0.0000000000000000    0.0000000000000000   16.4322513580314720
 O   Cu 
  18  24
Direct
  0.5000000000000000  0.8860382667312250  0.6511110748814338
  0.5000000000000000  0.1139617332687750  0.6511110748814338
  0.5000000000000000  0.8860382667312250  0.3488889251185662
  0.5000000000000000  0.1139617332687750  0.3488889251185662
  0.8860382667312250  0.5000000000000000  0.6511110748814338
  0.8860382667312250  0.5000000000000000  0.3488889251185662
  0.1139617332687750  0.5000000000000000  0.6511110748814338
  0.1139617332687750  0.5000000000000000  0.3488889251185662
  0.8860382667312250  0.8860382667312250  0.5000000000000000
  0.1139617332687750  0.8860382667312250  0.5000000000000000
  0.8860382667312250  0.1139617332687750  0.5000000000000000
  0.1139617332687750  0.1139617332687750  0.5000000000000000
  0.7712639982621956  0.5000000000000000  0.5000000000000000
  0.2287360017378045  0.5000000000000000  0.5000000000000000
  0.5000000000000000  0.7712639982621956  0.5000000000000000
  0.5000000000000000  0.2287360017378045  0.5000000000000000
  0.5000000000000000  0.5000000000000000  0.6061837591934256
  0.5000000000000000  0.5000000000000000  0.3938162408065745
  0.9567098659904577  0.6189475283326070  0.6957203312523462
  0.0432901340095423  0.3810524716673930  0.6957203312523461
  0.0432901340095423  0.6189475283326069  0.3042796687476538
  0.9567098659904577  0.3810524716673930  0.3042796687476539
  1.0000000000000000  0.9567098659904577  0.5465608992938114
  1.0000000000000000  0.0432901340095423  0.4534391007061886
  0.0000000000000000  0.0432901340095423  0.5465608992938114
  0.0000000000000000  0.9567098659904577  0.4534391007061886
  0.6189475283326070  1.0000000000000000  0.6787748125157340
  0.3810524716673930  1.0000000000000000  0.3212251874842660
  0.6189475283326070  0.0000000000000000  0.3212251874842660
  0.3810524716673930  0.0000000000000000  0.6787748125157339
  0.6189475283326070  0.9567098659904577  0.3042796687476539
  0.3810524716673930  0.0432901340095423  0.3042796687476538
  0.6189475283326070  0.0432901340095423  0.6957203312523461
  0.3810524716673930  0.9567098659904577  0.6957203312523462
  0.9567098659904577  1.0000000000000000  0.4534391007061886
  0.0432901340095423  1.0000000000000000  0.5465608992938114
  0.0432901340095423  0.0000000000000000  0.4534391007061886
  0.9567098659904577  0.0000000000000000  0.5465608992938114
  1.0000000000000000  0.6189475283326070  0.3212251874842660
  1.0000000000000000  0.3810524716673930  0.6787748125157340
  0.0000000000000000  0.6189475283326069  0.6787748125157339
  0.0000000000000000  0.3810524716673930  0.3212251874842660
EA3
 1.0000000000000000
    10.2454968529476211    0.0000000000000000    0.0000000000000000
     0.0000000000000000    9.5926222002176083    0.0000000000000000
     0.0000000000000000    0.0000000000000000   18.7464624283735830
 O   Cu 
  18  24
Direct
  0.6190101226702518  0.5568944191563607  0.5000000000000000
  0.5133728135737378  0.6385276651968814  0.5000000000000000
  0.3943626909034859  0.5816332460405209  0.5000000000000000
  0.3809898773297481  0.4431055808436393  0.5000000000000000
  0.4866271864262621  0.3614723348031186  0.5000000000000000
  0.6056373090965140  0.4183667539594791  0.5000000000000000
  0.8656464195347990  0.6936866343223015  0.7292346524511267
  0.8656464195347990  0.6936866343223015  0.2707653475488733
  0.1601279981872938  0.7413676144354989  0.7292346524511267
  0.5257744177220931  0.9350542487578005  0.2707653475488733
  0.5257744177220931  0.9350542487578005  0.7292346524511267
  0.1343535804652008  0.3063133656776985  0.7292346524511267
  0.1601279981872938  0.7413676144354989  0.2707653475488733
  0.4742255822779068  0.0649457512421997  0.7292346524511267
  0.1343535804652008  0.3063133656776985  0.2707653475488733
  0.8398720018127060  0.2586323855645010  0.7292346524511267
  0.4742255822779068  0.0649457512421997  0.2707653475488733
  0.8398720018127060  0.2586323855645010  0.2707653475488733
  0.5000000000000000  0.5000000000000000  0.5361920443072058
  0.5000000000000000  0.5000000000000000  0.4638079556927941
  0.7556764705642074  0.5132287408115340  0.5917442479427455
  0.7556764705642074  0.5132287408115340  0.4082557520572546
  0.3614353778817517  0.7298779693985731  0.5917442479427455
  0.6171118484459592  0.7431067102101071  0.4082557520572546
  0.6171118484459592  0.7431067102101071  0.5917442479427455
  0.2443235294357924  0.4867712591884659  0.5917442479427454
  0.3614353778817517  0.7298779693985731  0.4082557520572546
  0.3828881515540407  0.2568932897898930  0.5917442479427454
  0.2443235294357924  0.4867712591884659  0.4082557520572546
  0.6385646221182483  0.2701220306014270  0.5917442479427455
  0.3828881515540407  0.2568932897898930  0.4082557520572546
  0.6385646221182483  0.2701220306014270  0.4082557520572546
  0.8108395945585575  0.9249671637067991  0.5000000000000000
  0.3108395945585577  1.0000000000000000  0.5000000000000000
  0.0000000000000000  0.5750328362932009  0.5000000000000000
  0.1891604054414424  0.0750328362932009  0.5000000000000000
  0.6891604054414422  0.0000000000000000  0.5000000000000000
  1.0000000000000000  0.4249671637067990  0.5000000000000000
  0.5000000000000000  0.5000000000000000  0.7332830117093301
  0.5000000000000000  0.5000000000000000  0.2667169882906699
  0.5000000000000000  0.5000000000000000  0.6355355145838244
  0.5000000000000000  0.5000000000000000  0.3644644854161755
EA4
 1.0000000000000000
     7.5412451879016693    0.0000000000000000    0.0000000000000000
     0.0000000000000000    7.1736963299914809    0.0000000000000000
     0.0000000000000000    0.0000000000000000   26.4896388205234388
 O   Cu 
  18  24
Direct
  0.7862826813218154  1.0000000000000000  0.7964277988597859
  0.7862826813218154  1.0000000000000000  0.2035722011402141
  0.8408643610886068  0.0124337344221074  0.7964277988597859
  0.0000000000000000  0.4565258826983005  0.2035722011402141
  0.0000000000000000  0.4565258826983005  0.7964277988597859
  0.8408643610886068  0.0124337344221074  0.2035722011402141
  0.5423823474701408  0.4896532057068026  0.6590435056585940
  0.5423823474701408  0.4896532057068026  0.3409564943414059
  0.7774962109518837  0.7913730186724952  0.5970585048117526
  0.7774962109518837  0.7913730186724952  0.4029414951882474
  0.6733872178157695  0.1247463992582103  0.5970585048117526
  0.1762636136427690  0.5528401991897022  0.4029414951882474
  0.1762636136427690  0.5528401991897022  0.5970585048117526
  0.6733872178157695  0.1247463992582103  0.4029414951882474
  0.8995022985748842  0.6225596504839839  0.5000000000000000
  0.2543318313463336  0.7483208303746206  0.5000000000000000
  0.4733129124892045  0.0980791362618035  0.5000000000000000
  0.5423823474701408  0.4896532057068026  0.5000000000000000
  0.7272302414068404  0.6189314384717842  0.7956575482352114
  0.7272302414068404  0.6189314384717842  0.2043424517647887
  0.5564599596495677  0.2567291652606147  0.7956575482352114
  0.3434568413540141  0.5932990133880089  0.2043424517647887
  0.3434568413540141  0.5932990133880089  0.7956575482352114
  0.5564599596495677  0.2567291652606147  0.2043424517647887
  1.0000000000000000  0.6357323591180370  0.8112469545592241
  1.0000000000000000  0.6357323591180370  0.1887530454407759
  0.4339159583235034  0.9999999999999999  0.8112469545592241
  0.1932310840869190  0.8332272580023711  0.1887530454407758
  0.1932310840869190  0.8332272580023711  0.8112469545592241
  0.4339159583235034  0.9999999999999999  0.1887530454407758
  0.7074511618727388  0.6135987865373124  0.5000000000000000
  0.3577395085120165  0.5779585293962092  0.5000000000000000
  0.5619563720256671  0.2774023011868862  0.5000000000000000
  0.7348624622821583  0.8576371587100128  0.5000000000000000
  0.1429909868787748  0.4808945024390511  0.5000000000000000
  0.7492935932494890  0.1304279559713439  0.5000000000000000
  0.9067422256644319  0.5626770778140636  0.7491362735884052
  0.9067422256644319  0.5626770778140636  0.2508637264115949
  0.4203606892227145  0.1214292164188427  0.7491362735884052
  0.3000441275232759  0.7848533228875016  0.2508637264115949
  0.3000441275232759  0.7848533228875016  0.7491362735884052
  0.4203606892227145  0.1214292164188427  0.2508637264115949
EA5
 1.0000000000000000
     8.3079939893403747    0.0000000000000000    0.0000000000000000
     0.0000000000000000    8.3079939893403747    0.0000000000000000
     0.0000000000000000    0.0000000000000000   18.3079939893403747
 O   Cu 
  18  24
Direct
  0.5000000000000000  0.6319775383535190  0.5598901548693638
  0.5000000000000000  0.3680224616464811  0.5598901548693638
  0.5000000000000000  0.6319775383535190  0.4401098451306363
  0.5000000000000000  0.3680224616464811  0.4401098451306363
  0.6319775383535190  0.5000000000000000  0.5598901548693638
  0.6319775383535190  0.5000000000000000  0.4401098451306363
  0.3680224616464811  0.5000000000000000  0.5598901548693638
  0.3680224616464811  0.5000000000000000  0.4401098451306363
  0.6319775383535190  0.6319775383535190  0.5000000000000000
  0.3680224616464811  0.6319775383535190  0.5000000000000000
  0.6319775383535190  0.3680224616464811  0.5000000000000000
  0.3680224616464811  0.3680224616464811  0.5000000000000000
  0.6232029857196342  0.5000000000000000  0.5000000000000000
  0.3767970142803658  0.5000000000000000  0.5000000000000000
  0.5000000000000000  0.6232029857196342  0.5000000000000000
  0.5000000000000000  0.3767970142803658  0.5000000000000000
  0.5000000000000000  0.5000000000000000  0.5559083461259312
  0.5000000000000000  0.5000000000000000  0.4440916538740688
  1.0000000000000000  1.0000000000000000  0.5915018585781887
  0.0000000000000000  0.0000000000000000  0.5915018585781887
  0.0000000000000000  1.0000000000000000  0.4084981414218113
  1.0000000000000000  0.0000000000000000  0.4084981414218113
  0.7016389851764877  1.0000000000000000  0.7268952566342771
  0.7016389851764877  0.0000000000000000  0.2731047433657228
  0.2983610148235123  0.0000000000000000  0.7268952566342771
  0.2983610148235123  1.0000000000000000  0.2731047433657229
  1.0000000000000000  0.7016389851764878  0.7268952566342771
  0.0000000000000000  0.7016389851764877  0.2731047433657228
  1.0000000000000000  0.2983610148235123  0.2731047433657229
  0.0000000000000000  0.2983610148235122  0.7268952566342771
  1.0000000000000000  1.0000000000000000  0.4084981414218113
  0.0000000000000000  0.0000000000000000  0.4084981414218112
  1.0000000000000000  0.0000000000000000  0.5915018585781887
  0.0000000000000000  1.0000000000000000  0.5915018585781887
  1.0000000000000000  0.7016389851764878  0.2731047433657229
  0.0000000000000000  0.7016389851764877  0.7268952566342771
  0.0000000000000000  0.2983610148235122  0.2731047433657228
  1.0000000000000000  0.2983610148235123  0.7268952566342771
  0.7016389851764877  1.0000000000000000  0.2731047433657229
  0.7016389851764877  0.0000000000000000  0.7268952566342771
  0.2983610148235123  1.0000000000000000  0.7268952566342771
  0.2983610148235123  0.0000000000000000  0.2731047433657228
Generation:2
Generation:3
