EA106   7.594 11.264 16.652 90.00 90.00 90.00 Sym.group:    0
1.0000
    7.593873     0.000000     0.000000
    0.000000    11.264312     0.000000
    0.000000     0.000000    16.651579
   O  Cu
  19   40 
Direct
    0.526393     0.585426     0.790065
    0.321241     0.499344     0.596549
    0.062658     0.930996     0.556198
    0.491411     0.080784     0.512477
    0.672634     0.563504     0.530340
    0.837519     0.172325     0.511247
    0.754149     0.276242     0.294068
    0.009395     0.471940     0.488791
    0.157731     0.050114     0.347560
    0.692173     0.847123     0.528958
    0.127471     0.577294     0.333296
    0.690163     0.954852     0.318365
    0.299671     0.318795     0.459392
    0.027321     0.497457     0.797772
    0.778249     0.974464     0.820336
    0.251277     0.240164     0.687861
    0.961063     0.380932     0.638023
    0.375928     0.904092     0.706156
    0.668154     0.622471     0.268860
    0.288439     0.297220     0.576643
    0.937690     0.322031     0.526309
    0.789511     0.286603     0.688469
    0.808410     0.701212     0.564740
    0.092697     0.581899     0.582652
    0.822978     0.999220     0.518742
    0.277935     0.008480     0.536349
    0.663575     0.788912     0.300123
    0.898281     0.602741     0.307774
    0.196015     0.459990     0.408367
    0.219466     0.180993     0.409122
    0.680308     0.119709     0.286240
    0.310731     0.070559     0.690984
    0.721348     0.110475     0.757555
    0.995440     0.641121     0.728076
    0.679059     0.707704     0.716242
    0.616976     0.146012     0.605574
    0.929872     0.999090     0.343349
    0.770011     0.506048     0.636550
    0.787130     0.492439     0.435138
    0.539869     0.869759     0.618687
    0.254845     0.697122     0.385064
    0.686654     0.434352     0.292386
    0.492725     0.257474     0.717557
    0.267607     0.562172     0.808160
    0.577323     0.917955     0.771963
    0.226284     0.783739     0.747731
    0.761813     0.516834     0.794049
    0.579456     0.016947     0.415722
    0.261022     0.913430     0.390251
    0.545249     0.605965     0.371467
    0.906147     0.848874     0.775803
    0.514466     0.383324     0.416648
    0.796480     0.230621     0.404705
    0.414900     0.596343     0.508941
    0.496050     0.800006     0.456961
    0.183747     0.782974     0.514169
    0.447359     0.535374     0.688391
    0.012654     0.820046     0.641167
    0.117438     0.366395     0.736607
