EA0    21.244 20.854 20.618 90.00 90.00 90.00 Sym.group:    0
1.0000
   21.243779     0.000000     0.000000
    0.000000    20.854397     0.000000
    0.000000     0.000000    20.618096
  18   24 
Direct
    0.589183     0.552576     0.355286
    0.333416     0.422549     0.431373
    0.618863     0.352598     0.477848
    0.490149     0.339677     0.592975
    0.423710     0.506175     0.343346
    0.485241     0.343087     0.406862
    0.541640     0.390509     0.361363
    0.411921     0.342356     0.556698
    0.370960     0.560247     0.391308
    0.527310     0.631594     0.426650
    0.424700     0.614409     0.545442
    0.660352     0.508806     0.534538
    0.484340     0.586233     0.573255
    0.404410     0.519607     0.606652
    0.584127     0.427412     0.571344
    0.559870     0.646234     0.389490
    0.387574     0.615666     0.580526
    0.686746     0.499998     0.577876
    0.476382     0.504148     0.359717
    0.446345     0.372705     0.436072
    0.531004     0.364949     0.565352
    0.432176     0.400463     0.629207
    0.369327     0.467107     0.401739
    0.565577     0.355277     0.442388
    0.517081     0.436703     0.423272
    0.450818     0.406855     0.534595
    0.427298     0.536221     0.438807
    0.676223     0.461407     0.402197
    0.295933     0.448147     0.566659
    0.712272     0.466149     0.501883
    0.464304     0.619908     0.639905
    0.402500     0.546439     0.649270
    0.643738     0.427767     0.630501
    0.673140     0.613730     0.586213
    0.404816     0.439864     0.700986
    0.381385     0.592617     0.350836
    0.323068     0.606490     0.483241
    0.555798     0.689314     0.617354
    0.611097     0.694647     0.481455
    0.542884     0.518973     0.490970
    0.640453     0.535427     0.460850
    0.471869     0.634959     0.483699
