EA1
 1.0000000000000000
     5.9298480034492123    0.0000000000000000    0.0000000000000000
     0.0000000000000000    8.4343635884009363    0.0000000000000000
     0.0000000000000000    0.0000000000000000   23.2087569650251240
 O   Cu 
  19  40
Direct
  0.5586573500000001  0.2794312700000000  0.5413630500000000
  0.1907239500000000  0.9954817500000002  0.6312839400000000
  0.7254230300000000  0.0564653000000000  0.7058632000000000
  0.2394552600000000  0.2445331400000000  0.3173278000000000
  0.9560089400000000  0.6281286300000000  0.3260930000000000
  0.9419276300000001  0.9263804800000000  0.3862521500000000
  0.8053449099999999  0.9257512300000000  0.5514163000000000
  0.4289147099999999  0.5864545300000000  0.6145887700000000
  0.3528023000000000  0.8505796400000000  0.5238061700000000
  0.8565067300000000  0.4724818700000000  0.6644914500000000
  0.5238014200000000  0.5822864100000000  0.4699016699999999
  0.0124329300000000  0.3054431700000000  0.4706755799999999
  0.2676964200000000  0.1692477000000000  0.1739145300000000
  0.7530984700000000  0.0780071100000000  0.2551897000000000
  0.7858545700000000  0.6634975600000000  0.1928884000000000
  0.6894612400000001  0.4936820300000000  0.8728519900000001
  0.0574488100000000  0.8379387800000000  0.7659539100000000
  0.0682271200000000  0.2792036700000000  0.7638052000000000
  0.6078504900000000  0.1059307400000000  0.4375814000000000
  0.2484190400000000  0.8835970200000000  0.3903246200000000
  0.6263223100000000  0.8997875800000000  0.3929814200000000
  0.0939138700000000  0.4327627400000000  0.3272354200000000
  0.8617800399999999  0.9939657400000000  0.6307798900000000
  0.8246597200000001  0.2676987800000000  0.6967415300000001
  0.4483684500000000  0.6227754700000000  0.3885338200000000
  0.6522954900000000  0.7669465800000000  0.5086050700000000
  0.1556908700000000  0.5152818000000000  0.6441775800000000
  0.3735017700000000  0.4994513400000000  0.8828902300000000
  0.5735564300000000  0.6033163100000000  0.6923048400000000
  0.5945206800000000  0.6127181700000000  0.8010218200000000
  0.1546846000000000  0.6915789000000000  0.8284216299999999
  0.0925950800000000  0.6567416000000000  0.1910142400000000
  0.2730710900000000  0.9364291500000000  0.1987042700000000
  0.4770764600000000  0.6594308000000000  0.1952728900000000
  0.0467795500000000  0.8326380700000000  0.5080833100000000
  0.0620423800000000  0.0344055900000000  0.3054269500000000
  0.3241206600000000  0.8007417500000000  0.6112198000000000
  0.9148483499999999  0.6791772900000000  0.4136401200000000
  0.3586225800000000  0.8028506000000000  0.7442836700000000
  0.2886367100000000  0.3956905800000000  0.1822426200000000
  0.4642521900000000  0.1892073800000000  0.2584438000000000
  0.9649361600000000  0.1191006500000000  0.4294733100000000
  0.7757243799999999  0.4469089800000000  0.4778826799999999
  0.4219829100000000  0.1692577400000000  0.3779575800000000
  0.5151298800000000  0.0589723700000000  0.5277277100000000
  0.4223390100000000  0.0438649500000000  0.6824210100000000
  0.6736042800000001  0.3872735300000000  0.6038036800000000
  0.4735857800000000  0.9193633700000000  0.2962961200000000
  0.2554881900000000  0.6829923400000000  0.2939883900000000
  0.6562164500000000  0.6547887700000000  0.3013798100000000
  0.1883030100000000  0.5703157100000000  0.4784297400000000
  0.7465368300000000  0.8334883199999999  0.7471849800000000
  0.2724729100000000  0.4639631000000000  0.7580308000000000
  0.8630946300000000  0.3734383700000000  0.8157331799999998
  0.9923396400000000  0.5248914900000000  0.8979283800000000
  0.1000147900000000  0.0596078200000000  0.7679779599999998
  0.7818312100000001  0.8718506300000000  0.2209806800000000
  0.9830523900000000  0.1539365200000000  0.2063501800000000
  0.2755476000000000  0.2994162000000000  0.5108862800000000
EA2
 1.0000000000000000
     7.5947312796005875    0.0000000000000000    0.0000000000000000
     0.0000000000000000    7.5947312796005875    0.0000000000000000
     0.0000000000000000    0.0000000000000000   19.6158519632602193
 O   Cu 
  19  40
Direct
  0.7759807700000000  0.1965593400000000  0.7949649400000000
  0.9398042400000000  0.9398696700000000  0.1666112900000000
  0.5638422800000000  0.1833507000000000  0.1915251000000000
  0.5969015800000000  0.8153112400000000  0.1184767700000000
  0.8156356500000000  0.5978309300000000  0.1181545500000000
  0.1819903700000000  0.5630499600000000  0.1919134700000000
  0.2704666100000000  0.6557983800000000  0.3316613100000000
  0.6568432400000001  0.2619189100000000  0.3318836700000000
  0.3192624100000000  0.3191195500000000  0.7483827199999999
  0.7154294600000000  0.7159486900000001  0.0792604700000000
  0.5574351900000000  0.5580308800000000  0.5467628600000000
  0.1958808700000000  0.7763165200000000  0.7944751500000000
  0.8733134800000000  0.3543913500000000  0.8226532400000001
  0.7091494100000000  0.8426956300000000  0.2953881500000000
  0.2798517300000000  0.0198858400000000  0.2731202300000000
  0.8469619800000000  0.6971447200000001  0.2926714100000000
  0.0084033800000000  0.2853437000000000  0.2729916300000000
  0.3535517500000000  0.8731389200000000  0.8225163599999998
  0.7488751800000000  0.7491431200000001  0.7226892000000000
  0.0798066700000000  0.8591171800000000  0.4783417300000000
  0.0098918600000000  0.7064534000000000  0.1653441600000000
  0.7481358299999999  0.4809878900000000  0.3132282000000000
  0.5461146000000000  0.8178686100000000  0.7701935800000000
  0.5451882900000000  0.2622589100000000  0.7727688900000000
  0.0834870500000000  0.3036122600000000  0.4625431799999999
  0.7064911400000000  0.0102787400000000  0.1649951200000000
  0.8225396600000000  0.0518507900000000  0.6043263400000000
  0.8586700000000000  0.0795838500000000  0.4789229100000000
  0.0501088300000000  0.8240253599999999  0.6039924000000000
  0.0399415700000000  0.2746916000000000  0.5883888400000000
  0.3030449300000000  0.0844467800000000  0.4621725200000000
  0.1648994400000000  0.1653044300000000  0.6977901100000000
  0.9313381700000000  0.9318671700000000  0.7139875100000000
  0.1910361600000000  0.9357098400000000  0.3594714400000000
  0.9383113800000000  0.1870951400000000  0.3600415300000000
  0.1539940900000000  0.4805224200000000  0.2788253300000000
  0.2737886200000000  0.0404975000000000  0.5882448400000000
  0.4909583600000000  0.7444028800000000  0.3146486000000000
  0.5997706200000000  0.2204592100000000  0.4246762299999999
  0.2617143500000000  0.5453359500000000  0.7721930299999999
  0.0691042000000000  0.0739211100000000  0.2253517900000000
  0.8518025100000000  0.8514091900000000  0.3880022900000000
  0.2617956100000000  0.8434577299999999  0.6969191900000000
  0.8431645900000000  0.2625199300000000  0.6973827500000001
  0.8639290200000002  0.5335238700000000  0.4329550000000000
  0.2187323600000000  0.5985645900000000  0.4239925100000000
  0.5247805100000000  0.1955970000000000  0.6482285500000000
  0.5670536800000000  0.8585875900000000  0.6389577600000000
  0.1954612000000000  0.5266077500000000  0.6475661300000000
  0.8579674800000000  0.5672150300000000  0.6389312900000000
  0.5639181800000000  0.0601205900000000  0.5340663500000000
  0.5335673000000000  0.8652142200000000  0.4334974599999999
  0.7510430400000000  0.7512735400000000  0.5260496200000000
  0.3651215100000000  0.3654215400000000  0.5414462200000000
  0.7309633900000000  0.3643997200000000  0.5399735300000000
  0.3636576100000000  0.7315791900000000  0.5402134100000000
  0.8178916899999999  0.5468404400000000  0.7703181800000000
  0.4799314300000000  0.1545510400000000  0.2779337800000000
  0.0586627400000000  0.5653372400000000  0.5335985800000000
EA3
 1.0000000000000000
    10.5477361562844525    0.0000000000000000    0.0000000000000000
     0.0000000000000000   10.5477361562844525    0.0000000000000000
     0.0000000000000000    0.0000000000000000   15.4609481373183471
 O   Cu 
  19  40
Direct
  0.8002877400000000  0.4175490400000000  0.5823577000000000
  0.0720445600000000  0.0791876200000000  0.5063379700000000
  0.1033499200000000  0.0279829700000000  0.5913218500000000
  0.4600853700000000  0.6626569500000000  0.6023358300000000
  0.5789884000000000  0.3231421800000000  0.3732916000000000
  0.7792732999999999  0.5320487000000000  0.3436466200000000
  0.3344852300000000  0.5141336800000000  0.5084557900000000
  0.0774036000000000  0.2857128800000000  0.7129426299999999
  0.0960194700000000  0.7798511299999999  0.6756527200000000
  0.0154460800000000  0.9158917700000000  0.2085991800000000
  0.3159230000000000  0.0268599100000000  0.7463974400000000
  0.1799064700000000  0.3004975500000000  0.2999678600000000
  0.8558945400000000  0.7644362200000001  0.5744671800000000
  0.3187457200000000  0.8673825099999999  0.5185070200000000
  0.8694345400000000  0.2566981800000000  0.4105661800000000
  0.4714641999999999  0.2805103400000000  0.4314610600000000
  0.5535316600000000  0.7579818300000000  0.6127881800000000
  0.2131458000000000  0.4366571700000000  0.5193686600000000
  0.8555546199999999  0.0392215000000000  0.6104281200000000
  0.9792295700000000  0.0583138800000000  0.2795708800000001
  0.8091401100000000  0.9465845300000000  0.3786827600000000
  0.4574966200000000  0.0692079100000000  0.6791918200000000
  0.0703193300000000  0.6089638000000001  0.6451122400000000
  0.9465992800000000  0.3833059000000000  0.6493272500000000
  0.9571828800000000  0.8103211299999998  0.3006764600000000
  0.1750171100000000  0.8978615300000001  0.2675734600000000
  0.2139030100000000  0.1642781200000000  0.7204134700000000
  0.0667851000000000  0.9503262099999999  0.4164450300000000
  0.9662659799999999  0.1541978200000000  0.6669492900000000
  0.2217877300000000  0.8893046500000001  0.7096186300000000
  0.0226979000000000  0.2717752500000000  0.3535301000000000
  0.2165063300000000  0.1034289000000000  0.3259606400000000
  0.8652363800000000  0.1188924600000000  0.4949409200000000
  0.6885066900000000  0.7965786000000000  0.5189059300000000
  0.3271651600000000  0.2964234600000000  0.3658778200000000
  0.6744974200000000  0.0474622200000000  0.6082986500000001
  0.9795560200000000  0.8910094300000000  0.6165830700000000
  0.9328840000000002  0.7561524100000000  0.4579632100000000
  0.9551680900000000  0.5856541700000000  0.3474194600000000
  0.7087323800000001  0.1797437500000000  0.3677892000000000
  0.4773613100000000  0.4802914300000000  0.5944135100000000
  0.4199764499999999  0.2940531700000000  0.6673408500000000
  0.1775437400000000  0.3761728500000000  0.6305414200000000
  0.6449314900000001  0.3355469900000000  0.6232387300000000
  0.5248123500000000  0.8038589699999998  0.3948911000000000
  0.5958279100000000  0.5104888800000000  0.3546551900000000
  0.7410613400000000  0.7128055300000000  0.3612939400000000
  0.3795513100000000  0.6104114200000000  0.3668454300000000
  0.4535429700000000  0.0447855500000000  0.3444757500000000
  0.6213422199999999  0.0075076800000000  0.4527720900000000
  0.3127526400000000  0.6937365900000000  0.5105244400000000
  0.1527889900000000  0.7098392000000000  0.3752913100000000
  0.0684667500000000  0.5484789300000000  0.4854796800000000
  0.8470368000000000  0.5897607499999999  0.5819558100000000
  0.5140330700000000  0.1801227900000000  0.5382525100000000
  0.4815719500000000  0.9272846100000000  0.5583108800000000
  0.2996204300000000  0.8950454700000000  0.3991027600000000
  0.1669955900000000  0.4813834599999999  0.3348403600000000
  0.8218327299999999  0.4369488600000000  0.4501358500000000
EA4
 1.0000000000000000
     7.1711898150734541    0.0000000000000000    0.0000000000000000
     0.0000000000000000   10.2047075204053765    0.0000000000000000
     0.0000000000000000    0.0000000000000000   21.4068062628270432
 O   Cu 
  19  40
Direct
  0.3554979000000000  0.2553420800000000  0.5461360600000000
  0.3952112000000000  0.3683470800000000  0.4179937200000000
  0.8759502300000001  0.5449966500000000  0.4363395000000000
  0.7621044600000000  0.2421986800000000  0.4090882499999999
  0.6365420900000001  0.6788773100000000  0.5823195600000000
  0.1754306700000000  0.5176075200000000  0.5609156600000000
  0.3937946800000000  0.9762972300000000  0.5869966700000000
  0.4348949600000000  0.0743956600000000  0.7840670699999999
  0.9165774900000000  0.6129587200000000  0.7240239200000000
  0.0221739400000000  0.2305570600000000  0.2588718400000000
  0.6276794999999999  0.8757269100000000  0.2614756600000000
  0.3649201600000000  0.4643719900000000  0.2497555100000000
  0.8255027699999999  0.8861339300000001  0.2333097400000000
  0.0944754900000000  0.7481459000000000  0.3116311800000000
  0.1521251300000000  0.8594549000000000  0.4464268900000000
  0.5295483400000000  0.7299827700000000  0.4166282300000000
  0.7579427500000000  0.3740861700000000  0.6314324800000000
  0.7626913400000001  0.0782307900000000  0.6483208100000000
  0.3623425800000000  0.2068299400000000  0.8000858199999999
  0.4048835900000000  0.5968995000000000  0.5792231000000000
  0.9176755200000000  0.8871442400000001  0.4827036900000001
  0.2785413900000000  0.7429097800000000  0.3770017199999999
  0.4832547200000000  0.5480366800000001  0.4210895800000000
  0.5706517000000001  0.3191055700000000  0.5822866900000000
  0.4680831100000000  0.1060629400000000  0.5052263200000000
  0.5900668400000000  0.8894371599999999  0.4652815500000000
  0.7123854400000000  0.9826059199999999  0.5677656800000001
  0.7911533000000001  0.5339057200000000  0.3496686600000000
  0.9449866500000000  0.2472077300000000  0.6603883100000000
  0.1691784100000000  0.9265973299999999  0.3017776100000000
  0.5741094100000000  0.0851955800000000  0.7089222900000000
  0.3647630800000000  0.4021358400000000  0.3318964500000000
  0.4950889500000000  0.1878128700000000  0.3883591000000000
  0.2455480400000000  0.3736047000000000  0.6320483300000000
  0.7782225200000001  0.6435714700000000  0.6521956300000000
  0.7615251500000000  0.6160983100000000  0.5107511700000000
  0.8895454000000000  0.2416285800000000  0.3345487500000000
  0.9431112800000000  0.4520251500000000  0.5856201700000000
  0.2880294600000000  0.0040267000000000  0.4046709900000000
  0.2712726900000000  0.4148631400000000  0.4942695600000000
  0.2356140100000000  0.9667456700000000  0.7488970599999999
  0.2230875800000000  0.2388869200000000  0.7278821100000000
  0.0454479200000000  0.7709249900000000  0.7174668100000000
  0.9257841000000000  0.0558936400000000  0.2463557300000000
  0.9532136500000000  0.4324913100000000  0.2577289100000000
  0.2300697400000000  0.1605139200000000  0.3089224900000000
  0.2503403800000000  0.1299409000000000  0.6239109600000000
  0.9722966600000000  0.9931538900000000  0.6780574300000000
  0.0555075500000000  0.4582443500000000  0.7166696000000000
  0.6128072400000000  0.7719942600000000  0.3348451300000000
  0.2587234300000000  0.8767392700000000  0.6464109900000000
  0.2202053800000000  0.6020601799999999  0.2783001200000000
  0.5022266900000000  0.0067552400000000  0.3129332500000000
  0.8744111800000001  0.6822898200000000  0.2599995100000000
  0.6221019100000000  0.5084821100000000  0.2530271000000000
  0.7794975300000000  0.0935802600000000  0.4607104300000001
  0.1187209400000000  0.5197424800000000  0.4004947200000000
  0.2713173500000000  0.9028605700000001  0.5197665299999999
  0.7782921300000000  0.3770613200000000  0.4763252900000000
