EA1
 1.0000000000000000
    11.1141205653586859    0.0000000000000000    0.0000000000000000
     0.0000000000000000    9.1695030043363470    0.0000000000000000
     0.0000000000000000    0.0000000000000000   20.8991937781097690
 O   Cu 
  18  40
Direct
  0.9172988099999999  0.7493526900000000  0.2980492400000000
  0.3289015300000000  0.3701216200000000  0.5750573100000000
  0.6763807100000000  0.3105370200000000  0.6020830000000000
  0.5666641400000000  0.7079071600000000  0.5239689199999999
  0.5187455600000000  0.6108851100000000  0.4728170900000000
  0.0309463900000000  0.4012117300000000  0.3657705700000000
  0.2387885400000000  0.5646802800000000  0.4888018100000000
  0.7904242399999999  0.6602593200000000  0.6646067100000000
  0.8292249300000001  0.4691190300000000  0.4787597100000000
  0.1910291700000000  0.5726648500000000  0.2319998900000000
  0.6506370400000000  0.0864962400000000  0.4804658900000000
  0.3755432400000000  0.1761697300000000  0.3890798700000000
  0.3727589500000000  0.9716391199999999  0.5686714400000000
  0.5982119400000000  0.9807736500000001  0.6963560200000000
  0.9176401600000000  0.0429339000000000  0.4200254300000000
  0.1587830100000000  0.8969979200000001  0.2685935100000000
  0.7984204800000000  0.3481931200000000  0.4337889000000000
  0.4478653200000001  0.5508209400000000  0.3416543800000000
  0.3214468300000000  0.5818073400000000  0.2871565300000000
  0.5942558100000001  0.8965887200000000  0.4938812300000000
  0.6491541700000000  0.1445923500000000  0.6510340000000000
  0.3653271500000000  0.1758122000000000  0.5724014600000000
  0.1318878600000000  0.4644911600000001  0.4345868800000000
  0.0339805200000000  0.3727460500000000  0.6495254900000000
  0.1189839100000000  0.5794464900000000  0.5570852100000000
  0.1013087000000000  0.0541395800000000  0.3159349200000000
  0.7547416700000000  0.0170871300000000  0.5599602200000000
  0.9432696100000000  0.6372842200000000  0.6184218000000000
  0.2145281500000000  0.7638371900000001  0.4637535000000000
  0.4058401200000000  0.4880687000000000  0.5139379400000000
  0.6971354200000000  0.8284777900000000  0.6731443900000000
  0.7259093000000000  0.2815646600000000  0.5127368900000000
  0.4054052200000001  0.3720169100000000  0.3720742400000000
  0.1008048200000000  0.9788850200000000  0.4304247300000000
  0.3352091400000000  0.9665959300000000  0.4191048000000001
  0.9527730000000000  0.3933066900000000  0.5426016100000000
  0.9513921600000000  0.5871053100000000  0.3489211800000000
  0.1629542300000000  0.3039469700000000  0.5570219700000000
  0.7574961000000000  0.7382326200000000  0.5568167900000000
  0.9691533600000000  0.2216315500000000  0.3889475500000000
  0.9762102400000000  0.1369886900000000  0.7202677300000000
  0.0322583700000000  0.8398129500000000  0.5445144200000001
  0.0717505300000000  0.7108126600000000  0.2592445900000000
  0.0825397700000000  0.0947152000000000  0.6227939700000000
  0.9809557200000000  0.1064910800000000  0.5217102300000001
  0.9231627400000001  0.8956202300000001  0.3565901100000000
  0.8456712400000000  0.8817197700000000  0.4702808300000000
  0.5150158700000000  0.1394680600000000  0.4357703299999999
  0.4735475700000000  0.9661560300000002  0.6375937699999999
  0.9051357000000000  0.9319318000000000  0.6354040500000000
  0.7460342300000000  0.4791115900000000  0.6325967400000000
  0.9448066800000000  0.6393024100000000  0.4784147900000000
  0.4076143600000001  0.7033736600000000  0.4005494400000000
  0.8690823000000001  0.2051018300000000  0.6215870000000000
  0.2497966400000000  0.2107284700000000  0.4545104300000000
  0.2364265900000000  0.8171307100000000  0.3408661300000000
  0.1203661100000000  0.4529460900000001  0.2927278000000000
  0.2138318500000000  0.9952929600000000  0.5340756800000001
EA2
 1.0000000000000000
     6.4131419023947558    0.0000000000000000    0.0000000000000000
     0.0000000000000000    9.3008500032092734    0.0000000000000000
     0.0000000000000000    0.0000000000000000   26.1633201692294612
 O   Cu 
  18  40
Direct
  0.5561901100000000  0.6766932800000000  0.5984392700000000
  0.3893750100000000  0.5014522100000000  0.4818330900000000
  0.9147815200000000  0.1163258200000000  0.6609302700000000
  0.9723639500000000  0.7381390900000000  0.3769896800000000
  0.1756884000000000  0.3257169500000000  0.2500416500000000
  0.2633010500000000  0.1152570000000000  0.7574790600000001
  0.6496330500000000  0.8010288200000000  0.4648155100000000
  0.3219031500000000  0.2687611500000000  0.5990070100000000
  0.4105038200000000  0.5759175600000001  0.3439831900000000
  0.8014701900000000  0.9254210500000000  0.2874736500000000
  0.9248811600000000  0.4502240600000000  0.4549402800000000
  0.5352280600000000  0.7262750800000000  0.2399570000000000
  0.9074378400000001  0.3291586200000000  0.8337185300000000
  0.6636242600000000  0.0802118000000000  0.3762794300000000
  0.3190831100000001  0.1758059100000000  0.4295690000000000
  0.4246566200000000  0.9216604699999998  0.6622307300000000
  0.6474515900000000  0.1527599000000000  0.5192980500000000
  0.7525403200000000  0.4836221800000000  0.7074070900000000
  0.6230346300000000  0.1120804700000000  0.4458436800000001
  0.3732726700000000  0.0952882100000000  0.6314342400000000
  0.8600886900000001  0.7381654100000000  0.6070505899999999
  0.1991703700000000  0.3476125800000000  0.4574522500000000
  0.7472760899999999  0.6082530800000000  0.4734118000000000
  0.0244348800000000  0.2587959400000000  0.5928897500000000
  0.2970157800000000  0.7739860900000000  0.6201612900000000
  0.1006224100000000  0.9294324300000000  0.2898593800000000
  0.6408726900000001  0.5266871800000000  0.6414596100000000
  0.7639456100000001  0.1525740100000000  0.8182049800000000
  0.2387012900000000  0.7173935299999999  0.2355923700000000
  0.8138378900000001  0.9151444100000001  0.3654668700000000
  0.0316660600000000  0.9666561700000000  0.6181108900000000
  0.4880855299999999  0.9166368799999999  0.2834325300000000
  0.5425628600000000  0.0880559400000000  0.7492326400000000
  0.4257167700000000  0.5486480600000000  0.4136937300000000
  0.4209669900000000  0.6026627900000000  0.5414405900000000
  0.9623445100000000  0.0878413200000000  0.7389770699999999
  0.8164833600000000  0.3026242700000000  0.4951468700000000
  0.1276153400000000  0.2342354600000000  0.8023460600000000
  0.2904169900000000  0.4318923100000000  0.3027746700000000
  0.6488022300000000  0.5991631700000000  0.2999036500000000
  0.0139492100000000  0.4943401600000000  0.2380742000000000
  0.3683838900000000  0.0640851700000000  0.3607255900000000
  0.7162767300000000  0.9372889000000000  0.6780544400000000
  0.9526630900000000  0.8283648500000000  0.4575623700000000
  0.1271570300000000  0.8262851100000000  0.5400150200000000
  0.1701496400000000  0.0380578300000000  0.4675189400000000
  0.8763406400000000  0.0235440100000000  0.5289737000000000
  0.8404089200000000  0.5355919700000000  0.3847085600000000
  0.8405783199999999  0.7395377200000000  0.2351173900000000
  0.8072688200000000  0.2984584100000000  0.6777039200000000
  0.7702844400000000  0.8858701700000000  0.7732730700000001
  0.2773059700000000  0.1534662000000000  0.2743172200000000
  0.8238508600000000  0.4113817500000000  0.7720812200000001
  0.0239375400000000  0.6495719300000000  0.3111582200000000
  0.3553343400000000  0.8074684200000000  0.4630367500000000
  0.6248851800000000  0.2756062500000000  0.5880903100000000
  0.8095949300000000  0.6920610000000000  0.7079334500000000
  0.2852251500000000  0.7935344900000000  0.3648958100000000
EA3
 1.0000000000000000
     9.4981883878209032    0.0000000000000000    0.0000000000000000
     0.0000000000000000    5.9259586363895149    0.0000000000000000
     0.0000000000000000    0.0000000000000000   18.7007600586863738
 O   Cu 
  18  40
Direct
  0.3995195200000000  0.9504041199999999  0.7727366100000000
  0.3238585400000000  0.2791953200000000  0.6636050300000000
  0.6868931700000001  0.5421663200000000  0.6361779300000000
  0.3472923600000000  0.0957024600000000  0.2702846400000000
  0.7000918600000000  0.8623234100000000  0.3264407800000000
  0.4043132900000000  0.8654287399999999  0.5623315700000000
  0.4270209400000000  0.7689104000000000  0.1233270200000000
  0.5747452700000000  0.3603539600000000  0.1234921300000000
  0.1029596500000000  0.9587539600000001  0.6030639300000000
  0.5868205900000000  0.3603009400000000  0.4877983300000000
  0.1762130300000000  0.5715363800000000  0.2109303300000000
  0.8283104800000000  0.4211782900000000  0.2672956800000000
  0.5725057099999999  0.7691944300000000  0.1364740700000000
  0.4292613699999999  0.3633320500000000  0.1124688600000000
  0.7719989500000000  0.9076725100000000  0.5240971600000000
  0.2419953400000000  0.1419048700000000  0.4603675300000000
  0.4747222100000000  0.5973242600000001  0.3321200100000000
  0.7734352799999999  0.1216249500000000  0.7168137700000000
  0.9849675700000000  0.5095238300000000  0.4853031999999999
  0.0012748900000000  0.5939663800000000  0.8007441400000000
  0.5002670800000000  0.0646813100000000  0.1240045300000000
  0.4722961700000000  0.5946731300000000  0.5242938300000000
  0.0345079800000000  0.0895671000000000  0.4435056200000000
  0.0788066400000000  0.2285266600000000  0.8471961400000000
  0.0148093500000000  0.9997515700000001  0.3119093300000000
  0.5086856600000000  0.9296563700000000  0.3070183700000000
  0.3681991500000000  0.2651176400000000  0.7821685400000000
  0.0072158500000000  0.8121521100000000  0.6845310700000000
  0.0037783400000000  0.5489989700000000  0.2504385800000000
  0.3151896000000000  0.9167083200000000  0.6602674400000000
  0.5985227000000000  0.0148933000000000  0.7522224199999999
  0.3267505300000000  0.5091124000000000  0.2751432200000000
  0.6512956300000000  0.5214967700000001  0.3007782700000000
  0.6890617100000000  0.6992645000000000  0.8403664300000000
  0.9743375700000000  0.2714864000000000  0.7206110200000000
  0.5071659200000000  0.4079188200000001  0.6527772100000000
  0.1110679800000000  0.6738585600000000  0.3749744200000000
  0.2534545800000000  0.8316086900000002  0.4770807400000000
  0.2064331400000000  0.5191872000000000  0.7074124899999999
  0.7603171399999999  0.1265412500000000  0.2875677300000000
  0.2251608200000000  0.8644668500000000  0.2384649800000000
  0.8768562600000001  0.4374770100000000  0.6069111500000000
  0.1247041700000000  0.6512754500000000  0.5834659900000000
  0.5200399500000000  0.1097449700000000  0.5395832400000000
  0.5579882100000000  0.3613839600000000  0.8613426499999999
  0.8881932400000000  0.9527829600000000  0.7941898300000000
  0.1782123200000000  0.9001816000000001  0.7800589500000000
  0.7644938900000000  0.9897640200000001  0.6229905200000000
  0.1110564300000000  0.2695652100000000  0.5958933000000000
  0.7317437000000000  0.5993158800000000  0.5073989400000000
  0.7919182299999999  0.2072013100000000  0.4868515800000000
  0.4138485100000000  0.6427433700000000  0.7895779400000000
  0.8228227100000000  0.3361985800000000  0.8491303500000000
  0.8468809300000000  0.8182887500000000  0.4027957200000000
  0.2723387600000000  0.1196952300000000  0.3610209900000000
  0.7816281300000000  0.6148036400000000  0.7228007300000000
  0.9023488199999999  0.3779257700000000  0.3687344200000000
  0.2426473400000000  0.4499775400000001  0.4712199899999999
EA4
 1.0000000000000000
     8.2816527176675567    0.0000000000000000    0.0000000000000000
     0.0000000000000000    8.2816527176675567    0.0000000000000000
     0.0000000000000000    0.0000000000000000   20.0571292541634385
 O   Cu 
  18  40
Direct
  0.1367856900000000  0.2107549400000000  0.7477441500000001
  0.3643221400000000  0.9038597000000000  0.6539650299999999
  0.0329833700000000  0.5690255900000000  0.6872745300000001
  0.3308698200000000  0.6393550500000000  0.4086114699999999
  0.0388673400000000  0.8536493800000000  0.4100881200000001
  0.6371058000000001  0.0858404900000000  0.3493578700000000
  0.6660892700000000  0.3602985600000000  0.5901644000000000
  0.9502396100000000  0.1413566500000000  0.5920514000000000
  0.5384724100000000  0.7381130600000000  0.5649794500000000
  0.9713434500000000  0.4307788100000000  0.3149650100000000
  0.3925362300000000  0.4080105700000000  0.2600002100000000
  0.2772357700000000  0.9696283199999999  0.2471044200000000
  0.4551237700000000  0.2556344900000000  0.4348939300000000
  0.0133268700000000  0.2135841800000000  0.4153013500000000
  0.6194574600000000  0.6070633600000001  0.7478419700000000
  0.7294923800000001  0.0445634600000000  0.7463419999999999
  0.8685786300000000  0.8135288700000000  0.2412144700000000
  0.9793284700000001  0.7822995100000000  0.5867826700000000
  0.1205703900000000  0.9921195899999999  0.5668839500000000
  0.5414224000000000  0.0360165200000000  0.6943665400000000
  0.6118680399999999  0.4408623000000000  0.4175810000000000
  0.8712081900000000  0.0073043000000000  0.4324875800000000
  0.1849702800000000  0.4446693100000000  0.2907558100000000
  0.4618257200000000  0.9604797300000000  0.3016203200000000
  0.3854778000000000  0.5570026700000000  0.5841236100000000
  0.2361133100000000  0.2229593300000000  0.4279844600000000
  0.9342174400000000  0.4577611100000000  0.4168221600000000
  0.7564857500000000  0.7741291800000000  0.5741750900000000
  0.3043085900000000  0.1922475000000000  0.2484395900000000
  0.4341540100000000  0.9737838799999999  0.5593401600000000
  0.0646656300000000  0.5402377300000000  0.5853224200000000
  0.0656212400000000  0.9110752800000000  0.2530075000000000
  0.4869897200000000  0.6348586800000000  0.3358971300000000
  0.5546695699999999  0.0166291700000000  0.4420702500000000
  0.8229635399999999  0.5604059900000000  0.7157327200000000
  0.7060322100000000  0.8217008600000000  0.7514941700000000
  0.7796013100000000  0.9674154999999999  0.2971181600000000
  0.7805078000000000  0.4911599500000000  0.5231349600000000
  0.5307201800000000  0.2918120800000000  0.5218156000000000
  0.3658862300000000  0.2612052400000000  0.7580595500000000
  0.7493989800000000  0.7095003800000000  0.4202020900000000
  0.6497507000000000  0.7353741200000000  0.2445693100000000
  0.2477217200000000  0.2885655500000000  0.5767513200000000
  0.0048493800000000  0.8132604300000000  0.6922489400000000
  0.4634134900000000  0.7083867700000001  0.6924015600000000
  0.2153511600000000  0.5106961300000000  0.4772835100000000
  0.2498433800000000  0.9037020500000000  0.4488950000000000
  0.0007493200000000  0.1892779100000000  0.3075625500000000
  0.5421329700000000  0.2844172600000000  0.3121547600000000
  0.9398817100000000  0.1078342600000000  0.7383699400000000
  0.7421941700000000  0.0863804100000000  0.5522140500000000
  0.0013962000000000  0.7457713900000000  0.4911400700000000
  0.4664024500000000  0.7043931500000000  0.4773238500000000
  0.2374293900000000  0.4633686300000000  0.6870747600000000
  0.2247838700000000  0.0409736200000000  0.6993335700000000
  0.9896937099999998  0.2515591400000000  0.5113193200000000
  0.7633831900000000  0.5250011000000000  0.3141606400000000
  0.5091863900000000  0.3483568400000000  0.6600795699999999
