EA1  8.217  8.217  18.217  90.00  90.00  90.00  Sym.group:    0
1.0000
    8.216907     0.000000     0.000000
    0.000000     8.216907     0.000000
    0.000000     0.000000    18.216907
   O  Cu
  20   40 
Direct
    0.081100     0.663023     0.429539
    0.486177     0.067459     0.232941
    0.059562     0.410964     0.785772
    0.472532     0.552067     0.530706
    0.753288     0.323992     0.627304
    0.769675     0.755256     0.301619
    0.310768     0.733996     0.701617
    0.193316     0.130451     0.405119
    0.888317     0.641756     0.613999
    0.046631     0.059955     0.763133
    0.052288     0.026711     0.547687
    0.572659     0.395567     0.226016
    0.696303     0.660705     0.801736
    0.138743     0.833234     0.190990
    0.770773     0.334232     0.416168
    0.311588     0.226641     0.607091
    0.642862     0.893707     0.529049
    0.911001     0.224743     0.197708
    0.485483     0.262435     0.808814
    0.360839     0.837312     0.373548
    0.850305     0.970870     0.347278
    0.376364     0.641280     0.612571
    0.619233     0.367671     0.335619
    0.175978     0.156549     0.687193
    0.808927     0.673858     0.713263
    0.633621     0.938077     0.635758
    0.126945     0.543072     0.338799
    0.250698     0.166279     0.508700
    0.432814     0.614866     0.352925
    0.161769     0.879967     0.735734
    0.666029     0.589966     0.251947
    0.350770     0.111338     0.315314
    0.912602     0.361407     0.708663
    0.989806     0.853083     0.608648
    0.026522     0.032720     0.197521
    0.510793     0.882750     0.446953
    0.265798     0.819962     0.275139
    0.762464     0.363603     0.519981
    0.962809     0.762546     0.246891
    0.177214     0.567523     0.737364
    0.534800     0.249868     0.625561
    0.675843     0.641870     0.564165
    0.061118     0.329178     0.256596
    0.560158     0.092257     0.747061
    0.118275     0.896773     0.411650
    0.840686     0.993546     0.726349
    0.632056     0.139878     0.423188
    0.154606     0.417463     0.599710
    0.348663     0.407680     0.262048
    0.329460     0.345311     0.397544
    0.978556     0.615609     0.518989
    0.613639     0.899130     0.263661
    0.911124     0.166862     0.598389
    0.267857     0.317231     0.800311
    0.279428     0.588769     0.478130
    0.849178     0.970806     0.485428
    0.692074     0.175676     0.221236
    0.975957     0.225347     0.402896
    0.516426     0.737969     0.750032
    0.594731     0.457183     0.800240
EA2  6.199  6.137  27.032  90.00  90.00  90.00  Sym.group:    0
1.0000
    6.199346     0.000000     0.000000
    0.000000     6.136842     0.000000
    0.000000     0.000000    27.032387
   O  Cu
  20   40 
Direct
    0.111718     0.264389     0.613642
    0.752272     0.218943     0.291300
    0.027492     0.824974     0.140741
    0.420835     0.793659     0.779296
    0.587326     0.832611     0.476332
    0.072649     0.801496     0.668411
    0.579700     0.221846     0.591383
    0.806151     0.285282     0.433913
    0.366689     0.331697     0.706571
    0.079834     0.587446     0.284447
    0.644344     0.508303     0.844087
    0.361335     0.491854     0.140774
    0.722423     0.665587     0.359076
    0.752718     0.082663     0.715932
    0.694251     0.158146     0.140452
    0.938272     0.982651     0.539843
    0.120039     0.870988     0.409212
    0.424144     0.899212     0.283675
    0.141233     0.224235     0.810128
    0.103546     0.455827     0.517714
    0.113236     0.338058     0.441801
    0.583316     0.545008     0.612490
    0.045484     0.509648     0.140991
    0.438375     0.217098     0.287363
    0.374544     0.716108     0.694787
    0.133443     0.729344     0.798935
    0.062135     0.273476     0.287027
    0.076719     0.433017     0.739267
    0.106773     0.894393     0.287349
    0.885551     0.795702     0.594790
    0.676888     0.473416     0.140755
    0.527980     0.933191     0.623987
    0.723193     0.717530     0.791731
    0.503455     0.288096     0.444704
    0.674363     0.899570     0.406569
    0.938089     0.045640     0.771202
    0.606221     0.553106     0.511714
    0.440174     0.499311     0.365978
    0.761789     0.776064     0.695490
    0.414266     0.076291     0.748509
    0.576585     0.013335     0.533187
    0.698857     0.387322     0.705745
    0.051812     0.609947     0.364578
    0.343254     0.807163     0.140695
    0.323303     0.316488     0.555363
    0.408303     0.591400     0.278855
    0.018786     0.499832     0.650090
    0.396998     0.363275     0.826735
    0.005598     0.939240     0.472696
    0.261091     0.122763     0.374980
    0.378660     0.176464     0.140592
    0.870389     0.327871     0.558847
    0.712099     0.842854     0.140513
    0.193547     0.094534     0.671227
    0.732428     0.897564     0.302383
    0.334060     0.685990     0.444057
    0.906116     0.385138     0.831924
    0.009951     0.140245     0.140571
    0.777309     0.258975     0.363856
    0.219146     0.753044     0.537495
EA3  8.593  8.593  21.019  90.08  90.08  90.08  Sym.group:    0
1.0000
    8.593017     0.000000     0.000000
   -0.011983     8.593000     0.000000
   -0.029353    -0.029394    21.018959
   O  Cu
  20   40 
Direct
    0.500000     0.000000     0.396280
    0.500000     0.500000     0.396280
    0.000000     0.500000     0.396280
    0.000000     1.000000     0.389062
    0.000610     0.000610     0.004757
    0.500610     0.000610     0.004757
    0.000610     0.500610     0.004757
    0.500610     0.500610     0.004757
    0.250790     0.250800     0.107041
    0.750790     0.250800     0.107041
    0.250790     0.750800     0.107041
    0.750790     0.750800     0.107041
    0.000610     0.000610     0.209175
    0.500610     0.000610     0.209175
    0.000610     0.500610     0.209175
    0.500610     0.500610     0.209175
    0.250790     0.250800     0.311459
    0.750790     0.250800     0.311459
    0.250790     0.750800     0.311459
    0.750790     0.750800     0.311459
    0.760840     0.743320     0.457412
    0.017520     0.760840     0.457412
    0.256680     0.017520     0.457412
    0.239160     0.256680     0.457412
    0.982480     0.239160     0.457412
    0.743320     0.982480     0.457412
    0.333330     0.666670     0.454834
    0.666670     0.333330     0.454834
    0.125670     0.125670     0.055888
    0.625670     0.125670     0.055888
    0.375590     0.375590     0.055892
    0.875590     0.375590     0.055892
    0.125670     0.625670     0.055888
    0.625670     0.625670     0.055888
    0.375590     0.875590     0.055892
    0.875590     0.875590     0.055892
    0.375580     0.125690     0.158064
    0.875580     0.125690     0.158064
    0.125680     0.375590     0.158064
    0.625680     0.375590     0.158064
    0.375580     0.625690     0.158064
    0.875580     0.625690     0.158064
    0.125680     0.875590     0.158064
    0.625680     0.875590     0.158064
    0.125670     0.125670     0.260306
    0.625670     0.125670     0.260306
    0.375590     0.375590     0.260313
    0.875590     0.375590     0.260313
    0.125670     0.625670     0.260306
    0.625670     0.625670     0.260306
    0.375590     0.875590     0.260313
    0.875590     0.875590     0.260313
    0.375580     0.125690     0.362482
    0.875580     0.125690     0.362482
    0.125680     0.375590     0.362482
    0.625680     0.375590     0.362482
    0.375580     0.625690     0.362482
    0.875580     0.625690     0.362482
    0.125680     0.875590     0.362482
    0.625680     0.875590     0.362482
EA4  6.525  8.723  22.945  90.00  90.00  90.00  Sym.group:    0
1.0000
    6.524602     0.000000     0.000000
    0.000000     8.722518     0.000000
    0.000000     0.000000    22.944902
   O  Cu
  20   40 
Direct
    0.747021     0.869280     0.530662
    0.816555     0.829594     0.194567
    0.176053     0.511534     0.189870
    0.852385     0.400073     0.775371
    0.028639     0.394081     0.409539
    0.575267     0.541759     0.636890
    0.431061     0.636972     0.389205
    0.289119     0.441727     0.238467
    0.284141     0.204251     0.701754
    0.257990     0.000603     0.459124
    0.391572     0.160771     0.317366
    0.278361     0.913687     0.614616
    0.211285     0.756227     0.277451
    0.607654     0.766332     0.753080
    0.669892     0.500273     0.286407
    0.750267     0.252552     0.795235
    0.877840     0.236592     0.224879
    0.284331     0.348097     0.560848
    0.626723     0.269462     0.471762
    0.768442     0.889879     0.376550
    0.135444     0.628008     0.416448
    0.635991     0.222450     0.274842
    0.976717     0.781121     0.327017
    0.710527     0.688411     0.247410
    0.106331     0.584912     0.684253
    0.265852     0.195429     0.501427
    0.314878     0.753531     0.748874
    0.699008     0.066446     0.496652
    0.267526     0.903099     0.533403
    0.860133     0.442074     0.483496
    0.015525     0.932140     0.422286
    0.959650     0.731163     0.504750
    0.846372     0.437531     0.348172
    0.064001     0.316143     0.729971
    0.905364     0.742319     0.754788
    0.052550     0.707147     0.202529
    0.289293     0.955064     0.302997
    0.609952     0.378655     0.568306
    0.684474     0.941559     0.707184
    0.745102     0.666024     0.413143
    0.526218     0.212915     0.748973
    0.385624     0.577532     0.304302
    0.742322     0.485142     0.703650
    0.993873     0.363699     0.586964
    0.225327     0.542494     0.521608
    0.888792     0.457238     0.214342
    0.848131     0.027218     0.215404
    0.395858     0.387514     0.667113
    0.494282     0.451709     0.432313
    0.413157     0.720374     0.628023
    0.586976     0.191360     0.390514
    0.488331     0.909435     0.414214
    0.782100     0.968872     0.605264
    0.564429     0.681896     0.519446
    0.066107     0.871786     0.673810
    0.902259     0.076860     0.330520
    0.787435     0.208794     0.661960
    0.210744     0.266854     0.372322
    0.136147     0.231618     0.266231
    0.455457     0.087074     0.639797
EA5  8.593  8.593  21.019  90.08  90.08  90.08  Sym.group:    0
1.0000
    8.593017     0.000000     0.000000
   -0.011983     8.593000     0.000000
   -0.029353    -0.029394    21.018959
   O  Cu
  20   40 
Direct
    0.499822     0.000533     0.396202
    0.500000     0.500000     0.396280
    0.999456     0.499832     0.396651
    0.999662     0.000524     0.389122
    0.000610     0.000610     0.004757
    0.500610     0.000610     0.004757
    0.000610     0.500610     0.004757
    0.500610     0.500610     0.004757
    0.250790     0.250800     0.107041
    0.750790     0.250800     0.107041
    0.250790     0.750800     0.107041
    0.750790     0.750800     0.107041
    0.000610     0.000610     0.209175
    0.500610     0.000610     0.209175
    0.000610     0.500610     0.209175
    0.500610     0.500610     0.209175
    0.250790     0.250800     0.311459
    0.750790     0.250800     0.311459
    0.250790     0.750800     0.311459
    0.750790     0.750800     0.311459
    0.790550     0.719953     0.451662
    0.018947     0.713173     0.446544
    0.204631     0.072673     0.452088
    0.253615     0.281571     0.479564
    0.938603     0.210206     0.457823
    0.827014     0.945128     0.417472
    0.345984     0.661368     0.475143
    0.621716     0.395039     0.473491
    0.125670     0.125670     0.055888
    0.625670     0.125670     0.055888
    0.375590     0.375590     0.055892
    0.875590     0.375590     0.055892
    0.125670     0.625670     0.055888
    0.625670     0.625670     0.055888
    0.375590     0.875590     0.055892
    0.875590     0.875590     0.055892
    0.375580     0.125690     0.158064
    0.875580     0.125690     0.158064
    0.125680     0.375590     0.158064
    0.625680     0.375590     0.158064
    0.375580     0.625690     0.158064
    0.875580     0.625690     0.158064
    0.125680     0.875590     0.158064
    0.625680     0.875590     0.158064
    0.125670     0.125670     0.260306
    0.625670     0.125670     0.260306
    0.375590     0.375590     0.260313
    0.875590     0.375590     0.260313
    0.125670     0.625670     0.260306
    0.625670     0.625670     0.260306
    0.375590     0.875590     0.260313
    0.875590     0.875590     0.260313
    0.375580     0.125690     0.362482
    0.875580     0.125690     0.362482
    0.125680     0.375590     0.362482
    0.625680     0.375590     0.362482
    0.375580     0.625690     0.362482
    0.875580     0.625690     0.362482
    0.125680     0.875590     0.362482
    0.625680     0.875590     0.362482
EA6  8.593  8.593  21.019  90.08  90.08  90.08  Sym.group:    0
1.0000
    8.593017     0.000000     0.000000
   -0.011983     8.593000     0.000000
   -0.029353    -0.029394    21.018959
   O  Cu
  20   40 
Direct
    0.444480     0.368540     0.424720
    0.555520     0.631460     0.424720
    0.055520     0.868540     0.424720
    0.944480     0.131460     0.424720
    0.000610     0.000610     0.004757
    0.500610     0.000610     0.004757
    0.000610     0.500610     0.004757
    0.500610     0.500610     0.004757
    0.250790     0.250800     0.107041
    0.750790     0.250800     0.107041
    0.250790     0.750800     0.107041
    0.750790     0.750800     0.107041
    0.000610     0.000610     0.209175
    0.500610     0.000610     0.209175
    0.000610     0.500610     0.209175
    0.500610     0.500610     0.209175
    0.250790     0.250800     0.311459
    0.750790     0.250800     0.311459
    0.250790     0.750800     0.311459
    0.750790     0.750800     0.311459
    0.033030     0.308500     0.446429
    0.966970     0.691500     0.446429
    0.466970     0.808500     0.446429
    0.533030     0.191500     0.446429
    0.257430     0.726700     0.442699
    0.742570     0.273300     0.442699
    0.242570     0.226700     0.442699
    0.757430     0.773300     0.442699
    0.125670     0.125670     0.055888
    0.625670     0.125670     0.055888
    0.375590     0.375590     0.055892
    0.875590     0.375590     0.055892
    0.125670     0.625670     0.055888
    0.625670     0.625670     0.055888
    0.375590     0.875590     0.055892
    0.875590     0.875590     0.055892
    0.375580     0.125690     0.158064
    0.875580     0.125690     0.158064
    0.125680     0.375590     0.158064
    0.625680     0.375590     0.158064
    0.375580     0.625690     0.158064
    0.875580     0.625690     0.158064
    0.125680     0.875590     0.158064
    0.625680     0.875590     0.158064
    0.125670     0.125670     0.260306
    0.625670     0.125670     0.260306
    0.375590     0.375590     0.260313
    0.875590     0.375590     0.260313
    0.125670     0.625670     0.260306
    0.625670     0.625670     0.260306
    0.375590     0.875590     0.260313
    0.875590     0.875590     0.260313
    0.375580     0.125690     0.362482
    0.875580     0.125690     0.362482
    0.125680     0.375590     0.362482
    0.625680     0.375590     0.362482
    0.375580     0.625690     0.362482
    0.875580     0.625690     0.362482
    0.125680     0.875590     0.362482
    0.625680     0.875590     0.362482
EA7  8.593  8.593  21.019  90.08  90.08  90.08  Sym.group:    0
1.0000
    8.593017     0.000000     0.000000
   -0.011983     8.593000     0.000000
   -0.029353    -0.029394    21.018959
   O  Cu
  20   40 
Direct
    0.500000     0.200000     0.429088
    0.900000     0.600000     0.486881
    0.600000     0.900000     0.503944
    0.992500     0.195640     0.493274
    0.000610     0.000610     0.004757
    0.500610     0.000610     0.004757
    0.000610     0.500610     0.004757
    0.500610     0.500610     0.004757
    0.250790     0.250800     0.107041
    0.750790     0.250800     0.107041
    0.250790     0.750800     0.107041
    0.750790     0.750800     0.107041
    0.000610     0.000610     0.209175
    0.500610     0.000610     0.209175
    0.000610     0.500610     0.209175
    0.500610     0.500610     0.209175
    0.250790     0.250800     0.311459
    0.750790     0.250800     0.311459
    0.250790     0.750800     0.311459
    0.750790     0.750800     0.311459
    0.804360     0.796860     0.493274
    0.400000     0.300000     0.503428
    0.300000     0.000000     0.536298
    0.454580     0.928320     0.431809
    0.071680     0.526260     0.431809
    0.473740     0.545420     0.431809
    0.333330     0.666670     0.485207
    0.000000     0.000000     0.450330
    0.125670     0.125670     0.055888
    0.625670     0.125670     0.055888
    0.375590     0.375590     0.055892
    0.875590     0.375590     0.055892
    0.125670     0.625670     0.055888
    0.625670     0.625670     0.055888
    0.375590     0.875590     0.055892
    0.875590     0.875590     0.055892
    0.375580     0.125690     0.158064
    0.875580     0.125690     0.158064
    0.125680     0.375590     0.158064
    0.625680     0.375590     0.158064
    0.375580     0.625690     0.158064
    0.875580     0.625690     0.158064
    0.125680     0.875590     0.158064
    0.625680     0.875590     0.158064
    0.125670     0.125670     0.260306
    0.625670     0.125670     0.260306
    0.375590     0.375590     0.260313
    0.875590     0.375590     0.260313
    0.125670     0.625670     0.260306
    0.625670     0.625670     0.260306
    0.375590     0.875590     0.260313
    0.875590     0.875590     0.260313
    0.375580     0.125690     0.362482
    0.875580     0.125690     0.362482
    0.125680     0.375590     0.362482
    0.625680     0.375590     0.362482
    0.375580     0.625690     0.362482
    0.875580     0.625690     0.362482
    0.125680     0.875590     0.362482
    0.625680     0.875590     0.362482
EA8  8.593  8.593  21.019  90.08  90.08  90.08  Sym.group:    0
1.0000
    8.593017     0.000000     0.000000
   -0.011983     8.593000     0.000000
   -0.029353    -0.029394    21.018959
   O  Cu
  20   40 
Direct
    0.966970     0.691500     0.446429
    0.555520     0.631460     0.424720
    0.055520     0.868540     0.424720
    0.944480     0.131460     0.424720
    0.000610     0.000610     0.004757
    0.500610     0.000610     0.004757
    0.000610     0.500610     0.004757
    0.500610     0.500610     0.004757
    0.250790     0.250800     0.107041
    0.750790     0.250800     0.107041
    0.250790     0.750800     0.107041
    0.750790     0.750800     0.107041
    0.000610     0.000610     0.209175
    0.500610     0.000610     0.209175
    0.000610     0.500610     0.209175
    0.500610     0.500610     0.209175
    0.250790     0.250800     0.311459
    0.750790     0.250800     0.311459
    0.250790     0.750800     0.311459
    0.750790     0.750800     0.311459
    0.033030     0.308500     0.446429
    0.444480     0.368540     0.424720
    0.466970     0.808500     0.446429
    0.533030     0.191500     0.446429
    0.257430     0.726700     0.442699
    0.742570     0.273300     0.442699
    0.242570     0.226700     0.442699
    0.757430     0.773300     0.442699
    0.125670     0.125670     0.055888
    0.625670     0.125670     0.055888
    0.375590     0.375590     0.055892
    0.875590     0.375590     0.055892
    0.125670     0.625670     0.055888
    0.625670     0.625670     0.055888
    0.375590     0.875590     0.055892
    0.875590     0.875590     0.055892
    0.375580     0.125690     0.158064
    0.875580     0.125690     0.158064
    0.125680     0.375590     0.158064
    0.625680     0.375590     0.158064
    0.375580     0.625690     0.158064
    0.875580     0.625690     0.158064
    0.125680     0.875590     0.158064
    0.625680     0.875590     0.158064
    0.125670     0.125670     0.260306
    0.625670     0.125670     0.260306
    0.375590     0.375590     0.260313
    0.875590     0.375590     0.260313
    0.125670     0.625670     0.260306
    0.625670     0.625670     0.260306
    0.375590     0.875590     0.260313
    0.875590     0.875590     0.260313
    0.375580     0.125690     0.362482
    0.875580     0.125690     0.362482
    0.125680     0.375590     0.362482
    0.625680     0.375590     0.362482
    0.375580     0.625690     0.362482
    0.875580     0.625690     0.362482
    0.125680     0.875590     0.362482
    0.625680     0.875590     0.362482
EA9  8.593  8.593  21.019  90.08  90.08  90.08  Sym.group:    0
1.0000
    8.593017     0.000000     0.000000
   -0.011983     8.593000     0.000000
   -0.029353    -0.029394    21.018959
   O  Cu
  20   40 
Direct
    0.698830     0.198830     0.442862
    0.301170     0.801170     0.442862
    0.801170     0.698830     0.442862
    0.198830     0.301170     0.442862
    0.000610     0.000610     0.004757
    0.500610     0.000610     0.004757
    0.000610     0.500610     0.004757
    0.500610     0.500610     0.004757
    0.250790     0.250800     0.107041
    0.750790     0.250800     0.107041
    0.250790     0.750800     0.107041
    0.750790     0.750800     0.107041
    0.000610     0.000610     0.209175
    0.500610     0.000610     0.209175
    0.000610     0.500610     0.209175
    0.500610     0.500610     0.209175
    0.250790     0.250800     0.311459
    0.750790     0.250800     0.311459
    0.250790     0.750800     0.311459
    0.750790     0.750800     0.311459
    0.537540     0.282990     0.446475
    0.462460     0.717010     0.446475
    0.717010     0.537540     0.446475
    0.282990     0.462460     0.446475
    0.962460     0.782990     0.446475
    0.037540     0.217010     0.446475
    0.782990     0.037540     0.446475
    0.217010     0.962460     0.446475
    0.125670     0.125670     0.055888
    0.625670     0.125670     0.055888
    0.375590     0.375590     0.055892
    0.875590     0.375590     0.055892
    0.125670     0.625670     0.055888
    0.625670     0.625670     0.055888
    0.375590     0.875590     0.055892
    0.875590     0.875590     0.055892
    0.375580     0.125690     0.158064
    0.875580     0.125690     0.158064
    0.125680     0.375590     0.158064
    0.625680     0.375590     0.158064
    0.375580     0.625690     0.158064
    0.875580     0.625690     0.158064
    0.125680     0.875590     0.158064
    0.625680     0.875590     0.158064
    0.125670     0.125670     0.260306
    0.625670     0.125670     0.260306
    0.375590     0.375590     0.260313
    0.875590     0.375590     0.260313
    0.125670     0.625670     0.260306
    0.625670     0.625670     0.260306
    0.375590     0.875590     0.260313
    0.875590     0.875590     0.260313
    0.375580     0.125690     0.362482
    0.875580     0.125690     0.362482
    0.125680     0.375590     0.362482
    0.625680     0.375590     0.362482
    0.375580     0.625690     0.362482
    0.875580     0.625690     0.362482
    0.125680     0.875590     0.362482
    0.625680     0.875590     0.362482
EA10  8.593  8.593  21.019  90.08  90.08  90.08  Sym.group:    0
1.0000
    8.593017     0.000000     0.000000
   -0.011983     8.593000     0.000000
   -0.029353    -0.029394    21.018959
   O  Cu
  20   40 
Direct
    0.818190     0.226580     0.463722
    0.318190     0.226580     0.442030
    0.067280     0.018260     0.418814
    0.567280     0.018260     0.486938
    0.000610     0.000610     0.004757
    0.500610     0.000610     0.004757
    0.000610     0.500610     0.004757
    0.500610     0.500610     0.004757
    0.250790     0.250800     0.107041
    0.750790     0.250800     0.107041
    0.250790     0.750800     0.107041
    0.750790     0.750800     0.107041
    0.000610     0.000610     0.209175
    0.500610     0.000610     0.209175
    0.000610     0.500610     0.209175
    0.500610     0.500610     0.209175
    0.250790     0.250800     0.311459
    0.750790     0.250800     0.311459
    0.250790     0.750800     0.311459
    0.750790     0.750800     0.311459
    0.262520     0.010290     0.422356
    0.762520     0.010290     0.483395
    0.748430     0.744170     0.419214
    0.248430     0.744170     0.486538
    0.099080     0.186090     0.480186
    0.599080     0.186090     0.425566
    0.540050     0.809520     0.464707
    0.040050     0.809520     0.441045
    0.125670     0.125670     0.055888
    0.625670     0.125670     0.055888
    0.375590     0.375590     0.055892
    0.875590     0.375590     0.055892
    0.125670     0.625670     0.055888
    0.625670     0.625670     0.055888
    0.375590     0.875590     0.055892
    0.875590     0.875590     0.055892
    0.375580     0.125690     0.158064
    0.875580     0.125690     0.158064
    0.125680     0.375590     0.158064
    0.625680     0.375590     0.158064
    0.375580     0.625690     0.158064
    0.875580     0.625690     0.158064
    0.125680     0.875590     0.158064
    0.625680     0.875590     0.158064
    0.125670     0.125670     0.260306
    0.625670     0.125670     0.260306
    0.375590     0.375590     0.260313
    0.875590     0.375590     0.260313
    0.125670     0.625670     0.260306
    0.625670     0.625670     0.260306
    0.375590     0.875590     0.260313
    0.875590     0.875590     0.260313
    0.375580     0.125690     0.362482
    0.875580     0.125690     0.362482
    0.125680     0.375590     0.362482
    0.625680     0.375590     0.362482
    0.375580     0.625690     0.362482
    0.875580     0.625690     0.362482
    0.125680     0.875590     0.362482
    0.625680     0.875590     0.362482
EA11  8.593  8.593  21.019  90.08  90.08  90.08  Sym.group:    0
1.0000
    8.593017     0.000000     0.000000
   -0.011983     8.593000     0.000000
   -0.029353    -0.029394    21.018959
   O  Cu
  20   40 
Direct
    0.435582     0.136659     0.469709
    0.435582     0.636659     0.474437
    0.621230     0.380182     0.438225
    0.621230     0.024582     0.438225
    0.000610     0.000610     0.004757
    0.500610     0.000610     0.004757
    0.000610     0.500610     0.004757
    0.500610     0.500610     0.004757
    0.250790     0.250800     0.107041
    0.750790     0.250800     0.107041
    0.250790     0.750800     0.107041
    0.750790     0.750800     0.107041
    0.000610     0.000610     0.209175
    0.500610     0.000610     0.209175
    0.000610     0.500610     0.209175
    0.500610     0.500610     0.209175
    0.250790     0.250800     0.311459
    0.750790     0.250800     0.311459
    0.250790     0.750800     0.311459
    0.750790     0.750800     0.311459
    0.223422     0.394619     0.489226
    0.465462     0.424499     0.489226
    0.405702     0.848819     0.489226
    0.193542     0.606779     0.489226
    0.102252     0.969989     0.454263
    0.806280     0.702382     0.494634
    0.979690     0.560842     0.496887
    0.979690     0.843922     0.496887
    0.125670     0.125670     0.055888
    0.625670     0.125670     0.055888
    0.375590     0.375590     0.055892
    0.875590     0.375590     0.055892
    0.125670     0.625670     0.055888
    0.625670     0.625670     0.055888
    0.375590     0.875590     0.055892
    0.875590     0.875590     0.055892
    0.375580     0.125690     0.158064
    0.875580     0.125690     0.158064
    0.125680     0.375590     0.158064
    0.625680     0.375590     0.158064
    0.375580     0.625690     0.158064
    0.875580     0.625690     0.158064
    0.125680     0.875590     0.158064
    0.625680     0.875590     0.158064
    0.125670     0.125670     0.260306
    0.625670     0.125670     0.260306
    0.375590     0.375590     0.260313
    0.875590     0.375590     0.260313
    0.125670     0.625670     0.260306
    0.625670     0.625670     0.260306
    0.375590     0.875590     0.260313
    0.875590     0.875590     0.260313
    0.375580     0.125690     0.362482
    0.875580     0.125690     0.362482
    0.125680     0.375590     0.362482
    0.625680     0.375590     0.362482
    0.375580     0.625690     0.362482
    0.875580     0.625690     0.362482
    0.125680     0.875590     0.362482
    0.625680     0.875590     0.362482
EA12  7.364  9.736  16.332  90.00  90.00  90.00  Sym.group:    0
1.0000
    7.363875     0.000000     0.000000
    0.000000     9.735537     0.000000
    0.000000     0.000000    16.332135
   O  Cu
  20   40 
Direct
    0.110944     0.138581     0.208954
    0.787747     0.188373     0.304118
    0.897366     0.307585     0.884677
    0.503778     0.002852     0.493620
    0.457229     0.736397     0.598275
    0.374152     0.713119     0.414237
    0.817180     0.531692     0.382326
    0.360474     0.307559     0.372835
    0.729782     0.112087     0.380750
    0.377006     0.421368     0.212669
    0.417058     0.452897     0.537173
    0.957532     0.610960     0.168751
    0.588646     0.557902     0.797572
    0.182639     0.933299     0.753550
    0.647095     0.074852     0.711012
    0.316875     0.237471     0.785984
    0.863983     0.468910     0.642068
    0.023973     0.047869     0.573925
    0.009170     0.290138     0.454774
    0.659418     0.948686     0.204995
    0.700481     0.794532     0.276973
    0.173082     0.522849     0.195300
    0.917467     0.092792     0.468580
    0.300226     0.918756     0.405392
    0.986351     0.847540     0.359784
    0.010448     0.861711     0.525806
    0.193883     0.981672     0.262005
    0.245528     0.360689     0.473516
    0.394344     0.061753     0.744449
    0.268285     0.038126     0.543383
    0.722846     0.766679     0.588573
    0.913396     0.653187     0.468647
    0.812058     0.668715     0.758729
    0.062974     0.492394     0.753696
    0.871251     0.348242     0.354887
    0.095463     0.272420     0.830592
    0.884187     0.045825     0.210795
    0.705766     0.878366     0.443333
    0.868213     0.575493     0.272002
    0.513495     0.575813     0.236578
    0.963827     0.910473     0.678341
    0.502859     0.642346     0.699980
    0.649036     0.883411     0.727513
    0.127043     0.735993     0.772550
    0.641980     0.458004     0.586943
    0.596628     0.045793     0.600208
    0.313095     0.850945     0.664123
    0.594865     0.629333     0.390055
    0.270129     0.724258     0.304388
    0.454387     0.157660     0.424188
    0.427530     0.830923     0.192293
    0.033606     0.788819     0.204635
    0.514081     0.031048     0.292533
    0.276710     0.467413     0.636923
    0.949911     0.380319     0.550747
    0.013438     0.650881     0.627637
    0.766822     0.440822     0.836783
    0.423215     0.409300     0.774404
    0.266816     0.260902     0.262150
    0.258029     0.675932     0.519788
EA13  8.593  8.593  21.019  90.08  90.08  90.08  Sym.group:    0
1.0000
    8.593017     0.000000     0.000000
   -0.011983     8.593000     0.000000
   -0.029353    -0.029394    21.018959
   O  Cu
  20   40 
Direct
    0.500000     1.000000     0.488372
    0.500000     0.500000     0.488372
    0.000000     0.500000     0.488372
    0.000000     0.000000     0.493100
    0.000610     0.000610     0.004757
    0.500610     0.000610     0.004757
    0.000610     0.500610     0.004757
    0.500610     0.500610     0.004757
    0.250790     0.250800     0.107041
    0.750790     0.250800     0.107041
    0.250790     0.750800     0.107041
    0.750790     0.750800     0.107041
    0.000610     0.000610     0.209175
    0.500610     0.000610     0.209175
    0.000610     0.500610     0.209175
    0.500610     0.500610     0.209175
    0.250790     0.250800     0.311459
    0.750790     0.250800     0.311459
    0.250790     0.750800     0.311459
    0.750790     0.750800     0.311459
    0.787840     0.757960     0.507889
    0.029880     0.787840     0.507889
    0.242040     0.029880     0.507889
    0.212160     0.242040     0.507889
    0.970120     0.212160     0.507889
    0.757960     0.970120     0.507889
    0.333330     0.666670     0.472926
    0.666670     0.333330     0.472926
    0.125670     0.125670     0.055888
    0.625670     0.125670     0.055888
    0.375590     0.375590     0.055892
    0.875590     0.375590     0.055892
    0.125670     0.625670     0.055888
    0.625670     0.625670     0.055888
    0.375590     0.875590     0.055892
    0.875590     0.875590     0.055892
    0.375580     0.125690     0.158064
    0.875580     0.125690     0.158064
    0.125680     0.375590     0.158064
    0.625680     0.375590     0.158064
    0.375580     0.625690     0.158064
    0.875580     0.625690     0.158064
    0.125680     0.875590     0.158064
    0.625680     0.875590     0.158064
    0.125670     0.125670     0.260306
    0.625670     0.125670     0.260306
    0.375590     0.375590     0.260313
    0.875590     0.375590     0.260313
    0.125670     0.625670     0.260306
    0.625670     0.625670     0.260306
    0.375590     0.875590     0.260313
    0.875590     0.875590     0.260313
    0.375580     0.125690     0.362482
    0.875580     0.125690     0.362482
    0.125680     0.375590     0.362482
    0.625680     0.375590     0.362482
    0.375580     0.625690     0.362482
    0.875580     0.625690     0.362482
    0.125680     0.875590     0.362482
    0.625680     0.875590     0.362482
EA14  8.593  8.593  21.019  90.08  90.08  90.08  Sym.group:    0
1.0000
    8.593017     0.000000     0.000000
   -0.011983     8.593000     0.000000
   -0.029353    -0.029394    21.018959
   O  Cu
  20   40 
Direct
    0.825175     0.107988     0.474982
    0.662995     0.607988     0.474982
    0.429400     0.046204     0.522040
    0.407862     0.794145     0.402599
    0.000610     0.000610     0.004757
    0.500610     0.000610     0.004757
    0.000610     0.500610     0.004757
    0.500610     0.500610     0.004757
    0.250790     0.250800     0.107041
    0.750790     0.250800     0.107041
    0.250790     0.750800     0.107041
    0.750790     0.750800     0.107041
    0.000610     0.000610     0.209175
    0.500610     0.000610     0.209175
    0.000610     0.500610     0.209175
    0.500610     0.500610     0.209175
    0.250790     0.250800     0.311459
    0.750790     0.250800     0.311459
    0.250790     0.750800     0.311459
    0.750790     0.750800     0.311459
    0.198605     0.354051     0.450746
    0.157227     0.057039     0.482484
    0.630765     0.184568     0.463637
    0.357405     0.151148     0.463637
    0.857405     0.684568     0.463637
    0.828635     0.405748     0.459234
    0.659535     0.905748     0.459234
    0.475245     0.926253     0.443397
    0.125670     0.125670     0.055888
    0.625670     0.125670     0.055888
    0.375590     0.375590     0.055892
    0.875590     0.375590     0.055892
    0.125670     0.625670     0.055888
    0.625670     0.625670     0.055888
    0.375590     0.875590     0.055892
    0.875590     0.875590     0.055892
    0.375580     0.125690     0.158064
    0.875580     0.125690     0.158064
    0.125680     0.375590     0.158064
    0.625680     0.375590     0.158064
    0.375580     0.625690     0.158064
    0.875580     0.625690     0.158064
    0.125680     0.875590     0.158064
    0.625680     0.875590     0.158064
    0.125670     0.125670     0.260306
    0.625670     0.125670     0.260306
    0.375590     0.375590     0.260313
    0.875590     0.375590     0.260313
    0.125670     0.625670     0.260306
    0.625670     0.625670     0.260306
    0.375590     0.875590     0.260313
    0.875590     0.875590     0.260313
    0.375580     0.125690     0.362482
    0.875580     0.125690     0.362482
    0.125680     0.375590     0.362482
    0.625680     0.375590     0.362482
    0.375580     0.625690     0.362482
    0.875580     0.625690     0.362482
    0.125680     0.875590     0.362482
    0.625680     0.875590     0.362482
EA15  8.593  8.593  21.019  90.08  90.08  90.08  Sym.group:    0
1.0000
    8.593017     0.000000     0.000000
   -0.011983     8.593000     0.000000
   -0.029353    -0.029394    21.018959
   O  Cu
  20   40 
Direct
    0.331090     0.440130     0.517583
    0.668910     0.559870     0.517583
    0.168910     0.940130     0.517583
    0.831090     0.059870     0.517583
    0.000610     0.000610     0.004757
    0.500610     0.000610     0.004757
    0.000610     0.500610     0.004757
    0.500610     0.500610     0.004757
    0.250790     0.250800     0.107041
    0.750790     0.250800     0.107041
    0.250790     0.750800     0.107041
    0.750790     0.750800     0.107041
    0.000610     0.000610     0.209175
    0.500610     0.000610     0.209175
    0.000610     0.500610     0.209175
    0.500610     0.500610     0.209175
    0.250790     0.250800     0.311459
    0.750790     0.250800     0.311459
    0.250790     0.750800     0.311459
    0.750790     0.750800     0.311459
    0.136680     0.516710     0.506238
    0.863320     0.483290     0.506238
    0.363320     0.016710     0.506238
    0.636680     0.983290     0.506238
    0.665450     0.262110     0.501835
    0.334550     0.737890     0.501835
    0.834550     0.762110     0.501835
    0.165450     0.237890     0.501835
    0.125670     0.125670     0.055888
    0.625670     0.125670     0.055888
    0.375590     0.375590     0.055892
    0.875590     0.375590     0.055892
    0.125670     0.625670     0.055888
    0.625670     0.625670     0.055888
    0.375590     0.875590     0.055892
    0.875590     0.875590     0.055892
    0.375580     0.125690     0.158064
    0.875580     0.125690     0.158064
    0.125680     0.375590     0.158064
    0.625680     0.375590     0.158064
    0.375580     0.625690     0.158064
    0.875580     0.625690     0.158064
    0.125680     0.875590     0.158064
    0.625680     0.875590     0.158064
    0.125670     0.125670     0.260306
    0.625670     0.125670     0.260306
    0.375590     0.375590     0.260313
    0.875590     0.375590     0.260313
    0.125670     0.625670     0.260306
    0.625670     0.625670     0.260306
    0.375590     0.875590     0.260313
    0.875590     0.875590     0.260313
    0.375580     0.125690     0.362482
    0.875580     0.125690     0.362482
    0.125680     0.375590     0.362482
    0.625680     0.375590     0.362482
    0.375580     0.625690     0.362482
    0.875580     0.625690     0.362482
    0.125680     0.875590     0.362482
    0.625680     0.875590     0.362482
EA16  8.593  8.593  21.019  90.08  90.08  90.08  Sym.group:    0
1.0000
    8.593017     0.000000     0.000000
   -0.011983     8.593000     0.000000
   -0.029353    -0.029394    21.018959
   O  Cu
  20   40 
Direct
    0.200000     0.300000     0.429088
    0.300000     0.400000     0.453702
    0.100000     0.900000     0.524670
    0.992500     0.195640     0.493274
    0.000610     0.000610     0.004757
    0.500610     0.000610     0.004757
    0.000610     0.500610     0.004757
    0.500610     0.500610     0.004757
    0.250790     0.250800     0.107041
    0.750790     0.250800     0.107041
    0.250790     0.750800     0.107041
    0.750790     0.750800     0.107041
    0.000610     0.000610     0.209175
    0.500610     0.000610     0.209175
    0.000610     0.500610     0.209175
    0.500610     0.500610     0.209175
    0.250790     0.250800     0.311459
    0.750790     0.250800     0.311459
    0.250790     0.750800     0.311459
    0.750790     0.750800     0.311459
    0.804360     0.796860     0.493274
    0.800000     0.500000     0.489492
    0.300000     0.100000     0.514534
    0.454580     0.928320     0.431809
    0.071680     0.526260     0.431809
    0.473740     0.545420     0.431809
    0.333330     0.666670     0.485207
    0.000000     0.000000     0.450330
    0.125670     0.125670     0.055888
    0.625670     0.125670     0.055888
    0.375590     0.375590     0.055892
    0.875590     0.375590     0.055892
    0.125670     0.625670     0.055888
    0.625670     0.625670     0.055888
    0.375590     0.875590     0.055892
    0.875590     0.875590     0.055892
    0.375580     0.125690     0.158064
    0.875580     0.125690     0.158064
    0.125680     0.375590     0.158064
    0.625680     0.375590     0.158064
    0.375580     0.625690     0.158064
    0.875580     0.625690     0.158064
    0.125680     0.875590     0.158064
    0.625680     0.875590     0.158064
    0.125670     0.125670     0.260306
    0.625670     0.125670     0.260306
    0.375590     0.375590     0.260313
    0.875590     0.375590     0.260313
    0.125670     0.625670     0.260306
    0.625670     0.625670     0.260306
    0.375590     0.875590     0.260313
    0.875590     0.875590     0.260313
    0.375580     0.125690     0.362482
    0.875580     0.125690     0.362482
    0.125680     0.375590     0.362482
    0.625680     0.375590     0.362482
    0.375580     0.625690     0.362482
    0.875580     0.625690     0.362482
    0.125680     0.875590     0.362482
    0.625680     0.875590     0.362482
EA17  8.593  8.593  21.019  90.08  90.08  90.08  Sym.group:    0
1.0000
    8.593017     0.000000     0.000000
   -0.011983     8.593000     0.000000
   -0.029353    -0.029394    21.018959
   O  Cu
  20   40 
Direct
    0.200000     0.900000     0.513955
    0.500000     0.500000     0.513393
    0.348280     0.348280     0.480480
    0.651720     0.651720     0.480480
    0.000610     0.000610     0.004757
    0.500610     0.000610     0.004757
    0.000610     0.500610     0.004757
    0.500610     0.500610     0.004757
    0.250790     0.250800     0.107041
    0.750790     0.250800     0.107041
    0.250790     0.750800     0.107041
    0.750790     0.750800     0.107041
    0.000610     0.000610     0.209175
    0.500610     0.000610     0.209175
    0.000610     0.500610     0.209175
    0.500610     0.500610     0.209175
    0.250790     0.250800     0.311459
    0.750790     0.250800     0.311459
    0.250790     0.750800     0.311459
    0.750790     0.750800     0.311459
    0.200000     0.000000     0.429088
    0.000000     0.700000     0.429088
    0.000000     0.500000     0.524430
    0.723650     0.500000     0.454566
    0.276350     0.500000     0.454566
    0.500000     0.723650     0.454566
    0.500000     0.276350     0.454566
    0.500000     0.500000     0.419192
    0.125670     0.125670     0.055888
    0.625670     0.125670     0.055888
    0.375590     0.375590     0.055892
    0.875590     0.375590     0.055892
    0.125670     0.625670     0.055888
    0.625670     0.625670     0.055888
    0.375590     0.875590     0.055892
    0.875590     0.875590     0.055892
    0.375580     0.125690     0.158064
    0.875580     0.125690     0.158064
    0.125680     0.375590     0.158064
    0.625680     0.375590     0.158064
    0.375580     0.625690     0.158064
    0.875580     0.625690     0.158064
    0.125680     0.875590     0.158064
    0.625680     0.875590     0.158064
    0.125670     0.125670     0.260306
    0.625670     0.125670     0.260306
    0.375590     0.375590     0.260313
    0.875590     0.375590     0.260313
    0.125670     0.625670     0.260306
    0.625670     0.625670     0.260306
    0.375590     0.875590     0.260313
    0.875590     0.875590     0.260313
    0.375580     0.125690     0.362482
    0.875580     0.125690     0.362482
    0.125680     0.375590     0.362482
    0.625680     0.375590     0.362482
    0.375580     0.625690     0.362482
    0.875580     0.625690     0.362482
    0.125680     0.875590     0.362482
    0.625680     0.875590     0.362482
EA18  8.593  8.593  21.019  90.08  90.08  90.08  Sym.group:    0
1.0000
    8.593017     0.000000     0.000000
   -0.011983     8.593000     0.000000
   -0.029353    -0.029394    21.018959
   O  Cu
  20   40 
Direct
    0.500830     0.999060     0.488271
    0.500288     0.500079     0.488481
    0.997504     0.497685     0.489616
    0.999034     0.996738     0.492346
    0.000610     0.000610     0.004757
    0.500610     0.000610     0.004757
    0.000610     0.500610     0.004757
    0.500610     0.500610     0.004757
    0.250790     0.250800     0.107041
    0.750790     0.250800     0.107041
    0.250790     0.750800     0.107041
    0.750790     0.750800     0.107041
    0.000610     0.000610     0.209175
    0.500610     0.000610     0.209175
    0.000610     0.500610     0.209175
    0.500610     0.500610     0.209175
    0.250790     0.250800     0.311459
    0.750790     0.250800     0.311459
    0.250790     0.750800     0.311459
    0.750790     0.750800     0.311459
    0.787840     0.757960     0.507889
    0.067538     0.829223     0.503962
    0.254419     0.919720     0.519657
    0.212147     0.242043     0.507890
    0.002345     0.291663     0.492901
    0.698338     0.921755     0.510228
    0.348577     0.656751     0.483962
    0.631141     0.387324     0.466201
    0.125670     0.125670     0.055888
    0.625670     0.125670     0.055888
    0.375590     0.375590     0.055892
    0.875590     0.375590     0.055892
    0.125670     0.625670     0.055888
    0.625670     0.625670     0.055888
    0.375590     0.875590     0.055892
    0.875590     0.875590     0.055892
    0.375580     0.125690     0.158064
    0.875580     0.125690     0.158064
    0.125680     0.375590     0.158064
    0.625680     0.375590     0.158064
    0.375580     0.625690     0.158064
    0.875580     0.625690     0.158064
    0.125680     0.875590     0.158064
    0.625680     0.875590     0.158064
    0.125670     0.125670     0.260306
    0.625670     0.125670     0.260306
    0.375590     0.375590     0.260313
    0.875590     0.375590     0.260313
    0.125670     0.625670     0.260306
    0.625670     0.625670     0.260306
    0.375590     0.875590     0.260313
    0.875590     0.875590     0.260313
    0.375580     0.125690     0.362482
    0.875580     0.125690     0.362482
    0.125680     0.375590     0.362482
    0.625680     0.375590     0.362482
    0.375580     0.625690     0.362482
    0.875580     0.625690     0.362482
    0.125680     0.875590     0.362482
    0.625680     0.875590     0.362482
EA19  8.593  8.593  21.019  90.08  90.08  90.08  Sym.group:    0
1.0000
    8.593017     0.000000     0.000000
   -0.011983     8.593000     0.000000
   -0.029353    -0.029394    21.018959
   O  Cu
  20   40 
Direct
    0.348280     0.348280     0.480480
    0.651720     0.651720     0.480480
    0.651720     0.348280     0.480480
    0.348280     0.651720     0.480480
    0.000610     0.000610     0.004757
    0.500610     0.000610     0.004757
    0.000610     0.500610     0.004757
    0.500610     0.500610     0.004757
    0.250790     0.250800     0.107041
    0.750790     0.250800     0.107041
    0.250790     0.750800     0.107041
    0.750790     0.750800     0.107041
    0.000610     0.000610     0.209175
    0.500610     0.000610     0.209175
    0.000610     0.500610     0.209175
    0.500610     0.500610     0.209175
    0.250790     0.250800     0.311459
    0.750790     0.250800     0.311459
    0.250790     0.750800     0.311459
    0.750790     0.750800     0.311459
    0.723650     0.500000     0.454566
    0.276350     0.500000     0.454566
    0.500000     0.723650     0.454566
    0.500000     0.276350     0.454566
    0.500000     1.000000     0.493258
    1.000000     0.500000     0.493258
    1.000000     1.000000     0.516504
    0.500000     0.500000     0.419192
    0.125670     0.125670     0.055888
    0.625670     0.125670     0.055888
    0.375590     0.375590     0.055892
    0.875590     0.375590     0.055892
    0.125670     0.625670     0.055888
    0.625670     0.625670     0.055888
    0.375590     0.875590     0.055892
    0.875590     0.875590     0.055892
    0.375580     0.125690     0.158064
    0.875580     0.125690     0.158064
    0.125680     0.375590     0.158064
    0.625680     0.375590     0.158064
    0.375580     0.625690     0.158064
    0.875580     0.625690     0.158064
    0.125680     0.875590     0.158064
    0.625680     0.875590     0.158064
    0.125670     0.125670     0.260306
    0.625670     0.125670     0.260306
    0.375590     0.375590     0.260313
    0.875590     0.375590     0.260313
    0.125670     0.625670     0.260306
    0.625670     0.625670     0.260306
    0.375590     0.875590     0.260313
    0.875590     0.875590     0.260313
    0.375580     0.125690     0.362482
    0.875580     0.125690     0.362482
    0.125680     0.375590     0.362482
    0.625680     0.375590     0.362482
    0.375580     0.625690     0.362482
    0.875580     0.625690     0.362482
    0.125680     0.875590     0.362482
    0.625680     0.875590     0.362482
EA20  8.593  8.593  21.019  90.08  90.08  90.08  Sym.group:    0
1.0000
    8.593017     0.000000     0.000000
   -0.011983     8.593000     0.000000
   -0.029353    -0.029394    21.018959
   O  Cu
  20   40 
Direct
    0.500000     0.900000     0.429088
    0.800000     0.500000     0.429088
    0.000000     0.200000     0.429088
    0.818190     0.226580     0.463722
    0.000610     0.000610     0.004757
    0.500610     0.000610     0.004757
    0.000610     0.500610     0.004757
    0.500610     0.500610     0.004757
    0.250790     0.250800     0.107041
    0.750790     0.250800     0.107041
    0.250790     0.750800     0.107041
    0.750790     0.750800     0.107041
    0.000610     0.000610     0.209175
    0.500610     0.000610     0.209175
    0.000610     0.500610     0.209175
    0.500610     0.500610     0.209175
    0.250790     0.250800     0.311459
    0.750790     0.250800     0.311459
    0.250790     0.750800     0.311459
    0.750790     0.750800     0.311459
    0.318190     0.226580     0.442030
    0.067280     0.018260     0.418814
    0.100000     0.500000     0.429088
    0.400000     0.600000     0.429088
    0.262520     0.010290     0.422356
    0.748430     0.744170     0.419214
    0.599080     0.186090     0.425566
    0.040050     0.809520     0.441045
    0.125670     0.125670     0.055888
    0.625670     0.125670     0.055888
    0.375590     0.375590     0.055892
    0.875590     0.375590     0.055892
    0.125670     0.625670     0.055888
    0.625670     0.625670     0.055888
    0.375590     0.875590     0.055892
    0.875590     0.875590     0.055892
    0.375580     0.125690     0.158064
    0.875580     0.125690     0.158064
    0.125680     0.375590     0.158064
    0.625680     0.375590     0.158064
    0.375580     0.625690     0.158064
    0.875580     0.625690     0.158064
    0.125680     0.875590     0.158064
    0.625680     0.875590     0.158064
    0.125670     0.125670     0.260306
    0.625670     0.125670     0.260306
    0.375590     0.375590     0.260313
    0.875590     0.375590     0.260313
    0.125670     0.625670     0.260306
    0.625670     0.625670     0.260306
    0.375590     0.875590     0.260313
    0.875590     0.875590     0.260313
    0.375580     0.125690     0.362482
    0.875580     0.125690     0.362482
    0.125680     0.375590     0.362482
    0.625680     0.375590     0.362482
    0.375580     0.625690     0.362482
    0.875580     0.625690     0.362482
    0.125680     0.875590     0.362482
    0.625680     0.875590     0.362482
