EA1    19.532 18.647 16.793 90.00 90.00 90.00 Sym.group:    0
1.0000
   19.531623     0.000000     0.000000
    0.000000    18.646948     0.000000
    0.000000     0.000000    16.792627
   O  Cu
   8   24 
Direct
    0.673046     0.541692     0.452573
    0.379006     0.636126     0.452573
    0.447948     0.322182     0.452573
    0.647030     0.395720     0.547427
    0.340266     0.418768     0.547427
    0.512704     0.685512     0.547427
    0.673046     0.541692     0.547427
    0.379006     0.636126     0.547427
    0.447948     0.322182     0.547427
    0.647030     0.395720     0.452573
    0.340266     0.418768     0.452573
    0.512704     0.685512     0.452573
    0.429259     0.559180     0.376356
    0.486441     0.406240     0.376356
    0.584301     0.534580     0.376356
    0.413639     0.471539     0.623644
    0.519649     0.592570     0.623644
    0.566712     0.435891     0.623644
    0.429259     0.559180     0.623644
    0.486441     0.406240     0.623644
    0.584301     0.534580     0.623644
    0.413639     0.471539     0.376356
    0.519649     0.592570     0.376356
    0.566712     0.435891     0.376356
    0.375108     0.612125     0.500000
    0.469740     0.330646     0.500000
    0.655151     0.557228     0.500000
    0.344899     0.442625     0.500000
    0.530112     0.669382     0.500000
    0.624989     0.387993     0.500000
    0.500000     0.500000     0.398762
    0.500000     0.500000     0.601238
EA67   17.613 19.292 19.235 90.00 90.00 90.00 Sym.group:    0
1.0000
   17.613076     0.000000     0.000000
    0.000000    19.291881     0.000000
    0.000000     0.000000    19.235371
   O  Cu
   8   24 
Direct
    0.651347     0.570686     0.526911
    0.474643     0.637740     0.489942
    0.613329     0.531152     0.485973
    0.469013     0.583467     0.525220
    0.538749     0.357247     0.573540
    0.368712     0.430617     0.582763
    0.479691     0.365596     0.417225
    0.651736     0.427072     0.414712
    0.517887     0.488489     0.646756
    0.610201     0.479236     0.419559
    0.603127     0.441675     0.590309
    0.430313     0.656688     0.504293
    0.698021     0.556774     0.512863
    0.642735     0.587837     0.485972
    0.493157     0.641867     0.532164
    0.455544     0.623713     0.393368
    0.651018     0.542955     0.620965
    0.621871     0.550789     0.439742
    0.477247     0.599883     0.573626
    0.512465     0.495614     0.501874
    0.357578     0.495712     0.427739
    0.547788     0.363228     0.414889
    0.377751     0.436599     0.424111
    0.398523     0.603438     0.431819
    0.470653     0.359615     0.575876
    0.348539     0.489731     0.586390
    0.595464     0.331454     0.491069
    0.360251     0.380609     0.501197
    0.333786     0.596475     0.512905
    0.422174     0.337480     0.497013
    0.308915     0.531039     0.510427
    0.517772     0.505524     0.388786
EA161  19.491 18.934 17.600 90.00 90.00 90.00 Sym.group:    0
1.0000
   19.491433     0.000000     0.000000
    0.000000    18.933581     0.000000
    0.000000     0.000000    17.600290
   O  Cu
   8   24 
Direct
    0.646976     0.548659     0.530301
    0.499584     0.642835     0.489021
    0.606285     0.514826     0.485242
    0.486490     0.588928     0.527608
    0.510937     0.351626     0.580422
    0.365249     0.447102     0.589065
    0.460849     0.368086     0.409531
    0.624337     0.404071     0.401937
    0.515049     0.486144     0.660600
    0.595094     0.462866     0.412433
    0.582919     0.425849     0.599326
    0.462956     0.668212     0.504437
    0.686195     0.527515     0.515261
    0.641800     0.567225     0.485508
    0.516954     0.644228     0.535252
    0.479797     0.631134     0.383281
    0.642526     0.520162     0.633254
    0.616861     0.533187     0.434810
    0.496527     0.604178     0.580527
    0.510694     0.494079     0.502326
    0.372339     0.517044     0.421087
    0.521211     0.355438     0.406547
    0.381080     0.454628     0.417617
    0.425917     0.619267     0.424995
    0.450659     0.364629     0.583273
    0.363768     0.510736     0.594389
    0.557402     0.315506     0.489560
    0.355485     0.400397     0.502654
    0.367799     0.621058     0.512979
    0.404455     0.348291     0.497196
    0.335034     0.559088     0.510793
    0.516771     0.503003     0.378769
