EA161  19.491 18.934 17.600 90.00 90.00 90.00 Sym.group:    0
1.0000
   19.491433     0.000000     0.000000
    0.000000    18.933581     0.000000
    0.000000     0.000000    17.600290
   O  Cu
   8   24 
Direct
    0.646976     0.548659     0.530301
    0.499584     0.642835     0.489021
    0.606285     0.514826     0.485242
    0.486490     0.588928     0.527608
    0.510937     0.351626     0.580422
    0.365249     0.447102     0.589065
    0.460849     0.368086     0.409531
    0.624337     0.404071     0.401937
    0.515049     0.486144     0.660600
    0.595094     0.462866     0.412433
    0.582919     0.425849     0.599326
    0.462956     0.668212     0.504437
    0.686195     0.527515     0.515261
    0.641800     0.567225     0.485508
    0.516954     0.644228     0.535252
    0.479797     0.631134     0.383281
    0.642526     0.520162     0.633254
    0.616861     0.533187     0.434810
    0.496527     0.604178     0.580527
    0.510694     0.494079     0.502326
    0.372339     0.517044     0.421087
    0.521211     0.355438     0.406547
    0.381080     0.454628     0.417617
    0.425917     0.619267     0.424995
    0.450659     0.364629     0.583273
    0.363768     0.510736     0.594389
    0.557402     0.315506     0.489560
    0.355485     0.400397     0.502654
    0.367799     0.621058     0.512979
    0.404455     0.348291     0.497196
    0.335034     0.559088     0.510793
    0.516771     0.503003     0.378769
EA148  22.549 21.728 14.227 90.00 90.00 90.00 Sym.group:    0
1.0000
   22.549413     0.000000     0.000000
    0.000000    21.728305     0.000000
    0.000000     0.000000    14.226889
   O  Cu
   8   24 
Direct
    0.538856     0.641032     0.500000
    0.461144     0.358968     0.500000
    0.538856     0.358968     0.500000
    0.461144     0.641032     0.500000
    0.719727     0.422900     0.552205
    0.280273     0.577100     0.552205
    0.719727     0.577100     0.447795
    0.280273     0.422900     0.447795
    0.719727     0.422900     0.447795
    0.280273     0.577100     0.447795
    0.719727     0.577100     0.552205
    0.280273     0.422900     0.552205
    0.692430     0.539934     0.444229
    0.307570     0.460066     0.444229
    0.692430     0.460066     0.555771
    0.307570     0.539934     0.555771
    0.692430     0.539934     0.555771
    0.307570     0.460066     0.555771
    0.692430     0.460066     0.444229
    0.307570     0.539934     0.444229
    0.372795     0.391192     0.460905
    0.627205     0.608808     0.460905
    0.372795     0.608808     0.539095
    0.627205     0.391192     0.539095
    0.372795     0.391192     0.539095
    0.627205     0.608808     0.539095
    0.372795     0.608808     0.460905
    0.627205     0.391192     0.460905
    0.500000     0.337519     0.500000
    0.500000     0.662481     0.500000
    0.500000     0.290865     0.500000
    0.500000     0.709135     0.500000
EA157  19.862 18.827 17.445 90.00 90.00 90.00 Sym.group:    0
1.0000
   19.861603     0.000000     0.000000
    0.000000    18.827112     0.000000
    0.000000     0.000000    17.445225
   O  Cu
   8   24 
Direct
    0.516926     0.636538     0.419857
    0.627345     0.367829     0.388351
    0.336308     0.413205     0.450514
    0.359719     0.577496     0.449220
    0.480714     0.372032     0.632906
    0.582066     0.586331     0.618653
    0.454084     0.515930     0.657536
    0.612425     0.440650     0.620452
    0.339284     0.426210     0.507873
    0.378726     0.588927     0.503298
    0.542850     0.632979     0.471964
    0.411822     0.334107     0.439935
    0.331002     0.474536     0.454054
    0.411097     0.611970     0.441884
    0.574510     0.609635     0.409179
    0.658381     0.470145     0.386938
    0.577222     0.333711     0.393312
    0.460703     0.553981     0.400572
    0.546316     0.536227     0.382111
    0.432287     0.409781     0.405772
    0.403915     0.490845     0.411215
    0.559876     0.625693     0.521267
    0.694810     0.490165     0.476943
    0.410771     0.567265     0.625930
    0.645347     0.391986     0.569746
    0.556581     0.508509     0.580975
    0.494063     0.451127     0.593587
    0.347019     0.439935     0.589628
    0.694076     0.520711     0.523582
    0.436220     0.495106     0.596010
    0.612024     0.465022     0.556981
    0.511513     0.661417     0.519754
EA73   17.465 19.577 18.567 90.00 90.00 90.00 Sym.group:    0
1.0000
   17.465194     0.000000     0.000000
    0.000000    19.577195     0.000000
    0.000000     0.000000    18.566877
   O  Cu
   8   24 
Direct
    0.517447     0.368049     0.424494
    0.649701     0.625218     0.395776
    0.317083     0.586212     0.452596
    0.339786     0.427769     0.452801
    0.476604     0.623109     0.623961
    0.592452     0.416831     0.611795
    0.446809     0.483468     0.647426
    0.627378     0.557094     0.615421
    0.318219     0.572771     0.506699
    0.360715     0.416021     0.503539
    0.546903     0.371302     0.473420
    0.406635     0.660275     0.437411
    0.309062     0.527298     0.457159
    0.397480     0.393566     0.445708
    0.583469     0.392811     0.414508
    0.681042     0.525789     0.394759
    0.592625     0.659521     0.406211
    0.455126     0.448460     0.406668
    0.552758     0.463639     0.389896
    0.427326     0.587829     0.407802
    0.392410     0.510555     0.415621
    0.566157     0.378469     0.519733
    0.720874     0.507381     0.478433
    0.396693     0.435110     0.618295
    0.663196     0.603719     0.569080
    0.562920     0.491483     0.576431
    0.492277     0.546778     0.586177
    0.325191     0.558221     0.583637
    0.719162     0.478726     0.521734
    0.426291     0.504708     0.589075
    0.625491     0.533140     0.555510
    0.510716     0.344680     0.518224
EA150  19.069 19.069 17.119 90.00 90.00 90.00 Sym.group:    0
1.0000
   19.068683     0.000000     0.000000
    0.000000    19.068683     0.000000
    0.000000     0.000000    17.119177
   O  Cu
   8   24 
Direct
    0.581034     0.534559     0.648822
    0.534559     0.418966     0.648822
    0.418966     0.465441     0.648822
    0.465441     0.581034     0.648822
    0.389224     0.409452     0.415063
    0.409452     0.610776     0.415063
    0.610776     0.590548     0.415063
    0.590548     0.389224     0.415063
    0.531022     0.627019     0.558265
    0.627019     0.468978     0.558265
    0.468978     0.372981     0.558265
    0.372981     0.531022     0.558265
    0.576359     0.407088     0.459885
    0.407088     0.423641     0.459885
    0.423641     0.592912     0.459885
    0.592912     0.576359     0.459885
    0.368976     0.548696     0.387175
    0.548696     0.631024     0.387175
    0.631024     0.451304     0.387175
    0.451304     0.368976     0.387175
    0.597373     0.650540     0.487158
    0.650540     0.402627     0.487158
    0.402627     0.349460     0.487158
    0.349460     0.597373     0.487158
    0.566535     0.397825     0.546000
    0.397825     0.433465     0.546000
    0.433465     0.602175     0.546000
    0.602175     0.566535     0.546000
    0.643541     0.516570     0.497630
    0.516570     0.356459     0.497630
    0.356459     0.483430     0.497630
    0.483430     0.643541     0.497630
EA137  18.886 18.755 18.270 90.00 90.00 90.00 Sym.group:    0
1.0000
   18.886045     0.000000     0.000000
    0.000000    18.754535     0.000000
    0.000000     0.000000    18.269561
   O  Cu
   8   24 
Direct
    0.552742     0.663417     0.578994
    0.471198     0.327892     0.520241
    0.679516     0.456192     0.531957
    0.502541     0.415841     0.652273
    0.388992     0.425387     0.479470
    0.523942     0.651995     0.404077
    0.605354     0.516413     0.372861
    0.412705     0.550769     0.384104
    0.609471     0.660540     0.510420
    0.673948     0.478473     0.407356
    0.531507     0.535023     0.673143
    0.527928     0.325015     0.451667
    0.457510     0.489449     0.668981
    0.662249     0.407742     0.459222
    0.576538     0.461415     0.656435
    0.691215     0.526923     0.480091
    0.449548     0.594978     0.598848
    0.609712     0.586855     0.405246
    0.617573     0.555402     0.581138
    0.576684     0.387160     0.551677
    0.404465     0.394331     0.425612
    0.359685     0.446297     0.532349
    0.409027     0.384840     0.520045
    0.346501     0.534263     0.547209
    0.355121     0.455789     0.437916
    0.489955     0.359395     0.415868
    0.351002     0.527389     0.422015
    0.499329     0.569063     0.433040
    0.524302     0.483024     0.422930
    0.375193     0.662860     0.476671
    0.342676     0.599444     0.553264
    0.421870     0.566421     0.444880
EA122  19.245 19.321 18.919 90.00 90.00 90.00 Sym.group:    0
1.0000
   19.245040     0.000000     0.000000
    0.000000    19.320926     0.000000
    0.000000     0.000000    18.919468
   O  Cu
   8   24 
Direct
    0.384313     0.602517     0.505886
    0.565776     0.623744     0.497126
    0.412372     0.545179     0.476514
    0.358665     0.432112     0.407554
    0.688563     0.494711     0.508597
    0.618967     0.422373     0.476274
    0.528528     0.380028     0.634382
    0.602282     0.483230     0.641093
    0.410128     0.476818     0.415080
    0.377582     0.477695     0.596556
    0.341354     0.595134     0.483270
    0.403632     0.608301     0.463577
    0.543967     0.641716     0.536137
    0.361127     0.596688     0.605934
    0.418218     0.555847     0.424858
    0.367003     0.342146     0.509269
    0.504232     0.476418     0.399789
    0.503866     0.360242     0.501911
    0.637861     0.603968     0.457233
    0.457361     0.319398     0.439776
    0.644947     0.410625     0.384340
    0.640993     0.423146     0.543577
    0.492040     0.370784     0.374677
    0.660893     0.447481     0.460196
    0.596464     0.607960     0.583759
    0.413719     0.352249     0.567133
    0.412836     0.456958     0.648187
    0.470179     0.432323     0.566798
    0.400026     0.645788     0.432207
    0.514837     0.673567     0.499457
    0.593843     0.582954     0.403547
    0.673426     0.557900     0.555306
EA76   18.779 18.878 18.547 90.00 90.00 90.00 Sym.group:    0
1.0000
   18.779114     0.000000     0.000000
    0.000000    18.877697     0.000000
    0.000000     0.000000    18.546841
   O  Cu
   8   24 
Direct
    0.351544     0.494964     0.492628
    0.446628     0.382374     0.490356
    0.597796     0.406698     0.491801
    0.403571     0.600755     0.385603
    0.511071     0.641461     0.598819
    0.562670     0.601754     0.376531
    0.399002     0.526889     0.600533
    0.593925     0.516214     0.604757
    0.404933     0.384323     0.536477
    0.570737     0.372346     0.537101
    0.635852     0.428029     0.446239
    0.481836     0.364592     0.443805
    0.349932     0.459325     0.445428
    0.338144     0.534739     0.447238
    0.407404     0.391272     0.444055
    0.573209     0.379295     0.444678
    0.669751     0.510784     0.448486
    0.633381     0.421080     0.538662
    0.479365     0.357643     0.536227
    0.347461     0.452376     0.537850
    0.504681     0.524824     0.420427
    0.395221     0.636433     0.480666
    0.341522     0.559482     0.564588
    0.651914     0.485569     0.567019
    0.519004     0.561555     0.557208
    0.474599     0.484135     0.550219
    0.664160     0.628432     0.538000
    0.688654     0.572713     0.454629
    0.579966     0.582694     0.433394
    0.399343     0.503356     0.540911
    0.594382     0.542799     0.548920
    0.428341     0.691092     0.496745
EA1    19.532 18.647 16.793 90.00 90.00 90.00 Sym.group:    0
1.0000
   19.531623     0.000000     0.000000
    0.000000    18.646948     0.000000
    0.000000     0.000000    16.792627
   O  Cu
   8   24 
Direct
    0.673046     0.541692     0.452573
    0.379006     0.636126     0.452573
    0.447948     0.322182     0.452573
    0.647030     0.395720     0.547427
    0.340266     0.418768     0.547427
    0.512704     0.685512     0.547427
    0.673046     0.541692     0.547427
    0.379006     0.636126     0.547427
    0.447948     0.322182     0.547427
    0.647030     0.395720     0.452573
    0.340266     0.418768     0.452573
    0.512704     0.685512     0.452573
    0.429259     0.559180     0.376356
    0.486441     0.406240     0.376356
    0.584301     0.534580     0.376356
    0.413639     0.471539     0.623644
    0.519649     0.592570     0.623644
    0.566712     0.435891     0.623644
    0.429259     0.559180     0.623644
    0.486441     0.406240     0.623644
    0.584301     0.534580     0.623644
    0.413639     0.471539     0.376356
    0.519649     0.592570     0.376356
    0.566712     0.435891     0.376356
    0.375108     0.612125     0.500000
    0.469740     0.330646     0.500000
    0.655151     0.557228     0.500000
    0.344899     0.442625     0.500000
    0.530112     0.669382     0.500000
    0.624989     0.387993     0.500000
    0.500000     0.500000     0.398762
    0.500000     0.500000     0.601238
EA22   18.424 18.428 15.206 90.00 90.00 90.00 Sym.group:    0
1.0000
   18.423532     0.000000     0.000000
    0.000000    18.427531     0.000000
    0.000000     0.000000    15.205620
   O  Cu
   8   24 
Direct
    0.459584     0.361677     0.500000
    0.359975     0.465833     0.500000
    0.400390     0.604156     0.500000
    0.540416     0.638323     0.500000
    0.640025     0.534167     0.500000
    0.599610     0.395844     0.500000
    0.493462     0.343102     0.447064
    0.360824     0.427211     0.447064
    0.367361     0.584109     0.447064
    0.506538     0.656898     0.447064
    0.639176     0.572789     0.447064
    0.632639     0.415891     0.447064
    0.657068     0.499498     0.552936
    0.578969     0.635744     0.552936
    0.421901     0.636247     0.552936
    0.342932     0.500502     0.552936
    0.421031     0.364256     0.552936
    0.578099     0.363753     0.552936
    0.493462     0.343102     0.552936
    0.360824     0.427211     0.552936
    0.367361     0.584109     0.552936
    0.506538     0.656898     0.552936
    0.639176     0.572789     0.552936
    0.632639     0.415891     0.552936
    0.657068     0.499498     0.447064
    0.578969     0.635744     0.447064
    0.421901     0.636247     0.447064
    0.342932     0.500502     0.447064
    0.421031     0.364256     0.447064
    0.578099     0.363753     0.447064
    0.500000     0.500000     0.584364
    0.500000     0.500000     0.415636
EA129  17.912 20.214 19.126 90.00 90.00 90.00 Sym.group:    0
1.0000
   17.911934     0.000000     0.000000
    0.000000    20.214436     0.000000
    0.000000     0.000000    19.125896
   O  Cu
   8   24 
Direct
    0.422795     0.628118     0.466458
    0.611906     0.601087     0.487351
    0.599534     0.385888     0.422821
    0.717811     0.522381     0.428606
    0.332433     0.470514     0.574636
    0.513780     0.410326     0.608960
    0.408607     0.624606     0.586591
    0.362499     0.380315     0.461520
    0.669350     0.666555     0.520107
    0.431637     0.644168     0.511735
    0.426233     0.598574     0.365541
    0.613678     0.618559     0.437563
    0.540436     0.522711     0.498964
    0.410414     0.442068     0.407512
    0.662512     0.416391     0.426833
    0.464427     0.399648     0.412466
    0.382213     0.556562     0.402887
    0.714795     0.417834     0.514404
    0.553584     0.524523     0.380220
    0.383806     0.466583     0.443680
    0.506198     0.409744     0.465207
    0.641300     0.578920     0.598550
    0.573191     0.435601     0.621694
    0.398080     0.442095     0.586773
    0.358285     0.583607     0.581721
    0.309315     0.493248     0.513010
    0.478989     0.363966     0.532746
    0.671861     0.487359     0.565135
    0.623645     0.434886     0.569227
    0.405551     0.370368     0.509599
    0.313910     0.560314     0.507975
    0.497223     0.542482     0.589509
EA115  19.414 19.294 18.096 90.00 90.00 90.00 Sym.group:    0
1.0000
   19.414189     0.000000     0.000000
    0.000000    19.294416     0.000000
    0.000000     0.000000    18.095525
   O  Cu
   8   24 
Direct
    0.400133     0.576246     0.431808
    0.368930     0.406019     0.574102
    0.393655     0.552602     0.631411
    0.385326     0.387291     0.411399
    0.680191     0.416604     0.482337
    0.668778     0.577743     0.440826
    0.518620     0.423194     0.657875
    0.431514     0.431676     0.383944
    0.458517     0.493382     0.662957
    0.618965     0.605322     0.571264
    0.576532     0.709233     0.455389
    0.399485     0.626174     0.493252
    0.361443     0.442929     0.420503
    0.338737     0.536861     0.573813
    0.472765     0.589049     0.552370
    0.399264     0.491661     0.505435
    0.355131     0.590119     0.534500
    0.359701     0.390198     0.462282
    0.529393     0.532127     0.412462
    0.674722     0.440837     0.534677
    0.597200     0.344686     0.479484
    0.690271     0.476354     0.472631
    0.433540     0.351145     0.434682
    0.585601     0.413191     0.429166
    0.620511     0.490372     0.419956
    0.661886     0.471041     0.609909
    0.573769     0.532457     0.595190
    0.484340     0.651854     0.433945
    0.481917     0.542791     0.370801
    0.319215     0.564038     0.499558
    0.645796     0.600869     0.488802
    0.514152     0.341936     0.573270
EA120  19.581 19.185 18.849 90.00 90.00 90.00 Sym.group:    0
1.0000
   19.581138     0.000000     0.000000
    0.000000    19.185257     0.000000
    0.000000     0.000000    18.849080
   O  Cu
   8   24 
Direct
    0.325023     0.441578     0.377778
    0.633045     0.496946     0.385125
    0.626322     0.405512     0.438208
    0.589854     0.629927     0.537079
    0.284634     0.584560     0.505384
    0.422581     0.445394     0.643543
    0.403828     0.356709     0.524890
    0.566000     0.408867     0.589879
    0.619276     0.409677     0.544767
    0.626881     0.596586     0.545249
    0.633675     0.592558     0.438697
    0.513476     0.579454     0.434555
    0.513020     0.493922     0.386653
    0.506765     0.411798     0.434441
    0.650127     0.499541     0.434192
    0.646383     0.448824     0.463609
    0.642570     0.451070     0.522712
    0.642721     0.504046     0.552407
    0.646657     0.554766     0.523004
    0.650373     0.552507     0.463891
    0.284632     0.531338     0.521991
    0.362485     0.628835     0.572632
    0.281099     0.551400     0.452828
    0.534668     0.642297     0.569838
    0.387506     0.616111     0.491573
    0.360373     0.572737     0.421707
    0.362094     0.360667     0.460764
    0.597442     0.469669     0.610940
    0.443548     0.438054     0.554136
    0.289243     0.457592     0.550239
    0.385635     0.418858     0.511690
    0.568065     0.448196     0.535600
EA97   20.180 19.934 16.511 90.00 90.00 90.00 Sym.group:    0
1.0000
   20.179550     0.000000     0.000000
    0.000000    19.933638     0.000000
    0.000000     0.000000    16.511390
   O  Cu
   8   24 
Direct
    0.377445     0.410943     0.584392
    0.544491     0.360173     0.585083
    0.649961     0.499523     0.584514
    0.546523     0.642233     0.584638
    0.381604     0.587342     0.584892
    0.631934     0.560646     0.415223
    0.600466     0.389149     0.415582
    0.428220     0.371643     0.415278
    0.356169     0.529771     0.415552
    0.483169     0.647678     0.415153
    0.380917     0.413547     0.415832
    0.544981     0.359157     0.414939
    0.646476     0.498729     0.415630
    0.545696     0.641204     0.415505
    0.381634     0.587944     0.415231
    0.632191     0.560743     0.585979
    0.598784     0.392218     0.585245
    0.427812     0.372490     0.585687
    0.357634     0.528503     0.585774
    0.483722     0.646026     0.585289
    0.325709     0.425202     0.501437
    0.516617     0.310799     0.499714
    0.684429     0.457005     0.500867
    0.597064     0.663512     0.500619
    0.376263     0.643672     0.499764
    0.649685     0.614740     0.500644
    0.655217     0.391114     0.499618
    0.445657     0.318249     0.500011
    0.311579     0.495997     0.500445
    0.438044     0.679784     0.499534
    0.499874     0.500286     0.378731
    0.500034     0.499976     0.613199
EA131  18.283 19.048 18.514 90.00 90.00 90.00 Sym.group:    0
1.0000
   18.282547     0.000000     0.000000
    0.000000    19.048436     0.000000
    0.000000     0.000000    18.514349
   O  Cu
   8   24 
Direct
    0.569128     0.376756     0.431058
    0.601029     0.513447     0.367324
    0.678493     0.528054     0.546869
    0.595646     0.414412     0.618133
    0.396048     0.393588     0.475023
    0.356975     0.536964     0.493978
    0.466531     0.639388     0.507752
    0.336390     0.506825     0.443585
    0.564515     0.497563     0.639082
    0.353716     0.336499     0.464083
    0.551273     0.338276     0.495450
    0.661212     0.477191     0.405524
    0.648957     0.399320     0.563156
    0.682263     0.572905     0.484559
    0.504415     0.408145     0.544994
    0.610433     0.458457     0.490941
    0.609035     0.355319     0.531672
    0.687828     0.527210     0.438975
    0.423915     0.643029     0.461803
    0.591793     0.636855     0.461268
    0.504629     0.652327     0.555893
    0.360369     0.571838     0.544971
    0.362682     0.410881     0.523621
    0.339065     0.497543     0.535078
    0.426589     0.633747     0.553296
    0.594468     0.627573     0.552762
    0.501954     0.661609     0.464400
    0.357695     0.581121     0.453478
    0.360008     0.420164     0.432128
    0.503474     0.503407     0.415891
    0.419418     0.355166     0.516326
    0.380053     0.524421     0.586923
EA72   19.382 19.741 18.359 90.00 90.00 90.00 Sym.group:    0
1.0000
   19.381815     0.000000     0.000000
    0.000000    19.740578     0.000000
    0.000000     0.000000    18.358937
   O  Cu
   8   24 
Direct
    0.564298     0.383293     0.585595
    0.395244     0.409206     0.576124
    0.374714     0.580268     0.578820
    0.503107     0.361103     0.414028
    0.658589     0.594737     0.536873
    0.363251     0.618619     0.486827
    0.625127     0.540147     0.464281
    0.588888     0.631640     0.425333
    0.363562     0.456442     0.407904
    0.564481     0.377498     0.418057
    0.395427     0.403411     0.408586
    0.502924     0.366898     0.581565
    0.363379     0.462238     0.575442
    0.617751     0.366236     0.504679
    0.396158     0.350212     0.491119
    0.321954     0.556860     0.491435
    0.461566     0.324513     0.494424
    0.665061     0.422049     0.508774
    0.315068     0.485164     0.489383
    0.502678     0.515487     0.621075
    0.441424     0.601193     0.550798
    0.682080     0.472949     0.464248
    0.606084     0.542174     0.634506
    0.519626     0.452314     0.350708
    0.498210     0.684207     0.465692
    0.537024     0.651717     0.397514
    0.621865     0.606386     0.460893
    0.443274     0.649835     0.504508
    0.405407     0.541496     0.402348
    0.661355     0.540174     0.495063
    0.398243     0.576356     0.621064
    0.642183     0.475176     0.592337
EA6    19.226 19.226 19.226 90.00 90.00 90.00 Sym.group:    0
1.0000
   19.225903     0.000000     0.000000
    0.000000    19.225903     0.000000
    0.000000     0.000000    19.225903
   O  Cu
   8   24 
Direct
    0.500000     0.671277     0.439161
    0.671277     0.500000     0.439161
    0.500000     0.328723     0.439161
    0.328723     0.500000     0.439161
    0.500000     0.439161     0.328723
    0.500000     0.328723     0.560839
    0.500000     0.560839     0.671277
    0.560839     0.671277     0.500000
    0.500000     0.671277     0.560839
    0.439161     0.671277     0.500000
    0.671277     0.500000     0.560839
    0.328723     0.500000     0.560839
    0.500000     0.439161     0.671277
    0.500000     0.560839     0.328723
    0.439161     0.328723     0.500000
    0.560839     0.328723     0.500000
    0.439161     0.500000     0.671277
    0.671277     0.439161     0.500000
    0.560839     0.500000     0.328723
    0.671277     0.560839     0.500000
    0.560839     0.500000     0.671277
    0.328723     0.439161     0.500000
    0.439161     0.500000     0.328723
    0.328723     0.560839     0.500000
    0.585883     0.585883     0.585883
    0.585883     0.585883     0.414117
    0.585883     0.414117     0.585883
    0.585883     0.414117     0.414117
    0.414117     0.585883     0.585883
    0.414117     0.585883     0.414117
    0.414117     0.414117     0.585883
    0.414117     0.414117     0.414117
EA119  19.047 18.792 18.922 90.00 90.00 90.00 Sym.group:    0
1.0000
   19.047190     0.000000     0.000000
    0.000000    18.791925     0.000000
    0.000000     0.000000    18.921634
   O  Cu
   8   24 
Direct
    0.424926     0.394531     0.470648
    0.531807     0.443452     0.606277
    0.596065     0.631182     0.450794
    0.431907     0.489614     0.367304
    0.637935     0.409272     0.528402
    0.510055     0.348278     0.413866
    0.333513     0.510914     0.524300
    0.442364     0.579629     0.624755
    0.385542     0.578388     0.511267
    0.399361     0.455640     0.572227
    0.552318     0.333528     0.520991
    0.367179     0.373624     0.458544
    0.324005     0.570974     0.513422
    0.386167     0.403589     0.603809
    0.582410     0.425102     0.637631
    0.510186     0.390427     0.498900
    0.405753     0.437799     0.455819
    0.384458     0.530498     0.524918
    0.564465     0.473859     0.584685
    0.597183     0.479301     0.360804
    0.625075     0.553812     0.608825
    0.420641     0.641937     0.471238
    0.486591     0.670951     0.528978
    0.548249     0.558941     0.344146
    0.673054     0.542896     0.528162
    0.583975     0.614372     0.562204
    0.632215     0.527885     0.420638
    0.544737     0.540915     0.399975
    0.615635     0.538359     0.521884
    0.496042     0.616101     0.510778
    0.393411     0.534232     0.415638
    0.612774     0.400000     0.458171
EA124  20.168 19.455 17.755 90.00 90.00 90.00 Sym.group:    0
1.0000
   20.168280     0.000000     0.000000
    0.000000    19.455073     0.000000
    0.000000     0.000000    17.755415
   O  Cu
   8   24 
Direct
    0.409993     0.431931     0.474682
    0.413701     0.539271     0.511997
    0.528398     0.388027     0.396785
    0.509193     0.395258     0.610755
    0.700604     0.430700     0.470488
    0.463222     0.641740     0.415244
    0.667077     0.593720     0.516204
    0.697891     0.456972     0.558501
    0.301580     0.511202     0.545144
    0.296748     0.451862     0.436442
    0.430646     0.457703     0.420211
    0.607523     0.424666     0.531671
    0.436648     0.515073     0.567454
    0.371943     0.490524     0.569367
    0.366776     0.477609     0.415391
    0.325346     0.398029     0.514920
    0.327844     0.567016     0.467905
    0.600632     0.415208     0.422026
    0.437935     0.415036     0.581340
    0.467540     0.380532     0.408469
    0.570786     0.409201     0.617521
    0.460508     0.668012     0.503257
    0.669790     0.567447     0.428190
    0.507298     0.541201     0.367823
    0.427267     0.550974     0.619995
    0.583514     0.579739     0.602497
    0.500225     0.609694     0.597277
    0.590588     0.511246     0.373044
    0.484488     0.646358     0.460791
    0.681300     0.429882     0.519925
    0.645575     0.588422     0.470887
    0.517421     0.515745     0.603797
EA70   18.893 18.258 19.922 90.00 90.00 90.00 Sym.group:    0
1.0000
   18.893374     0.000000     0.000000
    0.000000    18.258141     0.000000
    0.000000     0.000000    19.922068
   O  Cu
   8   24 
Direct
    0.369303     0.622665     0.531863
    0.364089     0.409204     0.555757
    0.629709     0.425597     0.584189
    0.311924     0.426033     0.536908
    0.691262     0.542742     0.487441
    0.532356     0.404511     0.369883
    0.525943     0.563515     0.346182
    0.525825     0.328572     0.462128
    0.316303     0.596392     0.516410
    0.474324     0.385953     0.524077
    0.466359     0.603732     0.586882
    0.532081     0.389517     0.530260
    0.524117     0.607297     0.593065
    0.386177     0.453663     0.612849
    0.591829     0.466354     0.634863
    0.378955     0.381459     0.445280
    0.355523     0.531855     0.606341
    0.624613     0.548461     0.635145
    0.342873     0.504899     0.484149
    0.684732     0.466803     0.579686
    0.512347     0.662760     0.412314
    0.465847     0.367064     0.407314
    0.592333     0.366019     0.424697
    0.694795     0.455149     0.500497
    0.582388     0.612615     0.387939
    0.681199     0.554396     0.566630
    0.455902     0.613660     0.370557
    0.594242     0.629155     0.502933
    0.613435     0.489055     0.409578
    0.415689     0.630630     0.478395
    0.434882     0.490530     0.385039
    0.328643     0.469743     0.530749
EA40   17.284 17.490 18.678 90.00 90.00 90.00 Sym.group:    0
1.0000
   17.284114     0.000000     0.000000
    0.000000    17.489591     0.000000
    0.000000     0.000000    18.677943
   O  Cu
   8   24 
Direct
    0.622359     0.405544     0.517441
    0.377641     0.405544     0.482559
    0.622359     0.587355     0.482559
    0.377641     0.587355     0.517441
    0.500000     0.610079     0.500000
    0.569513     0.420858     0.475463
    0.430487     0.420858     0.524537
    0.569513     0.572040     0.524537
    0.430487     0.572040     0.475463
    0.500000     0.496449     0.338367
    0.500000     0.496449     0.661633
    0.516381     0.398881     0.403776
    0.483619     0.398881     0.596224
    0.516381     0.594017     0.596224
    0.483619     0.594017     0.403776
    0.625196     0.635091     0.500070
    0.374804     0.635091     0.499930
    0.625196     0.357807     0.499930
    0.374804     0.357807     0.500070
    0.365654     0.417995     0.528511
    0.634346     0.417995     0.471489
    0.365654     0.574903     0.471489
    0.634346     0.574903     0.528511
    0.401166     0.593387     0.623564
    0.598834     0.593387     0.376436
    0.401166     0.399511     0.376436
    0.598834     0.399511     0.623564
    0.589823     0.418862     0.422604
    0.410177     0.418862     0.577396
    0.589823     0.574036     0.577396
    0.410177     0.574036     0.422604
    0.500000     0.496449     0.500000
EA158  22.531 19.226 15.896 90.00 90.00 90.00 Sym.group:    0
1.0000
   22.530704     0.000000     0.000000
    0.000000    19.226198     0.000000
    0.000000     0.000000    15.896177
   O  Cu
   8   24 
Direct
    0.654716     0.521107     0.572629
    0.555344     0.372342     0.583555
    0.398625     0.395673     0.581957
    0.358843     0.591075     0.567970
    0.524214     0.626733     0.594794
    0.248745     0.417165     0.443639
    0.506909     0.416132     0.409252
    0.687734     0.431924     0.421930
    0.582197     0.612076     0.414121
    0.430309     0.590300     0.406201
    0.632175     0.504453     0.404174
    0.569948     0.384971     0.410779
    0.406737     0.447409     0.405958
    0.401658     0.531585     0.390717
    0.529090     0.635680     0.415422
    0.378548     0.461838     0.573792
    0.498280     0.357790     0.595871
    0.620999     0.459471     0.577742
    0.580841     0.614463     0.590259
    0.420095     0.615868     0.582796
    0.666231     0.561263     0.501164
    0.606404     0.348763     0.493893
    0.405882     0.362598     0.516791
    0.329039     0.555821     0.493021
    0.496026     0.679240     0.503318
    0.303844     0.484009     0.458647
    0.466019     0.336702     0.523894
    0.657914     0.394627     0.474187
    0.630791     0.623255     0.501594
    0.434022     0.660656     0.506386
    0.517222     0.502532     0.504555
    0.500598     0.502476     0.578993
EA93   22.462 19.314 15.909 90.00 90.00 90.00 Sym.group:    0
1.0000
   22.461714     0.000000     0.000000
    0.000000    19.313661     0.000000
    0.000000     0.000000    15.909240
   O  Cu
   8   24 
Direct
    0.343166     0.519994     0.573794
    0.447184     0.366521     0.585700
    0.604473     0.398480     0.583404
    0.640794     0.591770     0.566732
    0.474898     0.626305     0.595078
    0.751906     0.417456     0.443519
    0.492886     0.417025     0.408162
    0.311302     0.431911     0.420159
    0.417960     0.612265     0.415192
    0.570103     0.589615     0.405915
    0.367664     0.505105     0.404560
    0.429755     0.386297     0.408820
    0.593293     0.447441     0.406580
    0.598720     0.531190     0.390735
    0.471020     0.635111     0.415806
    0.621280     0.463035     0.574067
    0.503516     0.358837     0.596292
    0.377535     0.458168     0.577033
    0.418028     0.613515     0.591314
    0.579423     0.616029     0.582041
    0.332667     0.560434     0.503080
    0.393089     0.348901     0.491045
    0.595574     0.364275     0.518810
    0.671114     0.555963     0.492021
    0.503826     0.678577     0.503285
    0.696481     0.484189     0.458441
    0.535306     0.338479     0.524616
    0.341374     0.395029     0.472848
    0.368565     0.622417     0.503469
    0.565979     0.660186     0.505510
    0.482447     0.502684     0.503897
    0.498671     0.502793     0.578077
EA101  18.921 19.021 15.510 90.00 90.00 90.00 Sym.group:    0
1.0000
   18.920777     0.000000     0.000000
    0.000000    19.021069     0.000000
    0.000000     0.000000    15.509577
   O  Cu
   8   24 
Direct
    0.606151     0.445967     0.569183
    0.581548     0.581481     0.577691
    0.445312     0.605722     0.569372
    0.384552     0.481826     0.574909
    0.482231     0.384482     0.574206
    0.436451     0.596291     0.422791
    0.574712     0.593339     0.431589
    0.608855     0.459835     0.424094
    0.494457     0.382961     0.427138
    0.386066     0.468383     0.428472
    0.591180     0.641711     0.593099
    0.388744     0.632160     0.576371
    0.341158     0.438343     0.588210
    0.511304     0.330099     0.585252
    0.667330     0.456978     0.578375
    0.635403     0.607981     0.424309
    0.642732     0.408984     0.408815
    0.455017     0.335293     0.417262
    0.328060     0.490572     0.419309
    0.439070     0.657313     0.408031
    0.535620     0.597850     0.564552
    0.417881     0.564693     0.562455
    0.412962     0.441980     0.564596
    0.528754     0.399757     0.563078
    0.604654     0.495335     0.563374
    0.593282     0.547541     0.437635
    0.573520     0.426076     0.435437
    0.451962     0.407420     0.437382
    0.396463     0.516408     0.436460
    0.484701     0.603188     0.436174
    0.499891     0.500113     0.416728
    0.499976     0.499920     0.583650
EA163  22.496 19.172 15.866 90.00 90.00 90.00 Sym.group:    0
1.0000
   22.496160     0.000000     0.000000
    0.000000    19.171595     0.000000
    0.000000     0.000000    15.865683
   O  Cu
   8   24 
Direct
    0.656575     0.521233     0.576849
    0.554835     0.370501     0.580699
    0.396175     0.399341     0.588926
    0.359531     0.593958     0.565120
    0.525688     0.627901     0.593435
    0.249079     0.415752     0.443984
    0.508261     0.416556     0.407545
    0.687206     0.430239     0.419236
    0.579012     0.614334     0.415378
    0.428150     0.584924     0.404335
    0.628361     0.507097     0.405734
    0.569885     0.389482     0.405905
    0.408904     0.442876     0.409427
    0.401599     0.527071     0.391059
    0.527408     0.633016     0.413696
    0.379169     0.464214     0.577126
    0.497518     0.357368     0.595675
    0.621267     0.458052     0.577244
    0.582464     0.614763     0.592084
    0.420432     0.617578     0.579402
    0.665662     0.562404     0.506639
    0.608179     0.349551     0.488344
    0.408236     0.362098     0.525416
    0.329007     0.556088     0.491293
    0.495696     0.678782     0.499170
    0.304874     0.483146     0.461520
    0.467378     0.338243     0.524626
    0.658404     0.394380     0.472040
    0.630207     0.624547     0.505982
    0.433486     0.659485     0.500632
    0.516399     0.502437     0.503712
    0.500953     0.502580     0.577767
EA126  19.522 19.420 18.189 90.00 90.00 90.00 Sym.group:    0
1.0000
   19.521550     0.000000     0.000000
    0.000000    19.419998     0.000000
    0.000000     0.000000    18.188591
   O  Cu
   8   24 
Direct
    0.387226     0.544709     0.382527
    0.415189     0.617637     0.566967
    0.436239     0.377647     0.434299
    0.611202     0.361951     0.449980
    0.590761     0.653281     0.396046
    0.578777     0.453178     0.643477
    0.534400     0.597192     0.623238
    0.559880     0.468999     0.346144
    0.433435     0.376966     0.484209
    0.385635     0.425520     0.559945
    0.441284     0.380326     0.563926
    0.377786     0.422160     0.480227
    0.410333     0.554599     0.617222
    0.399930     0.611106     0.411989
    0.282693     0.536023     0.508127
    0.569687     0.302942     0.528659
    0.464326     0.525229     0.500144
    0.414727     0.642038     0.486425
    0.343222     0.505964     0.539898
    0.376896     0.416598     0.414760
    0.614451     0.381409     0.505384
    0.649998     0.412808     0.451807
    0.662071     0.575873     0.426830
    0.529492     0.660467     0.383101
    0.601640     0.462424     0.402614
    0.609327     0.399793     0.554572
    0.671712     0.582579     0.524439
    0.552973     0.652184     0.575958
    0.533002     0.506025     0.583070
    0.669950     0.558756     0.573535
    0.564745     0.570043     0.569188
    0.327011     0.463574     0.511292
EA123  18.854 18.935 18.916 90.00 90.00 90.00 Sym.group:    0
1.0000
   18.853838     0.000000     0.000000
    0.000000    18.935461     0.000000
    0.000000     0.000000    18.916076
   O  Cu
   8   24 
Direct
    0.662549     0.566319     0.545186
    0.373997     0.581700     0.417197
    0.344913     0.433541     0.519433
    0.467298     0.618328     0.609206
    0.569985     0.346140     0.530492
    0.453642     0.448503     0.652108
    0.466223     0.345797     0.406599
    0.364201     0.609397     0.461589
    0.533705     0.357570     0.424751
    0.485441     0.640322     0.402310
    0.639656     0.557013     0.397983
    0.593525     0.388800     0.417255
    0.668318     0.504502     0.551744
    0.570863     0.641356     0.546408
    0.448406     0.676280     0.477286
    0.671213     0.614044     0.465783
    0.662786     0.394107     0.486645
    0.696614     0.459059     0.477868
    0.616924     0.660935     0.464785
    0.490133     0.494118     0.383331
    0.603155     0.510311     0.629319
    0.348885     0.524952     0.412644
    0.380976     0.511341     0.631032
    0.442675     0.321297     0.493620
    0.399881     0.408587     0.420793
    0.352799     0.554066     0.527227
    0.424970     0.397051     0.588497
    0.417021     0.495380     0.585297
    0.451971     0.382362     0.489199
    0.391883     0.516368     0.449336
    0.447654     0.646351     0.542483
    0.557739     0.394100     0.592593
EA117  19.715 17.709 20.673 90.00 90.00 90.00 Sym.group:    0
1.0000
   19.715357     0.000000     0.000000
    0.000000    17.708525     0.000000
    0.000000     0.000000    20.672589
   O  Cu
   8   24 
Direct
    0.382262     0.600183     0.545202
    0.324209     0.451671     0.473403
    0.484463     0.581966     0.378253
    0.493189     0.399259     0.380508
    0.563295     0.663794     0.440391
    0.634283     0.377036     0.488401
    0.680721     0.537087     0.461220
    0.376490     0.360276     0.579761
    0.489739     0.396653     0.589581
    0.419441     0.563475     0.596967
    0.387529     0.472041     0.603941
    0.327754     0.554016     0.540085
    0.506348     0.300305     0.449676
    0.422733     0.636334     0.410808
    0.319402     0.552321     0.472160
    0.436265     0.352978     0.414307
    0.332561     0.453366     0.541327
    0.563272     0.346587     0.415878
    0.421901     0.356276     0.509601
    0.403324     0.495964     0.411962
    0.689433     0.470780     0.553966
    0.455019     0.693151     0.513880
    0.553204     0.453787     0.477218
    0.571500     0.508294     0.468481
    0.536330     0.549900     0.460817
    0.641243     0.573787     0.542573
    0.526884     0.659943     0.524941
    0.621596     0.421169     0.565712
    0.679043     0.370034     0.558357
    0.713905     0.596424     0.524803
    0.543872     0.733703     0.497053
    0.498790     0.517437     0.608769
EA138  19.870 19.004 19.843 90.00 90.00 90.00 Sym.group:    0
1.0000
   19.870415     0.000000     0.000000
    0.000000    19.004469     0.000000
    0.000000     0.000000    19.843193
   O  Cu
   8   24 
Direct
    0.356879     0.398584     0.444452
    0.668688     0.439717     0.466475
    0.523188     0.322782     0.446534
    0.309090     0.545431     0.433635
    0.702194     0.495890     0.500823
    0.571284     0.609374     0.425246
    0.622171     0.465760     0.633503
    0.418330     0.490612     0.630747
    0.452271     0.369872     0.525753
    0.504111     0.434826     0.497625
    0.646608     0.325373     0.485294
    0.416378     0.282765     0.467823
    0.503161     0.515121     0.457965
    0.428118     0.416082     0.592558
    0.316997     0.518973     0.474616
    0.602697     0.506045     0.404156
    0.405021     0.518717     0.382122
    0.652214     0.622132     0.468449
    0.653773     0.414652     0.524799
    0.520247     0.645432     0.384127
    0.572566     0.652235     0.456413
    0.413149     0.675705     0.454531
    0.617538     0.608626     0.596934
    0.346787     0.525028     0.567344
    0.424874     0.633650     0.590083
    0.431145     0.440297     0.639574
    0.533179     0.693357     0.524704
    0.477673     0.606615     0.506093
    0.404162     0.504362     0.484685
    0.459947     0.321999     0.406392
    0.593906     0.408485     0.537727
    0.451654     0.591501     0.588819
EA132  19.281 18.974 19.082 90.00 90.00 90.00 Sym.group:    0
1.0000
   19.280810     0.000000     0.000000
    0.000000    18.974058     0.000000
    0.000000     0.000000    19.081642
   O  Cu
   8   24 
Direct
    0.665938     0.444782     0.554501
    0.635957     0.582422     0.424324
    0.545603     0.649071     0.443758
    0.319962     0.462493     0.457034
    0.377684     0.617603     0.470217
    0.452441     0.372187     0.610890
    0.602210     0.560063     0.613948
    0.598897     0.412141     0.604340
    0.660654     0.459709     0.405746
    0.525718     0.340646     0.390685
    0.366325     0.436020     0.407662
    0.462074     0.338062     0.543421
    0.709870     0.485769     0.484876
    0.575353     0.298407     0.459602
    0.349875     0.374236     0.474467
    0.640393     0.334599     0.463698
    0.693398     0.560042     0.495059
    0.507441     0.497969     0.381401
    0.325117     0.468222     0.509130
    0.399539     0.618475     0.518449
    0.571222     0.633556     0.488757
    0.327225     0.522554     0.466620
    0.435806     0.642416     0.464875
    0.471943     0.582137     0.421779
    0.402803     0.529940     0.426615
    0.587007     0.616338     0.531240
    0.428162     0.576626     0.623926
    0.558064     0.495369     0.575032
    0.483696     0.451350     0.581420
    0.335998     0.470799     0.582673
    0.436617     0.505324     0.589595
    0.547010     0.660674     0.534259
EA25   19.217 16.824 16.769 90.00 90.00 90.00 Sym.group:    0
1.0000
   19.216815     0.000000     0.000000
    0.000000    16.823749     0.000000
    0.000000     0.000000    16.768808
   O  Cu
   8   24 
Direct
    0.331181     0.620944     0.477920
    0.331181     0.579532     0.594044
    0.331181     0.458588     0.616124
    0.331181     0.379056     0.522080
    0.331181     0.420468     0.405956
    0.331181     0.541412     0.383876
    0.652393     0.522301     0.622955
    0.652393     0.405016     0.580854
    0.652393     0.382715     0.457899
    0.652393     0.477699     0.377045
    0.652393     0.594984     0.419146
    0.652393     0.617285     0.542101
    0.526725     0.479975     0.389593
    0.526725     0.585290     0.427397
    0.526725     0.605316     0.537804
    0.526725     0.520025     0.610407
    0.526725     0.414710     0.572603
    0.526725     0.394684     0.462196
    0.372625     0.500000     0.500000
    0.673424     0.512371     0.568204
    0.673424     0.447311     0.544851
    0.673424     0.434941     0.476646
    0.673424     0.487629     0.431796
    0.673424     0.552689     0.455149
    0.673424     0.565059     0.523354
    0.340005     0.423474     0.565142
    0.340005     0.405507     0.466080
    0.340005     0.482032     0.400939
    0.340005     0.576526     0.434858
    0.340005     0.594493     0.533920
    0.340005     0.517968     0.599061
    0.485007     0.500000     0.500000
EA3    19.204 18.971 19.084 90.00 90.00 90.00 Sym.group:    0
1.0000
   19.204452     0.000000     0.000000
    0.000000    18.971027     0.000000
    0.000000     0.000000    19.083875
   O  Cu
   8   24 
Direct
    0.398418     0.386499     0.425967
    0.626533     0.362935     0.529325
    0.493724     0.528789     0.666740
    0.606512     0.654860     0.478753
    0.386045     0.566918     0.394711
    0.424640     0.487240     0.414362
    0.564797     0.393094     0.451213
    0.498977     0.446687     0.602157
    0.601866     0.573959     0.544862
    0.447550     0.599020     0.472241
    0.505267     0.330562     0.448361
    0.568300     0.403621     0.629749
    0.572282     0.609872     0.617664
    0.491900     0.664284     0.436746
    0.458049     0.491661     0.329079
    0.372026     0.478164     0.594637
    0.691753     0.531772     0.458748
    0.349933     0.541469     0.538828
    0.662917     0.493861     0.385900
    0.354204     0.454734     0.549614
    0.373451     0.467686     0.453412
    0.631070     0.403522     0.450271
    0.440537     0.472684     0.622890
    0.650062     0.579599     0.498254
    0.385189     0.576509     0.483067
    0.497580     0.622622     0.581767
    0.532725     0.609705     0.387060
    0.421299     0.445179     0.389057
    0.570847     0.356415     0.483359
    0.521139     0.466079     0.641283
    0.421735     0.499999     0.531373
    0.478670     0.500000     0.508550
EA85   22.059 17.348 17.348 90.00 90.00 90.00 Sym.group:    0
1.0000
   22.059328     0.000000     0.000000
    0.000000    17.348422     0.000000
    0.000000     0.000000    17.348422
   O  Cu
   8   24 
Direct
    0.604979     0.462207     0.447092
    0.395021     0.552908     0.462207
    0.604979     0.537793     0.552908
    0.395021     0.447092     0.537793
    0.512603     0.581864     0.364298
    0.487397     0.635702     0.581864
    0.512603     0.418136     0.635702
    0.487397     0.364298     0.418136
    0.713500     0.564948     0.516374
    0.286500     0.483626     0.564948
    0.713500     0.435052     0.483626
    0.286500     0.516374     0.435052
    0.583984     0.416124     0.490331
    0.416016     0.509669     0.416124
    0.583984     0.583876     0.509669
    0.416016     0.490331     0.583876
    0.354103     0.515486     0.579322
    0.645897     0.420678     0.515486
    0.354103     0.484514     0.420678
    0.645897     0.579322     0.484514
    0.312918     0.598754     0.493405
    0.687082     0.506595     0.598754
    0.312918     0.401246     0.506595
    0.687082     0.493405     0.401246
    0.419109     0.396721     0.437999
    0.580891     0.562001     0.396721
    0.419109     0.603279     0.562001
    0.580891     0.437999     0.603279
    0.453715     0.591433     0.375485
    0.546285     0.624515     0.591433
    0.453715     0.408567     0.624515
    0.546285     0.375485     0.408567
EA79   19.227 18.625 19.734 90.00 90.00 90.00 Sym.group:    0
1.0000
   19.227292     0.000000     0.000000
    0.000000    18.624766     0.000000
    0.000000     0.000000    19.734419
   O  Cu
   8   24 
Direct
    0.383749     0.600309     0.428143
    0.490675     0.615466     0.588284
    0.621646     0.389618     0.446222
    0.583037     0.525565     0.370192
    0.631719     0.598787     0.546329
    0.613433     0.459647     0.625928
    0.355178     0.406490     0.444862
    0.477980     0.448986     0.330146
    0.365608     0.396564     0.490278
    0.541974     0.523927     0.636759
    0.370260     0.450445     0.577998
    0.394519     0.378657     0.558870
    0.341349     0.468352     0.509406
    0.468865     0.547589     0.630084
    0.434470     0.650279     0.454935
    0.326982     0.618193     0.575754
    0.452090     0.247964     0.477105
    0.467887     0.517560     0.504785
    0.621794     0.352277     0.512830
    0.651899     0.526380     0.413007
    0.465851     0.603827     0.374756
    0.671317     0.465946     0.575162
    0.615842     0.635245     0.480708
    0.541622     0.399611     0.552631
    0.611743     0.493364     0.497213
    0.528405     0.578506     0.451422
    0.661156     0.401301     0.547982
    0.647202     0.590190     0.441119
    0.489824     0.423060     0.406862
    0.481228     0.656032     0.518457
    0.369935     0.552270     0.580831
    0.320764     0.477591     0.450939
EA80   20.822 20.751 17.534 90.00 90.00 90.00 Sym.group:    0
1.0000
   20.821710     0.000000     0.000000
    0.000000    20.750977     0.000000
    0.000000     0.000000    17.534023
   O  Cu
   8   24 
Direct
    0.607802     0.361216     0.447158
    0.327857     0.484501     0.429242
    0.431636     0.339965     0.422293
    0.696178     0.479169     0.448154
    0.427839     0.673637     0.442275
    0.641126     0.613816     0.536144
    0.317616     0.554580     0.529984
    0.687929     0.469966     0.537517
    0.377304     0.434118     0.519817
    0.498991     0.360377     0.524834
    0.427634     0.494329     0.490769
    0.474057     0.433464     0.488182
    0.300065     0.607620     0.479176
    0.312347     0.375860     0.448836
    0.515688     0.273937     0.460149
    0.504151     0.505762     0.446652
    0.419591     0.664435     0.531638
    0.649374     0.623018     0.446781
    0.395996     0.502697     0.603597
    0.524682     0.393347     0.606467
    0.554264     0.556557     0.606532
    0.424097     0.416331     0.604421
    0.464940     0.576968     0.604715
    0.585907     0.459304     0.607460
    0.448019     0.663078     0.487452
    0.675039     0.456830     0.492557
    0.620777     0.623604     0.490966
    0.493596     0.486374     0.584423
    0.417501     0.526688     0.370624
    0.575769     0.580548     0.373559
    0.607412     0.483294     0.374487
    0.594815     0.524611     0.563138
EA162  19.851 19.613 19.275 90.00 90.00 90.00 Sym.group:    0
1.0000
   19.851171     0.000000     0.000000
    0.000000    19.613168     0.000000
    0.000000     0.000000    19.275470
   O  Cu
   8   24 
Direct
    0.685318     0.440852     0.496750
    0.382099     0.615918     0.412753
    0.641509     0.624709     0.438468
    0.629589     0.530217     0.456680
    0.529273     0.379591     0.445967
    0.589300     0.616017     0.618786
    0.635947     0.493988     0.634063
    0.440937     0.535349     0.662373
    0.543273     0.626123     0.486873
    0.604667     0.344209     0.480526
    0.496850     0.671213     0.423978
    0.634358     0.527754     0.358953
    0.364433     0.461968     0.372818
    0.437760     0.438549     0.322630
    0.666080     0.527930     0.518809
    0.468493     0.361975     0.412409
    0.364041     0.524486     0.422581
    0.504779     0.601367     0.364205
    0.659182     0.491992     0.440755
    0.521955     0.340515     0.479275
    0.368401     0.368226     0.497078
    0.322158     0.490527     0.478131
    0.367222     0.618473     0.506650
    0.588895     0.366863     0.612760
    0.358442     0.525212     0.610570
    0.403456     0.403342     0.629697
    0.474677     0.669101     0.564165
    0.466972     0.577081     0.667235
    0.481480     0.315642     0.554563
    0.451154     0.411086     0.537867
    0.407841     0.526076     0.519311
    0.509464     0.573648     0.572321
EA139  18.566 19.139 16.544 90.00 90.00 90.00 Sym.group:    0
1.0000
   18.565503     0.000000     0.000000
    0.000000    19.139140     0.000000
    0.000000     0.000000    16.544112
   O  Cu
   8   24 
Direct
    0.454617     0.380909     0.419944
    0.386751     0.658974     0.415821
    0.671448     0.555773     0.462983
    0.621794     0.404797     0.450011
    0.500041     0.374209     0.514265
    0.626836     0.457313     0.514953
    0.363245     0.433300     0.514741
    0.538153     0.620698     0.633182
    0.667884     0.542158     0.513959
    0.429322     0.389197     0.467714
    0.606720     0.645881     0.455793
    0.667437     0.496401     0.462271
    0.564725     0.382493     0.441011
    0.401299     0.418066     0.413273
    0.340582     0.567548     0.406795
    0.443293     0.681455     0.428056
    0.524437     0.447930     0.408813
    0.441571     0.481880     0.395196
    0.574988     0.579201     0.421389
    0.591146     0.496590     0.421909
    0.302083     0.556180     0.486320
    0.327432     0.540798     0.574612
    0.601731     0.630669     0.575364
    0.652145     0.483881     0.574165
    0.540204     0.365552     0.573190
    0.377846     0.394011     0.573413
    0.460531     0.358294     0.573125
    0.616843     0.415782     0.573605
    0.519046     0.666385     0.575652
    0.362734     0.608897     0.575172
    0.333476     0.454851     0.573909
    0.489639     0.509927     0.609393
EA64   19.790 19.715 18.916 90.00 90.00 90.00 Sym.group:    0
1.0000
   19.790428     0.000000     0.000000
    0.000000    19.715182     0.000000
    0.000000     0.000000    18.915681
   O  Cu
   8   24 
Direct
    0.676856     0.497393     0.550419
    0.395518     0.357166     0.554573
    0.615490     0.369134     0.453660
    0.681114     0.497974     0.452257
    0.564270     0.660295     0.576528
    0.526221     0.670806     0.435748
    0.554616     0.541740     0.343325
    0.316545     0.499731     0.455368
    0.399775     0.357747     0.456411
    0.611232     0.368554     0.551822
    0.452977     0.424125     0.632381
    0.584323     0.515823     0.630324
    0.551055     0.430232     0.375361
    0.464078     0.425640     0.376469
    0.595423     0.517338     0.374412
    0.539955     0.428717     0.631273
    0.421373     0.359090     0.505188
    0.665675     0.517343     0.501416
    0.589592     0.367970     0.503042
    0.493039     0.507925     0.608328
    0.354612     0.486352     0.607275
    0.471394     0.568043     0.664900
    0.401030     0.584381     0.370709
    0.474036     0.686671     0.517900
    0.616456     0.644431     0.494376
    0.385709     0.593089     0.609228
    0.346075     0.601087     0.457223
    0.371500     0.483024     0.368855
    0.477271     0.472003     0.458403
    0.443846     0.482165     0.511023
    0.496185     0.536923     0.459591
    0.462760     0.547085     0.512210
EA60   19.555 19.308 19.701 90.00 90.00 90.00 Sym.group:    0
1.0000
   19.555233     0.000000     0.000000
    0.000000    19.308070     0.000000
    0.000000     0.000000    19.700525
   O  Cu
   8   24 
Direct
    0.310933     0.559481     0.493777
    0.621032     0.381230     0.415655
    0.353715     0.374720     0.443692
    0.366948     0.470169     0.457081
    0.472892     0.622393     0.445093
    0.408061     0.382381     0.614569
    0.360807     0.506799     0.632870
    0.558242     0.465426     0.659992
    0.455607     0.370733     0.485918
    0.395082     0.659668     0.476981
    0.503588     0.323289     0.423918
    0.359761     0.476907     0.361441
    0.641489     0.537677     0.377698
    0.568598     0.561043     0.326671
    0.331700     0.469634     0.518832
    0.535366     0.639383     0.414185
    0.640270     0.474344     0.426135
    0.496889     0.392632     0.367197
    0.336691     0.509654     0.440625
    0.479007     0.662221     0.478137
    0.634443     0.633571     0.499871
    0.681697     0.509154     0.481572
    0.635013     0.379418     0.507710
    0.407491     0.636534     0.606730
    0.642302     0.474416     0.610005
    0.595048     0.598833     0.628305
    0.524577     0.328255     0.561386
    0.531866     0.423252     0.663681
    0.517927     0.687698     0.553054
    0.549316     0.590498     0.537048
    0.593801     0.473374     0.519820
    0.489839     0.425211     0.570350
EA118  19.416 18.729 18.635 90.00 90.00 90.00 Sym.group:    0
1.0000
   19.415961     0.000000     0.000000
    0.000000    18.729095     0.000000
    0.000000     0.000000    18.635255
   O  Cu
   8   24 
Direct
    0.545024     0.575012     0.351140
    0.441653     0.317526     0.431586
    0.668673     0.420848     0.452251
    0.587748     0.531241     0.437372
    0.614072     0.588071     0.560337
    0.357941     0.553019     0.395688
    0.317881     0.515921     0.548676
    0.664853     0.533857     0.580168
    0.339630     0.420048     0.413836
    0.593451     0.507606     0.377546
    0.468576     0.378118     0.373089
    0.352799     0.411085     0.496470
    0.500567     0.364066     0.529879
    0.527552     0.394695     0.581796
    0.589171     0.396671     0.378503
    0.679991     0.456581     0.503465
    0.622985     0.514789     0.485847
    0.587772     0.473450     0.416520
    0.427921     0.344301     0.615944
    0.661675     0.560663     0.538027
    0.519896     0.633130     0.530659
    0.466991     0.641621     0.537858
    0.391602     0.618518     0.404069
    0.614208     0.616954     0.446005
    0.367730     0.656505     0.479542
    0.495742     0.496127     0.665930
    0.307190     0.488685     0.466744
    0.430023     0.451754     0.641379
    0.321822     0.595643     0.522158
    0.546829     0.433544     0.635067
    0.411572     0.567830     0.605679
    0.576461     0.542122     0.596770
EA100  21.072 21.656 15.236 90.00 90.00 90.00 Sym.group:    0
1.0000
   21.071921     0.000000     0.000000
    0.000000    21.656003     0.000000
    0.000000     0.000000    15.235670
   O  Cu
   8   24 
Direct
    0.461254     0.346368     0.441449
    0.613312     0.385878     0.436663
    0.657656     0.540949     0.438335
    0.546681     0.652459     0.436723
    0.381793     0.609683     0.438747
    0.341447     0.463479     0.437924
    0.681331     0.463772     0.542929
    0.622791     0.635029     0.545743
    0.441145     0.671364     0.545912
    0.319305     0.535760     0.530957
    0.376296     0.364368     0.548823
    0.557957     0.329466     0.533722
    0.536203     0.461691     0.442815
    0.552438     0.511398     0.442685
    0.516340     0.549950     0.442656
    0.463963     0.538852     0.442743
    0.447707     0.489157     0.443004
    0.483826     0.450619     0.443142
    0.369379     0.441782     0.539128
    0.485315     0.361336     0.538311
    0.616157     0.418978     0.537018
    0.630598     0.557721     0.537435
    0.513879     0.639318     0.537854
    0.383979     0.581040     0.536188
    0.699264     0.580738     0.518747
    0.527649     0.708556     0.520293
    0.327916     0.626183     0.516498
    0.300521     0.419773     0.521614
    0.473203     0.291757     0.520439
    0.670818     0.372416     0.518158
    0.499981     0.500145     0.516321
    0.499894     0.500016     0.607028
EA142  19.272 18.355 19.749 90.00 90.00 90.00 Sym.group:    0
1.0000
   19.271614     0.000000     0.000000
    0.000000    18.354627     0.000000
    0.000000     0.000000    19.748643
   O  Cu
   8   24 
Direct
    0.562403     0.389769     0.558912
    0.636549     0.514997     0.559390
    0.572246     0.394919     0.441897
    0.434165     0.411940     0.445571
    0.589270     0.615530     0.572829
    0.408085     0.602731     0.571384
    0.349334     0.409424     0.563826
    0.241408     0.596563     0.460390
    0.537122     0.626470     0.434811
    0.636437     0.525420     0.442076
    0.616188     0.356398     0.566944
    0.684668     0.557073     0.569122
    0.371835     0.402250     0.438992
    0.581725     0.672739     0.425800
    0.692113     0.495966     0.437077
    0.563057     0.330219     0.432706
    0.594272     0.430282     0.552267
    0.420503     0.462391     0.447982
    0.577032     0.596670     0.445017
    0.620868     0.475853     0.450272
    0.523208     0.392750     0.451740
    0.519082     0.502779     0.431443
    0.418985     0.544448     0.432562
    0.383222     0.538615     0.565851
    0.525969     0.630914     0.580795
    0.416414     0.377498     0.576932
    0.422333     0.633990     0.519125
    0.319437     0.446885     0.503344
    0.297834     0.522030     0.474443
    0.492932     0.652914     0.523181
    0.518453     0.482682     0.570683
    0.472850     0.406891     0.552635
EA32   19.231 18.457 18.151 90.00 90.00 90.00 Sym.group:    0
1.0000
   19.230909     0.000000     0.000000
    0.000000    18.456626     0.000000
    0.000000     0.000000    18.150536
   O  Cu
   8   24 
Direct
    0.671362     0.500000     0.500000
    0.328638     0.500000     0.500000
    0.500000     0.389533     0.621172
    0.500000     0.658431     0.536695
    0.500000     0.452036     0.342133
    0.418853     0.533659     0.654084
    0.418853     0.614398     0.393317
    0.418853     0.351943     0.452599
    0.581147     0.533659     0.654084
    0.581147     0.614398     0.393317
    0.581147     0.351943     0.452599
    0.378498     0.416858     0.394425
    0.378498     0.451657     0.626005
    0.378498     0.631485     0.479570
    0.621502     0.416858     0.394425
    0.621502     0.451657     0.626005
    0.621502     0.631485     0.479570
    0.619652     0.536573     0.402918
    0.619652     0.399032     0.516334
    0.619652     0.564395     0.580748
    0.380348     0.536573     0.402918
    0.380348     0.399032     0.516334
    0.380348     0.564395     0.580748
    0.589539     0.476271     0.582155
    0.589539     0.581833     0.479819
    0.589539     0.441896     0.438027
    0.410461     0.476271     0.582155
    0.410461     0.581833     0.479819
    0.410461     0.441896     0.438027
    0.500000     0.529655     0.346758
    0.500000     0.354662     0.550505
    0.500000     0.615684     0.602736
EA7    21.461 21.369 15.211 90.00 90.00 90.00 Sym.group:    0
1.0000
   21.460874     0.000000     0.000000
    0.000000    21.369158     0.000000
    0.000000     0.000000    15.211305
   O  Cu
   8   24 
Direct
    0.456881     0.345148     0.438745
    0.611973     0.385072     0.438745
    0.655092     0.539924     0.438745
    0.543119     0.654852     0.438745
    0.388027     0.614928     0.438745
    0.344908     0.460076     0.438745
    0.677752     0.461670     0.539759
    0.621929     0.635433     0.539759
    0.444177     0.673764     0.539759
    0.322248     0.538330     0.539759
    0.378071     0.364567     0.539759
    0.555823     0.326236     0.539759
    0.535068     0.460588     0.443340
    0.551520     0.510794     0.443340
    0.516452     0.550206     0.443340
    0.464932     0.539412     0.443340
    0.448480     0.489206     0.443340
    0.483548     0.449794     0.443340
    0.371421     0.442934     0.538026
    0.484919     0.359637     0.538026
    0.613498     0.416702     0.538026
    0.628579     0.557066     0.538026
    0.515081     0.640363     0.538026
    0.386502     0.583298     0.538026
    0.696054     0.580201     0.519344
    0.528867     0.710617     0.519344
    0.332813     0.630416     0.519344
    0.303946     0.419799     0.519344
    0.471133     0.289383     0.519344
    0.667187     0.369584     0.519344
    0.500000     0.500000     0.516935
    0.500000     0.500000     0.607784
EA141  19.635 19.034 18.771 90.00 90.00 90.00 Sym.group:    0
1.0000
   19.635344     0.000000     0.000000
    0.000000    19.033866     0.000000
    0.000000     0.000000    18.771123
   O  Cu
   8   24 
Direct
    0.610693     0.516646     0.554497
    0.595773     0.509942     0.440094
    0.523777     0.381812     0.559930
    0.489492     0.579661     0.633765
    0.377004     0.641458     0.521195
    0.348856     0.498369     0.422088
    0.339823     0.415169     0.480998
    0.575771     0.393001     0.490679
    0.716566     0.469950     0.444491
    0.721256     0.555701     0.534050
    0.582270     0.574470     0.548438
    0.644728     0.583149     0.523484
    0.648971     0.443086     0.465056
    0.676870     0.556925     0.416970
    0.704631     0.468954     0.565478
    0.413888     0.564371     0.608068
    0.592026     0.413266     0.541702
    0.563087     0.613530     0.456453
    0.553601     0.565854     0.630592
    0.341954     0.593764     0.495835
    0.299302     0.465081     0.519695
    0.295109     0.523028     0.564492
    0.481877     0.587949     0.403113
    0.418404     0.472226     0.423470
    0.587222     0.583195     0.359463
    0.477922     0.362271     0.439462
    0.522607     0.356017     0.511226
    0.420583     0.406658     0.434742
    0.390504     0.437554     0.592423
    0.371369     0.526956     0.384122
    0.254637     0.559869     0.482543
    0.459427     0.380118     0.551388
EA136  19.096 20.579 18.789 90.00 90.00 90.00 Sym.group:    0
1.0000
   19.095956     0.000000     0.000000
    0.000000    20.578795     0.000000
    0.000000     0.000000    18.788543
   O  Cu
   8   24 
Direct
    0.570676     0.618073     0.584380
    0.384038     0.598547     0.572142
    0.208719     0.575203     0.444118
    0.511587     0.553341     0.437727
    0.438418     0.344782     0.461590
    0.623904     0.375465     0.456223
    0.680774     0.520687     0.431563
    0.350002     0.378073     0.546742
    0.587910     0.578165     0.440291
    0.391652     0.531344     0.431008
    0.378533     0.450338     0.427219
    0.359178     0.537321     0.570495
    0.505449     0.630547     0.587273
    0.634525     0.620363     0.507938
    0.396575     0.623173     0.514825
    0.292761     0.443287     0.508418
    0.268445     0.509531     0.469511
    0.469204     0.644089     0.522026
    0.547433     0.326949     0.552865
    0.694124     0.453768     0.518546
    0.480207     0.447015     0.449557
    0.538947     0.454184     0.447812
    0.561055     0.503394     0.439867
    0.646316     0.553843     0.509710
    0.470280     0.364481     0.541090
    0.618649     0.413323     0.530194
    0.450206     0.293705     0.538275
    0.677795     0.361350     0.521714
    0.725113     0.569244     0.491965
    0.498483     0.502808     0.500860
    0.493702     0.510940     0.574076
    0.545340     0.712671     0.469981
EA135  19.177 19.787 18.933 90.00 90.00 90.00 Sym.group:    0
1.0000
   19.177481     0.000000     0.000000
    0.000000    19.786832     0.000000
    0.000000     0.000000    18.933346
   O  Cu
   8   24 
Direct
    0.411614     0.319144     0.491064
    0.320856     0.440427     0.458316
    0.559338     0.471827     0.657040
    0.347629     0.587839     0.520205
    0.531751     0.336176     0.598040
    0.527364     0.668097     0.489430
    0.620783     0.409350     0.469905
    0.681141     0.497670     0.434827
    0.459922     0.600378     0.619457
    0.348982     0.394774     0.548806
    0.383488     0.364797     0.400575
    0.618813     0.400011     0.602209
    0.377249     0.539762     0.615499
    0.472276     0.407992     0.652871
    0.463511     0.466850     0.526368
    0.501605     0.420850     0.491249
    0.445496     0.496091     0.468408
    0.516464     0.505676     0.528904
    0.385711     0.564750     0.395771
    0.358213     0.505244     0.393788
    0.446531     0.661200     0.488210
    0.378433     0.620600     0.480616
    0.558195     0.593628     0.557385
    0.480866     0.438651     0.341838
    0.670318     0.603098     0.477205
    0.667777     0.552330     0.405531
    0.677902     0.454608     0.471087
    0.604263     0.624155     0.512967
    0.487675     0.586209     0.397721
    0.506868     0.610968     0.626897
    0.536543     0.488918     0.435824
    0.652423     0.367929     0.441987
EA86   19.893 17.191 17.155 90.00 90.00 90.00 Sym.group:    0
1.0000
   19.892529     0.000000     0.000000
    0.000000    17.190973     0.000000
    0.000000     0.000000    17.154591
   O  Cu
   8   24 
Direct
    0.570561     0.356652     0.435929
    0.570561     0.516304     0.656441
    0.570561     0.627044     0.407630
    0.438500     0.625679     0.405774
    0.438500     0.518590     0.656184
    0.438500     0.355732     0.438041
    0.322237     0.455576     0.461742
    0.322237     0.489150     0.557683
    0.322237     0.555274     0.480575
    0.686823     0.534891     0.452851
    0.686823     0.523300     0.553855
    0.686823     0.441808     0.493293
    0.506154     0.552715     0.585765
    0.506154     0.547760     0.411369
    0.506154     0.399526     0.502867
    0.502907     0.467497     0.595316
    0.502907     0.433880     0.424134
    0.502907     0.598623     0.480550
    0.359562     0.500000     0.500000
    0.622638     0.536061     0.396399
    0.622638     0.392438     0.520503
    0.622638     0.571500     0.583097
    0.386422     0.441988     0.406944
    0.386422     0.609424     0.496181
    0.386422     0.448587     0.596875
    0.384182     0.379153     0.493290
    0.384182     0.554625     0.608233
    0.384182     0.566222     0.398476
    0.624878     0.616382     0.466699
    0.624878     0.470588     0.617654
    0.624878     0.413031     0.415647
    0.504530     0.500000     0.500000
EA27   19.533 19.533 19.533 90.00 90.00 90.00 Sym.group:    0
1.0000
   19.533487     0.000000     0.000000
    0.000000    19.533487     0.000000
    0.000000     0.000000    19.533487
   O  Cu
   8   24 
Direct
    0.577497     0.323547     0.516192
    0.520175     0.676453     0.423443
    0.422503     0.323547     0.483808
    0.479825     0.676453     0.576557
    0.546393     0.557411     0.678761
    0.319717     0.445483     0.543931
    0.639142     0.442589     0.621439
    0.680283     0.445483     0.456069
    0.360858     0.442589     0.378561
    0.619918     0.554517     0.358397
    0.453607     0.557411     0.321239
    0.380082     0.554517     0.641603
    0.422503     0.676453     0.483808
    0.479825     0.323547     0.576557
    0.577497     0.676453     0.516192
    0.520175     0.323547     0.423443
    0.453607     0.442589     0.321239
    0.680283     0.554517     0.456069
    0.360858     0.557411     0.378561
    0.319717     0.554517     0.543931
    0.639142     0.557411     0.621439
    0.380082     0.445483     0.641603
    0.546393     0.442589     0.678761
    0.619918     0.445483     0.358397
    0.488654     0.465081     0.548061
    0.548061     0.465081     0.511346
    0.451939     0.465081     0.488654
    0.511346     0.465081     0.451939
    0.488654     0.534919     0.548061
    0.548061     0.534919     0.511346
    0.451939     0.534919     0.488654
    0.511346     0.534919     0.451939
EA37   18.462 18.610 17.153 90.00 90.00 90.00 Sym.group:    0
1.0000
   18.461775     0.000000     0.000000
    0.000000    18.610397     0.000000
    0.000000     0.000000    17.153104
   O  Cu
   8   24 
Direct
    0.526960     0.340436     0.544403
    0.652778     0.443379     0.544403
    0.625819     0.602943     0.544403
    0.473040     0.659564     0.544403
    0.347222     0.556621     0.544403
    0.374181     0.397057     0.544403
    0.615662     0.616151     0.488021
    0.456431     0.657443     0.488021
    0.340769     0.541290     0.488021
    0.384338     0.383849     0.488021
    0.543569     0.342557     0.488021
    0.659231     0.458710     0.488021
    0.438678     0.487630     0.399178
    0.480138     0.441132     0.399178
    0.541460     0.453502     0.399178
    0.561322     0.512370     0.399178
    0.519862     0.558868     0.399178
    0.458540     0.546498     0.399178
    0.418837     0.633236     0.542602
    0.343104     0.496890     0.542602
    0.424267     0.363654     0.542602
    0.581163     0.366764     0.542602
    0.656896     0.503110     0.542602
    0.575733     0.636346     0.542602
    0.474363     0.421222     0.571833
    0.555955     0.438586     0.571833
    0.581592     0.517364     0.571833
    0.525637     0.578778     0.571833
    0.444045     0.561414     0.571833
    0.418408     0.482636     0.571833
    0.500000     0.500000     0.308726
    0.500000     0.500000     0.415051
