EA103  20.819 19.652 17.238 90.00 90.00 90.00 Sym.group:    0
1.0000
   20.818509     0.000000     0.000000
    0.000000    19.651505     0.000000
    0.000000     0.000000    17.237733
   O  Cu
   8   24 
Direct
    0.550889     0.603234     0.614552
    0.436533     0.396450     0.620748
    0.550889     0.396766     0.385448
    0.436533     0.603550     0.379252
    0.585650     0.458443     0.632013
    0.415522     0.543507     0.633362
    0.585650     0.541557     0.367987
    0.415522     0.456493     0.366638
    0.453297     0.641664     0.485623
    0.553233     0.359411     0.489189
    0.453297     0.358336     0.514377
    0.553233     0.640589     0.510811
    0.696475     0.500000     0.500000
    0.303627     0.500000     0.500000
    0.625545     0.592997     0.410422
    0.375683     0.405653     0.407992
    0.625545     0.407003     0.589578
    0.375683     0.594347     0.592008
    0.465360     0.472614     0.576972
    0.533646     0.526036     0.577118
    0.465360     0.527386     0.423028
    0.533646     0.473964     0.422882
    0.688031     0.468652     0.454387
    0.311909     0.530624     0.455067
    0.688031     0.531348     0.545613
    0.311909     0.469376     0.544933
    0.594483     0.480486     0.566840
    0.405717     0.519902     0.567241
    0.594483     0.519514     0.433160
    0.405717     0.480098     0.432759
    0.504450     0.678396     0.503031
    0.504450     0.321604     0.496969
