EA131   8.593  8.593 21.019 90.080 90.080 90.080 Sym.group: no SG
1.0000
    8.593017     0.000000     0.000000
   -0.011983     8.593000     0.000000
   -0.029353    -0.029394    21.018959
  21   40 
Selective dynamics
Direct
    0.900000     0.100000     0.432373  T  T  T
    1.000000     0.900000     0.429088  T  T  T
    1.000000     0.900000     0.491889  T  T  T
    0.599890     0.289490     0.423229  T  T  T
    0.258540     0.149600     0.472214  T  T  T
    0.000610     0.000610     0.004757  F  F  F
    0.500610     0.000610     0.004757  F  F  F
    0.000610     0.500610     0.004757  F  F  F
    0.500610     0.500610     0.004757  F  F  F
    0.250790     0.250800     0.107041  F  F  F
    0.750790     0.250800     0.107041  F  F  F
    0.250790     0.750800     0.107041  F  F  F
    0.750790     0.750800     0.107041  F  F  F
    0.000610     0.000610     0.209175  F  F  F
    0.500610     0.000610     0.209175  F  F  F
    0.000610     0.500610     0.209175  F  F  F
    0.500610     0.500610     0.209175  F  F  F
    0.250790     0.250800     0.311459  F  F  F
    0.750790     0.250800     0.311459  F  F  F
    0.250790     0.750800     0.311459  F  F  F
    0.750790     0.750800     0.311459  F  F  F
    0.101680     0.404900     0.466449  T  T  T
    0.700000     0.900000     0.429088  T  T  T
    0.300000     0.900000     0.502121  T  T  T
    0.917110     0.326280     0.415976  T  T  T
    0.411010     0.268670     0.448213  T  T  T
    0.722410     0.329280     0.454609  T  T  T
    0.722410     0.487860     0.477242  T  T  T
    0.162860     0.702080     0.424033  T  T  T
    0.125670     0.125670     0.055888  F  F  F
    0.625670     0.125670     0.055888  F  F  F
    0.375590     0.375590     0.055892  F  F  F
    0.875590     0.375590     0.055892  F  F  F
    0.125670     0.625670     0.055888  F  F  F
    0.625670     0.625670     0.055888  F  F  F
    0.375590     0.875590     0.055892  F  F  F
    0.875590     0.875590     0.055892  F  F  F
    0.375580     0.125690     0.158064  F  F  F
    0.875580     0.125690     0.158064  F  F  F
    0.125680     0.375590     0.158064  F  F  F
    0.625680     0.375590     0.158064  F  F  F
    0.375580     0.625690     0.158064  F  F  F
    0.875580     0.625690     0.158064  F  F  F
    0.125680     0.875590     0.158064  F  F  F
    0.625680     0.875590     0.158064  F  F  F
    0.125670     0.125670     0.260306  F  F  F
    0.625670     0.125670     0.260306  F  F  F
    0.375590     0.375590     0.260313  F  F  F
    0.875590     0.375590     0.260313  F  F  F
    0.125670     0.625670     0.260306  F  F  F
    0.625670     0.625670     0.260306  F  F  F
    0.375590     0.875590     0.260313  F  F  F
    0.875590     0.875590     0.260313  F  F  F
    0.375580     0.125690     0.362482  F  F  F
    0.875580     0.125690     0.362482  F  F  F
    0.125680     0.375590     0.362482  F  F  F
    0.625680     0.375590     0.362482  F  F  F
    0.375580     0.625690     0.362482  F  F  F
    0.875580     0.625690     0.362482  F  F  F
    0.125680     0.875590     0.362482  F  F  F
    0.625680     0.875590     0.362482  F  F  F
