POSCAR_SUBSTRATE_NEW
1.000000
   8.593   -0.012   -0.012
   0.000    8.593   -0.012
   0.000    0.000    8.019
   O   Cu
   16  32
Direct
  0.00061   0.00061   0.01247
  0.50061   0.00061   0.01247
  0.00061   0.50061   0.01247
  0.50061   0.50061   0.01247
  0.25079   0.25080   0.28057
  0.75079   0.25080   0.28057
  0.25079   0.75080   0.28057
  0.75079   0.75080   0.28057
  0.00061   0.00061   0.54828
  0.50061   0.00061   0.54828
  0.00061   0.50061   0.54828
  0.50061   0.50061   0.54828
  0.25079   0.25080   0.81638
  0.75079   0.25080   0.81638
  0.25079   0.75080   0.81638
  0.75079   0.75080   0.81638
  0.12567   0.12567   0.14649
  0.62567   0.12567   0.14649
  0.37559   0.37559   0.14650
  0.87559   0.37559   0.14650
  0.12567   0.62567   0.14649
  0.62567   0.62567   0.14649
  0.37559   0.87559   0.14650
  0.87559   0.87559   0.14650
  0.37558   0.12569   0.41431
  0.87558   0.12569   0.41431
  0.12568   0.37559   0.41431
  0.62568   0.37559   0.41431
  0.37558   0.62569   0.41431
  0.87558   0.62569   0.41431
  0.12568   0.87559   0.41431
  0.62568   0.87559   0.41431
  0.12567   0.12567   0.68230
  0.62567   0.12567   0.68230
  0.37559   0.37559   0.68232
  0.87559   0.37559   0.68232
  0.12567   0.62567   0.68230
  0.62567   0.62567   0.68230
  0.37559   0.87559   0.68232
  0.87559   0.87559   0.68232
  0.37558   0.12569   0.95012
  0.87558   0.12569   0.95012
  0.12568   0.37559   0.95012
  0.62568   0.37559   0.95012
  0.37558   0.62569   0.95012
  0.87558   0.62569   0.95012
  0.12568   0.87559   0.95012
  0.62568   0.87559   0.95012


