EA4     8.593  8.593 21.019 90.08 90.08 90.08 Sym.group:    0
1.0000
    8.593017     0.000000     0.000000
   -0.011983     8.593000     0.000000
   -0.029353    -0.029394    21.018959
   O  Cu
  21   40 
Direct
    0.516080     0.483920     0.420023
    0.516080     0.032160     0.420023
    0.967840     0.483920     0.420023
    0.000000     0.000000     0.488970
    0.666670     0.333330     0.475344
    0.000610     0.000610     0.004757
    0.500610     0.000610     0.004757
    0.000610     0.500610     0.004757
    0.500610     0.500610     0.004757
    0.250790     0.250800     0.107041
    0.750790     0.250800     0.107041
    0.250790     0.750800     0.107041
    0.750790     0.750800     0.107041
    0.000610     0.000610     0.209175
    0.500610     0.000610     0.209175
    0.000610     0.500610     0.209175
    0.500610     0.500610     0.209175
    0.250790     0.250800     0.311459
    0.750790     0.250800     0.311459
    0.250790     0.750800     0.311459
    0.750790     0.750800     0.311459
    0.995880     0.338840     0.459319
    0.661160     0.657040     0.459319
    0.342960     0.004120     0.459319
    0.342960     0.338840     0.459319
    0.661160     0.004120     0.459319
    0.995880     0.657040     0.459319
    0.333330     0.666670     0.462444
    0.666670     0.333330     0.402840
    0.125670     0.125670     0.055888
    0.625670     0.125670     0.055888
    0.375590     0.375590     0.055892
    0.875590     0.375590     0.055892
    0.125670     0.625670     0.055888
    0.625670     0.625670     0.055888
    0.375590     0.875590     0.055892
    0.875590     0.875590     0.055892
    0.375580     0.125690     0.158064
    0.875580     0.125690     0.158064
    0.125680     0.375590     0.158064
    0.625680     0.375590     0.158064
    0.375580     0.625690     0.158064
    0.875580     0.625690     0.158064
    0.125680     0.875590     0.158064
    0.625680     0.875590     0.158064
    0.125670     0.125670     0.260306
    0.625670     0.125670     0.260306
    0.375590     0.375590     0.260313
    0.875590     0.375590     0.260313
    0.125670     0.625670     0.260306
    0.625670     0.625670     0.260306
    0.375590     0.875590     0.260313
    0.875590     0.875590     0.260313
    0.375580     0.125690     0.362482
    0.875580     0.125690     0.362482
    0.125680     0.375590     0.362482
    0.625680     0.375590     0.362482
    0.375580     0.625690     0.362482
    0.875580     0.625690     0.362482
    0.125680     0.875590     0.362482
    0.625680     0.875590     0.362482
EA1     8.593  8.593 21.019 90.08 90.08 90.08 Sym.group:    0
1.0000
    8.593017     0.000000     0.000000
   -0.011983     8.593000     0.000000
   -0.029353    -0.029394    21.018959
   O  Cu
  21   40 
Direct
    0.000000     0.000000     0.469718
    0.500000     0.000000     0.413820
    0.500000     0.500000     0.413820
    0.000000     0.500000     0.413820
    0.000000     0.000000     0.386973
    0.000610     0.000610     0.004757
    0.500610     0.000610     0.004757
    0.000610     0.500610     0.004757
    0.500610     0.500610     0.004757
    0.250790     0.250800     0.107041
    0.750790     0.250800     0.107041
    0.250790     0.750800     0.107041
    0.750790     0.750800     0.107041
    0.000610     0.000610     0.209175
    0.500610     0.000610     0.209175
    0.000610     0.500610     0.209175
    0.500610     0.500610     0.209175
    0.250790     0.250800     0.311459
    0.750790     0.250800     0.311459
    0.250790     0.750800     0.311459
    0.750790     0.750800     0.311459
    0.709540     0.890440     0.462031
    0.819100     0.709540     0.462031
    0.109560     0.819100     0.462031
    0.290460     0.109560     0.462031
    0.180900     0.290460     0.462031
    0.890440     0.180900     0.462031
    0.333330     0.666670     0.431341
    0.666670     0.333330     0.431341
    0.125670     0.125670     0.055888
    0.625670     0.125670     0.055888
    0.375590     0.375590     0.055892
    0.875590     0.375590     0.055892
    0.125670     0.625670     0.055888
    0.625670     0.625670     0.055888
    0.375590     0.875590     0.055892
    0.875590     0.875590     0.055892
    0.375580     0.125690     0.158064
    0.875580     0.125690     0.158064
    0.125680     0.375590     0.158064
    0.625680     0.375590     0.158064
    0.375580     0.625690     0.158064
    0.875580     0.625690     0.158064
    0.125680     0.875590     0.158064
    0.625680     0.875590     0.158064
    0.125670     0.125670     0.260306
    0.625670     0.125670     0.260306
    0.375590     0.375590     0.260313
    0.875590     0.375590     0.260313
    0.125670     0.625670     0.260306
    0.625670     0.625670     0.260306
    0.375590     0.875590     0.260313
    0.875590     0.875590     0.260313
    0.375580     0.125690     0.362482
    0.875580     0.125690     0.362482
    0.125680     0.375590     0.362482
    0.625680     0.375590     0.362482
    0.375580     0.625690     0.362482
    0.875580     0.625690     0.362482
    0.125680     0.875590     0.362482
    0.625680     0.875590     0.362482
EA82    8.593  8.593 21.019 90.08 90.08 90.08 Sym.group:    0
1.0000
    8.593017     0.000000     0.000000
   -0.011983     8.593000     0.000000
   -0.029353    -0.029394    21.018959
   O  Cu
  21   40 
Direct
    0.400000     0.700000     0.429088
    0.600000     0.300000     0.491982
    0.600000     0.100000     0.464748
    0.516080     0.483920     0.420023
    0.516080     0.032160     0.420023
    0.000610     0.000610     0.004757
    0.500610     0.000610     0.004757
    0.000610     0.500610     0.004757
    0.500610     0.500610     0.004757
    0.250790     0.250800     0.107041
    0.750790     0.250800     0.107041
    0.250790     0.750800     0.107041
    0.750790     0.750800     0.107041
    0.000610     0.000610     0.209175
    0.500610     0.000610     0.209175
    0.000610     0.500610     0.209175
    0.500610     0.500610     0.209175
    0.250790     0.250800     0.311459
    0.750790     0.250800     0.311459
    0.250790     0.750800     0.311459
    0.750790     0.750800     0.311459
    0.967840     0.483920     0.420023
    0.800000     0.000000     0.429088
    0.200000     0.700000     0.475868
    0.995880     0.338840     0.459319
    0.661160     0.657040     0.459319
    0.342960     0.004120     0.459319
    0.342960     0.338840     0.459319
    0.666670     0.333330     0.402840
    0.125670     0.125670     0.055888
    0.625670     0.125670     0.055888
    0.375590     0.375590     0.055892
    0.875590     0.375590     0.055892
    0.125670     0.625670     0.055888
    0.625670     0.625670     0.055888
    0.375590     0.875590     0.055892
    0.875590     0.875590     0.055892
    0.375580     0.125690     0.158064
    0.875580     0.125690     0.158064
    0.125680     0.375590     0.158064
    0.625680     0.375590     0.158064
    0.375580     0.625690     0.158064
    0.875580     0.625690     0.158064
    0.125680     0.875590     0.158064
    0.625680     0.875590     0.158064
    0.125670     0.125670     0.260306
    0.625670     0.125670     0.260306
    0.375590     0.375590     0.260313
    0.875590     0.375590     0.260313
    0.125670     0.625670     0.260306
    0.625670     0.625670     0.260306
    0.375590     0.875590     0.260313
    0.875590     0.875590     0.260313
    0.375580     0.125690     0.362482
    0.875580     0.125690     0.362482
    0.125680     0.375590     0.362482
    0.625680     0.375590     0.362482
    0.375580     0.625690     0.362482
    0.875580     0.625690     0.362482
    0.125680     0.875590     0.362482
    0.625680     0.875590     0.362482
EA131   8.593  8.593 21.019 90.08 90.08 90.08 Sym.group:    0
1.0000
    8.593017     0.000000     0.000000
   -0.011983     8.593000     0.000000
   -0.029353    -0.029394    21.018959
   O  Cu
  21   40 
Direct
    0.400000     0.800000     0.469222
    0.300000     0.700000     0.504820
    0.500000     0.600000     0.507257
    0.000000     0.000000     0.410128
    0.200000     0.200000     0.429088
    0.000610     0.000610     0.004757
    0.500610     0.000610     0.004757
    0.000610     0.500610     0.004757
    0.500610     0.500610     0.004757
    0.250790     0.250800     0.107041
    0.750790     0.250800     0.107041
    0.250790     0.750800     0.107041
    0.750790     0.750800     0.107041
    0.000610     0.000610     0.209175
    0.500610     0.000610     0.209175
    0.000610     0.500610     0.209175
    0.500610     0.500610     0.209175
    0.250790     0.250800     0.311459
    0.750790     0.250800     0.311459
    0.250790     0.750800     0.311459
    0.750790     0.750800     0.311459
    0.700000     0.000000     0.527353
    0.142628     0.522509     0.409238
    0.574997     0.433126     0.416104
    0.658172     0.331183     0.421470
    0.930917     0.443768     0.408984
    0.464934     0.585183     0.414350
    0.317310     0.595269     0.421216
    0.538931     0.944736     0.422791
    0.125670     0.125670     0.055888
    0.625670     0.125670     0.055888
    0.375590     0.375590     0.055892
    0.875590     0.375590     0.055892
    0.125670     0.625670     0.055888
    0.625670     0.625670     0.055888
    0.375590     0.875590     0.055892
    0.875590     0.875590     0.055892
    0.375580     0.125690     0.158064
    0.875580     0.125690     0.158064
    0.125680     0.375590     0.158064
    0.625680     0.375590     0.158064
    0.375580     0.625690     0.158064
    0.875580     0.625690     0.158064
    0.125680     0.875590     0.158064
    0.625680     0.875590     0.158064
    0.125670     0.125670     0.260306
    0.625670     0.125670     0.260306
    0.375590     0.375590     0.260313
    0.875590     0.375590     0.260313
    0.125670     0.625670     0.260306
    0.625670     0.625670     0.260306
    0.375590     0.875590     0.260313
    0.875590     0.875590     0.260313
    0.375580     0.125690     0.362482
    0.875580     0.125690     0.362482
    0.125680     0.375590     0.362482
    0.625680     0.375590     0.362482
    0.375580     0.625690     0.362482
    0.875580     0.625690     0.362482
    0.125680     0.875590     0.362482
    0.625680     0.875590     0.362482
EA84    8.593  8.593 21.019 90.08 90.08 90.08 Sym.group:    0
1.0000
    8.593017     0.000000     0.000000
   -0.011983     8.593000     0.000000
   -0.029353    -0.029394    21.018959
   O  Cu
  21   40 
Direct
    0.100000     0.700000     0.485926
    0.200000     0.500000     0.502653
    0.000000     0.000000     0.410128
    0.200000     0.200000     0.429088
    0.800000     0.800000     0.429088
    0.000610     0.000610     0.004757
    0.500610     0.000610     0.004757
    0.000610     0.500610     0.004757
    0.500610     0.500610     0.004757
    0.250790     0.250800     0.107041
    0.750790     0.250800     0.107041
    0.250790     0.750800     0.107041
    0.750790     0.750800     0.107041
    0.000610     0.000610     0.209175
    0.500610     0.000610     0.209175
    0.000610     0.500610     0.209175
    0.500610     0.500610     0.209175
    0.250790     0.250800     0.311459
    0.750790     0.250800     0.311459
    0.250790     0.750800     0.311459
    0.750790     0.750800     0.311459
    0.900000     0.100000     0.484468
    0.868950     0.419910     0.415227
    0.580090     0.449030     0.415227
    0.550970     0.131050     0.415227
    0.131050     0.550970     0.415227
    0.449030     0.580090     0.415227
    0.419910     0.868950     0.415227
    0.333330     0.666670     0.424650
    0.125670     0.125670     0.055888
    0.625670     0.125670     0.055888
    0.375590     0.375590     0.055892
    0.875590     0.375590     0.055892
    0.125670     0.625670     0.055888
    0.625670     0.625670     0.055888
    0.375590     0.875590     0.055892
    0.875590     0.875590     0.055892
    0.375580     0.125690     0.158064
    0.875580     0.125690     0.158064
    0.125680     0.375590     0.158064
    0.625680     0.375590     0.158064
    0.375580     0.625690     0.158064
    0.875580     0.625690     0.158064
    0.125680     0.875590     0.158064
    0.625680     0.875590     0.158064
    0.125670     0.125670     0.260306
    0.625670     0.125670     0.260306
    0.375590     0.375590     0.260313
    0.875590     0.375590     0.260313
    0.125670     0.625670     0.260306
    0.625670     0.625670     0.260306
    0.375590     0.875590     0.260313
    0.875590     0.875590     0.260313
    0.375580     0.125690     0.362482
    0.875580     0.125690     0.362482
    0.125680     0.375590     0.362482
    0.625680     0.375590     0.362482
    0.375580     0.625690     0.362482
    0.875580     0.625690     0.362482
    0.125680     0.875590     0.362482
    0.625680     0.875590     0.362482
EA78    8.593  8.593 21.019 90.08 90.08 90.08 Sym.group:    0
1.0000
    8.593017     0.000000     0.000000
   -0.011983     8.593000     0.000000
   -0.029353    -0.029394    21.018959
   O  Cu
  21   40 
Direct
    0.263829     0.007765     0.468966
    0.992235     0.281291     0.462954
    0.727440     0.727440     0.465960
    0.000000     0.000000     0.410128
    0.000000     0.000000     0.488118
    0.000610     0.000610     0.004757
    0.500610     0.000610     0.004757
    0.000610     0.500610     0.004757
    0.500610     0.500610     0.004757
    0.250790     0.250800     0.107041
    0.750790     0.250800     0.107041
    0.250790     0.750800     0.107041
    0.750790     0.750800     0.107041
    0.000610     0.000610     0.209175
    0.500610     0.000610     0.209175
    0.000610     0.500610     0.209175
    0.500610     0.500610     0.209175
    0.250790     0.250800     0.311459
    0.750790     0.250800     0.311459
    0.250790     0.750800     0.311459
    0.750790     0.750800     0.311459
    0.142628     0.522509     0.409238
    0.574997     0.433126     0.416104
    0.658172     0.331183     0.421470
    0.930917     0.443768     0.408984
    0.464934     0.585183     0.414350
    0.317310     0.595269     0.421216
    0.538931     0.944736     0.422791
    0.388607     0.127731     0.426509
    0.125670     0.125670     0.055888
    0.625670     0.125670     0.055888
    0.375590     0.375590     0.055892
    0.875590     0.375590     0.055892
    0.125670     0.625670     0.055888
    0.625670     0.625670     0.055888
    0.375590     0.875590     0.055892
    0.875590     0.875590     0.055892
    0.375580     0.125690     0.158064
    0.875580     0.125690     0.158064
    0.125680     0.375590     0.158064
    0.625680     0.375590     0.158064
    0.375580     0.625690     0.158064
    0.875580     0.625690     0.158064
    0.125680     0.875590     0.158064
    0.625680     0.875590     0.158064
    0.125670     0.125670     0.260306
    0.625670     0.125670     0.260306
    0.375590     0.375590     0.260313
    0.875590     0.375590     0.260313
    0.125670     0.625670     0.260306
    0.625670     0.625670     0.260306
    0.375590     0.875590     0.260313
    0.875590     0.875590     0.260313
    0.375580     0.125690     0.362482
    0.875580     0.125690     0.362482
    0.125680     0.375590     0.362482
    0.625680     0.375590     0.362482
    0.375580     0.625690     0.362482
    0.875580     0.625690     0.362482
    0.125680     0.875590     0.362482
    0.625680     0.875590     0.362482
EA110   8.593  8.593 21.019 90.08 90.08 90.08 Sym.group:    0
1.0000
    8.593017     0.000000     0.000000
   -0.011983     8.593000     0.000000
   -0.029353    -0.029394    21.018959
   O  Cu
  21   40 
Direct
    0.950200     0.758330     0.442358
    0.049800     0.241670     0.442358
    0.241670     0.950200     0.442358
    0.758330     0.049800     0.442358
    0.500000     0.500000     0.477084
    0.000610     0.000610     0.004757
    0.500610     0.000610     0.004757
    0.000610     0.500610     0.004757
    0.500610     0.500610     0.004757
    0.250790     0.250800     0.107041
    0.750790     0.250800     0.107041
    0.250790     0.750800     0.107041
    0.750790     0.750800     0.107041
    0.000610     0.000610     0.209175
    0.500610     0.000610     0.209175
    0.000610     0.500610     0.209175
    0.500610     0.500610     0.209175
    0.250790     0.250800     0.311459
    0.750790     0.250800     0.311459
    0.250790     0.750800     0.311459
    0.750790     0.750800     0.311459
    0.376430     0.341040     0.420184
    0.623570     0.658960     0.420184
    0.658960     0.376430     0.420184
    0.341040     0.623570     0.420184
    0.836260     0.160920     0.490849
    0.163740     0.839080     0.490849
    0.839080     0.836260     0.490849
    0.160920     0.163740     0.490849
    0.125670     0.125670     0.055888
    0.625670     0.125670     0.055888
    0.375590     0.375590     0.055892
    0.875590     0.375590     0.055892
    0.125670     0.625670     0.055888
    0.625670     0.625670     0.055888
    0.375590     0.875590     0.055892
    0.875590     0.875590     0.055892
    0.375580     0.125690     0.158064
    0.875580     0.125690     0.158064
    0.125680     0.375590     0.158064
    0.625680     0.375590     0.158064
    0.375580     0.625690     0.158064
    0.875580     0.625690     0.158064
    0.125680     0.875590     0.158064
    0.625680     0.875590     0.158064
    0.125670     0.125670     0.260306
    0.625670     0.125670     0.260306
    0.375590     0.375590     0.260313
    0.875590     0.375590     0.260313
    0.125670     0.625670     0.260306
    0.625670     0.625670     0.260306
    0.375590     0.875590     0.260313
    0.875590     0.875590     0.260313
    0.375580     0.125690     0.362482
    0.875580     0.125690     0.362482
    0.125680     0.375590     0.362482
    0.625680     0.375590     0.362482
    0.375580     0.625690     0.362482
    0.875580     0.625690     0.362482
    0.125680     0.875590     0.362482
    0.625680     0.875590     0.362482
EA18    8.593  8.593 21.019 90.08 90.08 90.08 Sym.group:    0
1.0000
    8.593017     0.000000     0.000000
   -0.011983     8.593000     0.000000
   -0.029353    -0.029394    21.018959
   O  Cu
  21   40 
Direct
    0.404210     0.785840     0.438557
    0.595790     0.214160     0.438557
    0.214160     0.595790     0.438557
    0.785840     0.404210     0.438557
    0.500000     0.500000     0.401056
    0.000610     0.000610     0.004757
    0.500610     0.000610     0.004757
    0.000610     0.500610     0.004757
    0.500610     0.500610     0.004757
    0.250790     0.250800     0.107041
    0.750790     0.250800     0.107041
    0.250790     0.750800     0.107041
    0.750790     0.750800     0.107041
    0.000610     0.000610     0.209175
    0.500610     0.000610     0.209175
    0.000610     0.500610     0.209175
    0.500610     0.500610     0.209175
    0.250790     0.250800     0.311459
    0.750790     0.250800     0.311459
    0.250790     0.750800     0.311459
    0.750790     0.750800     0.311459
    0.001020     0.414850     0.462078
    0.998980     0.585150     0.462078
    0.585150     0.998980     0.462078
    0.414850     0.001020     0.462078
    0.353140     0.104820     0.409138
    0.646860     0.895180     0.409138
    0.895180     0.646860     0.409138
    0.104820     0.353140     0.409138
    0.125670     0.125670     0.055888
    0.625670     0.125670     0.055888
    0.375590     0.375590     0.055892
    0.875590     0.375590     0.055892
    0.125670     0.625670     0.055888
    0.625670     0.625670     0.055888
    0.375590     0.875590     0.055892
    0.875590     0.875590     0.055892
    0.375580     0.125690     0.158064
    0.875580     0.125690     0.158064
    0.125680     0.375590     0.158064
    0.625680     0.375590     0.158064
    0.375580     0.625690     0.158064
    0.875580     0.625690     0.158064
    0.125680     0.875590     0.158064
    0.625680     0.875590     0.158064
    0.125670     0.125670     0.260306
    0.625670     0.125670     0.260306
    0.375590     0.375590     0.260313
    0.875590     0.375590     0.260313
    0.125670     0.625670     0.260306
    0.625670     0.625670     0.260306
    0.375590     0.875590     0.260313
    0.875590     0.875590     0.260313
    0.375580     0.125690     0.362482
    0.875580     0.125690     0.362482
    0.125680     0.375590     0.362482
    0.625680     0.375590     0.362482
    0.375580     0.625690     0.362482
    0.875580     0.625690     0.362482
    0.125680     0.875590     0.362482
    0.625680     0.875590     0.362482
EA120   8.593  8.593 21.019 90.08 90.08 90.08 Sym.group:    0
1.0000
    8.593017     0.000000     0.000000
   -0.011983     8.593000     0.000000
   -0.029353    -0.029394    21.018959
   O  Cu
  21   40 
Direct
    0.419910     0.868950     0.415227
    0.000000     0.272560     0.465960
    0.272560     0.000000     0.465960
    0.000000     0.000000     0.410128
    0.000000     0.000000     0.488118
    0.000610     0.000610     0.004757
    0.500610     0.000610     0.004757
    0.000610     0.500610     0.004757
    0.500610     0.500610     0.004757
    0.250790     0.250800     0.107041
    0.750790     0.250800     0.107041
    0.250790     0.750800     0.107041
    0.750790     0.750800     0.107041
    0.000610     0.000610     0.209175
    0.500610     0.000610     0.209175
    0.000610     0.500610     0.209175
    0.500610     0.500610     0.209175
    0.250790     0.250800     0.311459
    0.750790     0.250800     0.311459
    0.250790     0.750800     0.311459
    0.750790     0.750800     0.311459
    0.868950     0.419910     0.415227
    0.580090     0.449030     0.415227
    0.550970     0.131050     0.415227
    0.131050     0.550970     0.415227
    0.449030     0.580090     0.415227
    0.727440     0.727440     0.465960
    0.333330     0.666670     0.424650
    0.666670     0.333330     0.424650
    0.125670     0.125670     0.055888
    0.625670     0.125670     0.055888
    0.375590     0.375590     0.055892
    0.875590     0.375590     0.055892
    0.125670     0.625670     0.055888
    0.625670     0.625670     0.055888
    0.375590     0.875590     0.055892
    0.875590     0.875590     0.055892
    0.375580     0.125690     0.158064
    0.875580     0.125690     0.158064
    0.125680     0.375590     0.158064
    0.625680     0.375590     0.158064
    0.375580     0.625690     0.158064
    0.875580     0.625690     0.158064
    0.125680     0.875590     0.158064
    0.625680     0.875590     0.158064
    0.125670     0.125670     0.260306
    0.625670     0.125670     0.260306
    0.375590     0.375590     0.260313
    0.875590     0.375590     0.260313
    0.125670     0.625670     0.260306
    0.625670     0.625670     0.260306
    0.375590     0.875590     0.260313
    0.875590     0.875590     0.260313
    0.375580     0.125690     0.362482
    0.875580     0.125690     0.362482
    0.125680     0.375590     0.362482
    0.625680     0.375590     0.362482
    0.375580     0.625690     0.362482
    0.875580     0.625690     0.362482
    0.125680     0.875590     0.362482
    0.625680     0.875590     0.362482
EA65    8.593  8.593 21.019 90.08 90.08 90.08 Sym.group:    0
1.0000
    8.593017     0.000000     0.000000
   -0.011983     8.593000     0.000000
   -0.029353    -0.029394    21.018959
   O  Cu
  21   40 
Direct
    0.641700     0.641700     0.477497
    0.358300     0.358300     0.477497
    0.358300     0.641700     0.477497
    0.641700     0.358300     0.477497
    0.000000     0.000000     0.451305
    0.000610     0.000610     0.004757
    0.500610     0.000610     0.004757
    0.000610     0.500610     0.004757
    0.500610     0.500610     0.004757
    0.250790     0.250800     0.107041
    0.750790     0.250800     0.107041
    0.250790     0.750800     0.107041
    0.750790     0.750800     0.107041
    0.000610     0.000610     0.209175
    0.500610     0.000610     0.209175
    0.000610     0.500610     0.209175
    0.500610     0.500610     0.209175
    0.250790     0.250800     0.311459
    0.750790     0.250800     0.311459
    0.250790     0.750800     0.311459
    0.750790     0.750800     0.311459
    0.128090     0.227530     0.392555
    0.871910     0.772470     0.392555
    0.772470     0.128090     0.392555
    0.227530     0.871910     0.392555
    0.871910     0.227530     0.392555
    0.128090     0.772470     0.392555
    0.227530     0.128090     0.392555
    0.772470     0.871910     0.392555
    0.125670     0.125670     0.055888
    0.625670     0.125670     0.055888
    0.375590     0.375590     0.055892
    0.875590     0.375590     0.055892
    0.125670     0.625670     0.055888
    0.625670     0.625670     0.055888
    0.375590     0.875590     0.055892
    0.875590     0.875590     0.055892
    0.375580     0.125690     0.158064
    0.875580     0.125690     0.158064
    0.125680     0.375590     0.158064
    0.625680     0.375590     0.158064
    0.375580     0.625690     0.158064
    0.875580     0.625690     0.158064
    0.125680     0.875590     0.158064
    0.625680     0.875590     0.158064
    0.125670     0.125670     0.260306
    0.625670     0.125670     0.260306
    0.375590     0.375590     0.260313
    0.875590     0.375590     0.260313
    0.125670     0.625670     0.260306
    0.625670     0.625670     0.260306
    0.375590     0.875590     0.260313
    0.875590     0.875590     0.260313
    0.375580     0.125690     0.362482
    0.875580     0.125690     0.362482
    0.125680     0.375590     0.362482
    0.625680     0.375590     0.362482
    0.375580     0.625690     0.362482
    0.875580     0.625690     0.362482
    0.125680     0.875590     0.362482
    0.625680     0.875590     0.362482
EA129   8.593  8.593 21.019 90.08 90.08 90.08 Sym.group:    0
1.0000
    8.593017     0.000000     0.000000
   -0.011983     8.593000     0.000000
   -0.029353    -0.029394    21.018959
   O  Cu
  21   40 
Direct
    0.400000     0.800000     0.429088
    0.800000     0.800000     0.429088
    0.300000     0.600000     0.446984
    0.846550     0.166190     0.440209
    0.242600     0.740160     0.418598
    0.000610     0.000610     0.004757
    0.500610     0.000610     0.004757
    0.000610     0.500610     0.004757
    0.500610     0.500610     0.004757
    0.250790     0.250800     0.107041
    0.750790     0.250800     0.107041
    0.250790     0.750800     0.107041
    0.750790     0.750800     0.107041
    0.000610     0.000610     0.209175
    0.500610     0.000610     0.209175
    0.000610     0.500610     0.209175
    0.500610     0.500610     0.209175
    0.250790     0.250800     0.311459
    0.750790     0.250800     0.311459
    0.250790     0.750800     0.311459
    0.750790     0.750800     0.311459
    0.600000     0.800000     0.475868
    0.600000     0.400000     0.429088
    0.331870     0.145490     0.480739
    0.101140     0.580810     0.400031
    0.101140     0.870250     0.441342
    0.367970     0.081440     0.441727
    0.032670     0.621190     0.454169
    0.032670     0.490940     0.435579
    0.125670     0.125670     0.055888
    0.625670     0.125670     0.055888
    0.375590     0.375590     0.055892
    0.875590     0.375590     0.055892
    0.125670     0.625670     0.055888
    0.625670     0.625670     0.055888
    0.375590     0.875590     0.055892
    0.875590     0.875590     0.055892
    0.375580     0.125690     0.158064
    0.875580     0.125690     0.158064
    0.125680     0.375590     0.158064
    0.625680     0.375590     0.158064
    0.375580     0.625690     0.158064
    0.875580     0.625690     0.158064
    0.125680     0.875590     0.158064
    0.625680     0.875590     0.158064
    0.125670     0.125670     0.260306
    0.625670     0.125670     0.260306
    0.375590     0.375590     0.260313
    0.875590     0.375590     0.260313
    0.125670     0.625670     0.260306
    0.625670     0.625670     0.260306
    0.375590     0.875590     0.260313
    0.875590     0.875590     0.260313
    0.375580     0.125690     0.362482
    0.875580     0.125690     0.362482
    0.125680     0.375590     0.362482
    0.625680     0.375590     0.362482
    0.375580     0.625690     0.362482
    0.875580     0.625690     0.362482
    0.125680     0.875590     0.362482
    0.625680     0.875590     0.362482
EA11    8.593  8.593 21.019 90.08 90.08 90.08 Sym.group:    0
1.0000
    8.593017     0.000000     0.000000
   -0.011983     8.593000     0.000000
   -0.029353    -0.029394    21.018959
   O  Cu
  21   40 
Direct
    0.272560     1.000000     0.465960
    1.000000     0.272560     0.465960
    0.727440     0.727440     0.465960
    0.000000     0.000000     0.410128
    0.000000     0.000000     0.488118
    0.000610     0.000610     0.004757
    0.500610     0.000610     0.004757
    0.000610     0.500610     0.004757
    0.500610     0.500610     0.004757
    0.250790     0.250800     0.107041
    0.750790     0.250800     0.107041
    0.250790     0.750800     0.107041
    0.750790     0.750800     0.107041
    0.000610     0.000610     0.209175
    0.500610     0.000610     0.209175
    0.000610     0.500610     0.209175
    0.500610     0.500610     0.209175
    0.250790     0.250800     0.311459
    0.750790     0.250800     0.311459
    0.250790     0.750800     0.311459
    0.750790     0.750800     0.311459
    0.868950     0.419910     0.415227
    0.580090     0.449030     0.415227
    0.550970     0.131050     0.415227
    0.131050     0.550970     0.415227
    0.449030     0.580090     0.415227
    0.419910     0.868950     0.415227
    0.333330     0.666670     0.424650
    0.666670     0.333330     0.424650
    0.125670     0.125670     0.055888
    0.625670     0.125670     0.055888
    0.375590     0.375590     0.055892
    0.875590     0.375590     0.055892
    0.125670     0.625670     0.055888
    0.625670     0.625670     0.055888
    0.375590     0.875590     0.055892
    0.875590     0.875590     0.055892
    0.375580     0.125690     0.158064
    0.875580     0.125690     0.158064
    0.125680     0.375590     0.158064
    0.625680     0.375590     0.158064
    0.375580     0.625690     0.158064
    0.875580     0.625690     0.158064
    0.125680     0.875590     0.158064
    0.625680     0.875590     0.158064
    0.125670     0.125670     0.260306
    0.625670     0.125670     0.260306
    0.375590     0.375590     0.260313
    0.875590     0.375590     0.260313
    0.125670     0.625670     0.260306
    0.625670     0.625670     0.260306
    0.375590     0.875590     0.260313
    0.875590     0.875590     0.260313
    0.375580     0.125690     0.362482
    0.875580     0.125690     0.362482
    0.125680     0.375590     0.362482
    0.625680     0.375590     0.362482
    0.375580     0.625690     0.362482
    0.875580     0.625690     0.362482
    0.125680     0.875590     0.362482
    0.625680     0.875590     0.362482
EA121   8.593  8.593 21.019 90.08 90.08 90.08 Sym.group:    0
1.0000
    8.593017     0.000000     0.000000
   -0.011983     8.593000     0.000000
   -0.029353    -0.029394    21.018959
   O  Cu
  21   40 
Direct
    0.594659     0.563831     0.420339
    0.528788     0.034825     0.416288
    0.970319     0.495661     0.423497
    0.000000     0.000000     0.488970
    0.667916     0.334494     0.475324
    0.000610     0.000610     0.004757
    0.500610     0.000610     0.004757
    0.000610     0.500610     0.004757
    0.500610     0.500610     0.004757
    0.250790     0.250800     0.107041
    0.750790     0.250800     0.107041
    0.250790     0.750800     0.107041
    0.750790     0.750800     0.107041
    0.000610     0.000610     0.209175
    0.500610     0.000610     0.209175
    0.000610     0.500610     0.209175
    0.500610     0.500610     0.209175
    0.250790     0.250800     0.311459
    0.750790     0.250800     0.311459
    0.250790     0.750800     0.311459
    0.750790     0.750800     0.311459
    0.005721     0.349219     0.458898
    0.456805     0.598123     0.449317
    0.318426     0.028864     0.462828
    0.285404     0.138963     0.469078
    0.672265     0.014193     0.459755
    0.021089     0.634178     0.456043
    0.471572     0.801067     0.462367
    0.673708     0.339912     0.402878
    0.125670     0.125670     0.055888
    0.625670     0.125670     0.055888
    0.375590     0.375590     0.055892
    0.875590     0.375590     0.055892
    0.125670     0.625670     0.055888
    0.625670     0.625670     0.055888
    0.375590     0.875590     0.055892
    0.875590     0.875590     0.055892
    0.375580     0.125690     0.158064
    0.875580     0.125690     0.158064
    0.125680     0.375590     0.158064
    0.625680     0.375590     0.158064
    0.375580     0.625690     0.158064
    0.875580     0.625690     0.158064
    0.125680     0.875590     0.158064
    0.625680     0.875590     0.158064
    0.125670     0.125670     0.260306
    0.625670     0.125670     0.260306
    0.375590     0.375590     0.260313
    0.875590     0.375590     0.260313
    0.125670     0.625670     0.260306
    0.625670     0.625670     0.260306
    0.375590     0.875590     0.260313
    0.875590     0.875590     0.260313
    0.375580     0.125690     0.362482
    0.875580     0.125690     0.362482
    0.125680     0.375590     0.362482
    0.625680     0.375590     0.362482
    0.375580     0.625690     0.362482
    0.875580     0.625690     0.362482
    0.125680     0.875590     0.362482
    0.625680     0.875590     0.362482
EA130   8.593  8.593 21.019 90.08 90.08 90.08 Sym.group:    0
1.0000
    8.593017     0.000000     0.000000
   -0.011983     8.593000     0.000000
   -0.029353    -0.029394    21.018959
   O  Cu
  21   40 
Direct
    0.100000     0.500000     0.506217
    0.000000     0.000000     0.410128
    0.200000     0.200000     0.429088
    0.800000     0.800000     0.429088
    0.900000     0.100000     0.484468
    0.000610     0.000610     0.004757
    0.500610     0.000610     0.004757
    0.000610     0.500610     0.004757
    0.500610     0.500610     0.004757
    0.250790     0.250800     0.107041
    0.750790     0.250800     0.107041
    0.250790     0.750800     0.107041
    0.750790     0.750800     0.107041
    0.000610     0.000610     0.209175
    0.500610     0.000610     0.209175
    0.000610     0.500610     0.209175
    0.500610     0.500610     0.209175
    0.250790     0.250800     0.311459
    0.750790     0.250800     0.311459
    0.250790     0.750800     0.311459
    0.750790     0.750800     0.311459
    0.300000     0.900000     0.530160
    0.868950     0.419910     0.415227
    0.580090     0.449030     0.415227
    0.550970     0.131050     0.415227
    0.131050     0.550970     0.415227
    0.449030     0.580090     0.415227
    0.419910     0.868950     0.415227
    0.333330     0.666670     0.424650
    0.125670     0.125670     0.055888
    0.625670     0.125670     0.055888
    0.375590     0.375590     0.055892
    0.875590     0.375590     0.055892
    0.125670     0.625670     0.055888
    0.625670     0.625670     0.055888
    0.375590     0.875590     0.055892
    0.875590     0.875590     0.055892
    0.375580     0.125690     0.158064
    0.875580     0.125690     0.158064
    0.125680     0.375590     0.158064
    0.625680     0.375590     0.158064
    0.375580     0.625690     0.158064
    0.875580     0.625690     0.158064
    0.125680     0.875590     0.158064
    0.625680     0.875590     0.158064
    0.125670     0.125670     0.260306
    0.625670     0.125670     0.260306
    0.375590     0.375590     0.260313
    0.875590     0.375590     0.260313
    0.125670     0.625670     0.260306
    0.625670     0.625670     0.260306
    0.375590     0.875590     0.260313
    0.875590     0.875590     0.260313
    0.375580     0.125690     0.362482
    0.875580     0.125690     0.362482
    0.125680     0.375590     0.362482
    0.625680     0.375590     0.362482
    0.375580     0.625690     0.362482
    0.875580     0.625690     0.362482
    0.125680     0.875590     0.362482
    0.625680     0.875590     0.362482
EA117   8.593  8.593 21.019 90.08 90.08 90.08 Sym.group:    0
1.0000
    8.593017     0.000000     0.000000
   -0.011983     8.593000     0.000000
   -0.029353    -0.029394    21.018959
   O  Cu
  21   40 
Direct
    0.641700     0.641700     0.477497
    0.227530     0.128090     0.392555
    0.358300     0.641700     0.477497
    0.641700     0.358300     0.477497
    0.000000     0.000000     0.451305
    0.000610     0.000610     0.004757
    0.500610     0.000610     0.004757
    0.000610     0.500610     0.004757
    0.500610     0.500610     0.004757
    0.250790     0.250800     0.107041
    0.750790     0.250800     0.107041
    0.250790     0.750800     0.107041
    0.750790     0.750800     0.107041
    0.000610     0.000610     0.209175
    0.500610     0.000610     0.209175
    0.000610     0.500610     0.209175
    0.500610     0.500610     0.209175
    0.250790     0.250800     0.311459
    0.750790     0.250800     0.311459
    0.250790     0.750800     0.311459
    0.750790     0.750800     0.311459
    0.128090     0.227530     0.392555
    0.871910     0.772470     0.392555
    0.772470     0.128090     0.392555
    0.227530     0.871910     0.392555
    0.871910     0.227530     0.392555
    0.128090     0.772470     0.392555
    0.358300     0.358300     0.477497
    0.772470     0.871910     0.392555
    0.125670     0.125670     0.055888
    0.625670     0.125670     0.055888
    0.375590     0.375590     0.055892
    0.875590     0.375590     0.055892
    0.125670     0.625670     0.055888
    0.625670     0.625670     0.055888
    0.375590     0.875590     0.055892
    0.875590     0.875590     0.055892
    0.375580     0.125690     0.158064
    0.875580     0.125690     0.158064
    0.125680     0.375590     0.158064
    0.625680     0.375590     0.158064
    0.375580     0.625690     0.158064
    0.875580     0.625690     0.158064
    0.125680     0.875590     0.158064
    0.625680     0.875590     0.158064
    0.125670     0.125670     0.260306
    0.625670     0.125670     0.260306
    0.375590     0.375590     0.260313
    0.875590     0.375590     0.260313
    0.125670     0.625670     0.260306
    0.625670     0.625670     0.260306
    0.375590     0.875590     0.260313
    0.875590     0.875590     0.260313
    0.375580     0.125690     0.362482
    0.875580     0.125690     0.362482
    0.125680     0.375590     0.362482
    0.625680     0.375590     0.362482
    0.375580     0.625690     0.362482
    0.875580     0.625690     0.362482
    0.125680     0.875590     0.362482
    0.625680     0.875590     0.362482
EA119   8.593  8.593 21.019 90.08 90.08 90.08 Sym.group:    0
1.0000
    8.593017     0.000000     0.000000
   -0.011983     8.593000     0.000000
   -0.029353    -0.029394    21.018959
   O  Cu
  21   40 
Direct
    0.411201     0.630183     0.461367
    0.008129     0.801725     0.501287
    0.722821     0.543663     0.431003
    0.722821     0.043663     0.398550
    0.722821     0.043663     0.448175
    0.000610     0.000610     0.004757
    0.500610     0.000610     0.004757
    0.000610     0.500610     0.004757
    0.500610     0.500610     0.004757
    0.250790     0.250800     0.107041
    0.750790     0.250800     0.107041
    0.250790     0.750800     0.107041
    0.750790     0.750800     0.107041
    0.000610     0.000610     0.209175
    0.500610     0.000610     0.209175
    0.000610     0.500610     0.209175
    0.500610     0.500610     0.209175
    0.250790     0.250800     0.311459
    0.750790     0.250800     0.311459
    0.250790     0.750800     0.311459
    0.750790     0.750800     0.311459
    0.093279     0.300705     0.419581
    0.154989     0.196905     0.509369
    0.620951     0.355283     0.461367
    0.309341     0.941793     0.461367
    0.103919     0.515885     0.396060
    0.824691     0.732043     0.461367
    0.389491     0.376993     0.482053
    0.612949     0.654865     0.509369
    0.125670     0.125670     0.055888
    0.625670     0.125670     0.055888
    0.375590     0.375590     0.055892
    0.875590     0.375590     0.055892
    0.125670     0.625670     0.055888
    0.625670     0.625670     0.055888
    0.375590     0.875590     0.055892
    0.875590     0.875590     0.055892
    0.375580     0.125690     0.158064
    0.875580     0.125690     0.158064
    0.125680     0.375590     0.158064
    0.625680     0.375590     0.158064
    0.375580     0.625690     0.158064
    0.875580     0.625690     0.158064
    0.125680     0.875590     0.158064
    0.625680     0.875590     0.158064
    0.125670     0.125670     0.260306
    0.625670     0.125670     0.260306
    0.375590     0.375590     0.260313
    0.875590     0.375590     0.260313
    0.125670     0.625670     0.260306
    0.625670     0.625670     0.260306
    0.375590     0.875590     0.260313
    0.875590     0.875590     0.260313
    0.375580     0.125690     0.362482
    0.875580     0.125690     0.362482
    0.125680     0.375590     0.362482
    0.625680     0.375590     0.362482
    0.375580     0.625690     0.362482
    0.875580     0.625690     0.362482
    0.125680     0.875590     0.362482
    0.625680     0.875590     0.362482
EA91    8.593  8.593 21.019 90.08 90.08 90.08 Sym.group:    0
1.0000
    8.593017     0.000000     0.000000
   -0.011983     8.593000     0.000000
   -0.029353    -0.029394    21.018959
   O  Cu
  21   40 
Direct
    0.421193     0.277419     0.425589
    0.815894     0.512460     0.452144
    0.543334     0.785020     0.452144
    0.543334     0.512460     0.396312
    0.543334     0.512460     0.474302
    0.000610     0.000610     0.004757
    0.500610     0.000610     0.004757
    0.000610     0.500610     0.004757
    0.500610     0.500610     0.004757
    0.250790     0.250800     0.107041
    0.750790     0.250800     0.107041
    0.250790     0.750800     0.107041
    0.750790     0.750800     0.107041
    0.000610     0.000610     0.209175
    0.500610     0.000610     0.209175
    0.000610     0.500610     0.209175
    0.500610     0.500610     0.209175
    0.250790     0.250800     0.311459
    0.750790     0.250800     0.311459
    0.250790     0.750800     0.311459
    0.750790     0.750800     0.311459
    0.922213     0.192269     0.486611
    0.026013     0.130559     0.433671
    0.412284     0.932370     0.401411
    0.123424     0.961490     0.401411
    0.094304     0.643510     0.401411
    0.963244     0.381410     0.401411
    0.210004     0.845790     0.410834
    0.920173     0.362569     0.486611
    0.125670     0.125670     0.055888
    0.625670     0.125670     0.055888
    0.375590     0.375590     0.055892
    0.875590     0.375590     0.055892
    0.125670     0.625670     0.055888
    0.625670     0.625670     0.055888
    0.375590     0.875590     0.055892
    0.875590     0.875590     0.055892
    0.375580     0.125690     0.158064
    0.875580     0.125690     0.158064
    0.125680     0.375590     0.158064
    0.625680     0.375590     0.158064
    0.375580     0.625690     0.158064
    0.875580     0.625690     0.158064
    0.125680     0.875590     0.158064
    0.625680     0.875590     0.158064
    0.125670     0.125670     0.260306
    0.625670     0.125670     0.260306
    0.375590     0.375590     0.260313
    0.875590     0.375590     0.260313
    0.125670     0.625670     0.260306
    0.625670     0.625670     0.260306
    0.375590     0.875590     0.260313
    0.875590     0.875590     0.260313
    0.375580     0.125690     0.362482
    0.875580     0.125690     0.362482
    0.125680     0.375590     0.362482
    0.625680     0.375590     0.362482
    0.375580     0.625690     0.362482
    0.875580     0.625690     0.362482
    0.125680     0.875590     0.362482
    0.625680     0.875590     0.362482
EA33    8.593  8.593 21.019 90.08 90.08 90.08 Sym.group:    0
1.0000
    8.593017     0.000000     0.000000
   -0.011983     8.593000     0.000000
   -0.029353    -0.029394    21.018959
   O  Cu
  21   40 
Direct
    0.401390     0.065700     0.449048
    0.598610     0.934300     0.449048
    0.598610     0.065700     0.449048
    0.401390     0.934300     0.449048
    0.000000     0.500000     0.501091
    0.000610     0.000610     0.004757
    0.500610     0.000610     0.004757
    0.000610     0.500610     0.004757
    0.500610     0.500610     0.004757
    0.250790     0.250800     0.107041
    0.750790     0.250800     0.107041
    0.250790     0.750800     0.107041
    0.750790     0.750800     0.107041
    0.000610     0.000610     0.209175
    0.500610     0.000610     0.209175
    0.000610     0.500610     0.209175
    0.500610     0.500610     0.209175
    0.250790     0.250800     0.311459
    0.750790     0.250800     0.311459
    0.250790     0.750800     0.311459
    0.750790     0.750800     0.311459
    0.183690     0.165560     0.410062
    0.816310     0.834440     0.410062
    0.816310     0.165560     0.410062
    0.183690     0.834440     0.410062
    0.244690     0.500000     0.464364
    0.755310     0.500000     0.464364
    0.000000     0.000000     0.420671
    0.500000     0.500000     0.413377
    0.125670     0.125670     0.055888
    0.625670     0.125670     0.055888
    0.375590     0.375590     0.055892
    0.875590     0.375590     0.055892
    0.125670     0.625670     0.055888
    0.625670     0.625670     0.055888
    0.375590     0.875590     0.055892
    0.875590     0.875590     0.055892
    0.375580     0.125690     0.158064
    0.875580     0.125690     0.158064
    0.125680     0.375590     0.158064
    0.625680     0.375590     0.158064
    0.375580     0.625690     0.158064
    0.875580     0.625690     0.158064
    0.125680     0.875590     0.158064
    0.625680     0.875590     0.158064
    0.125670     0.125670     0.260306
    0.625670     0.125670     0.260306
    0.375590     0.375590     0.260313
    0.875590     0.375590     0.260313
    0.125670     0.625670     0.260306
    0.625670     0.625670     0.260306
    0.375590     0.875590     0.260313
    0.875590     0.875590     0.260313
    0.375580     0.125690     0.362482
    0.875580     0.125690     0.362482
    0.125680     0.375590     0.362482
    0.625680     0.375590     0.362482
    0.375580     0.625690     0.362482
    0.875580     0.625690     0.362482
    0.125680     0.875590     0.362482
    0.625680     0.875590     0.362482
EA42    8.593  8.593 21.019 90.08 90.08 90.08 Sym.group:    0
1.0000
    8.593017     0.000000     0.000000
   -0.011983     8.593000     0.000000
   -0.029353    -0.029394    21.018959
   O  Cu
  21   40 
Direct
    0.544044     0.041977     0.417937
    0.544044     0.541977     0.417937
    0.044044     0.541977     0.417937
    0.044044     0.041977     0.435109
    0.044044     0.041977     0.385484
    0.000610     0.000610     0.004757
    0.500610     0.000610     0.004757
    0.000610     0.500610     0.004757
    0.500610     0.500610     0.004757
    0.250790     0.250800     0.107041
    0.750790     0.250800     0.107041
    0.250790     0.750800     0.107041
    0.750790     0.750800     0.107041
    0.000610     0.000610     0.209175
    0.500610     0.000610     0.209175
    0.000610     0.500610     0.209175
    0.500610     0.500610     0.209175
    0.250790     0.250800     0.311459
    0.750790     0.250800     0.311459
    0.250790     0.750800     0.311459
    0.750790     0.750800     0.311459
    0.457524     0.143847     0.448301
    0.355664     0.455457     0.448301
    0.732424     0.628497     0.448301
    0.710714     0.375307     0.468987
    0.680283     0.670499     0.386703
    0.287943     0.772339     0.386703
    0.186103     0.670499     0.386703
    0.578443     0.772339     0.386703
    0.125670     0.125670     0.055888
    0.625670     0.125670     0.055888
    0.375590     0.375590     0.055892
    0.875590     0.375590     0.055892
    0.125670     0.625670     0.055888
    0.625670     0.625670     0.055888
    0.375590     0.875590     0.055892
    0.875590     0.875590     0.055892
    0.375580     0.125690     0.158064
    0.875580     0.125690     0.158064
    0.125680     0.375590     0.158064
    0.625680     0.375590     0.158064
    0.375580     0.625690     0.158064
    0.875580     0.625690     0.158064
    0.125680     0.875590     0.158064
    0.625680     0.875590     0.158064
    0.125670     0.125670     0.260306
    0.625670     0.125670     0.260306
    0.375590     0.375590     0.260313
    0.875590     0.375590     0.260313
    0.125670     0.625670     0.260306
    0.625670     0.625670     0.260306
    0.375590     0.875590     0.260313
    0.875590     0.875590     0.260313
    0.375580     0.125690     0.362482
    0.875580     0.125690     0.362482
    0.125680     0.375590     0.362482
    0.625680     0.375590     0.362482
    0.375580     0.625690     0.362482
    0.875580     0.625690     0.362482
    0.125680     0.875590     0.362482
    0.625680     0.875590     0.362482
EA41    8.593  8.593 21.019 90.08 90.08 90.08 Sym.group:    0
1.0000
    8.593017     0.000000     0.000000
   -0.011983     8.593000     0.000000
   -0.029353    -0.029394    21.018959
   O  Cu
  21   40 
Direct
    0.103919     0.515885     0.396060
    0.008129     0.801725     0.501287
    0.722821     0.543663     0.431003
    0.722821     0.043663     0.448175
    0.722821     0.043663     0.398550
    0.000610     0.000610     0.004757
    0.500610     0.000610     0.004757
    0.000610     0.500610     0.004757
    0.500610     0.500610     0.004757
    0.250790     0.250800     0.107041
    0.750790     0.250800     0.107041
    0.250790     0.750800     0.107041
    0.750790     0.750800     0.107041
    0.000610     0.000610     0.209175
    0.500610     0.000610     0.209175
    0.000610     0.500610     0.209175
    0.500610     0.500610     0.209175
    0.250790     0.250800     0.311459
    0.750790     0.250800     0.311459
    0.250790     0.750800     0.311459
    0.750790     0.750800     0.311459
    0.093279     0.300705     0.419581
    0.154989     0.196905     0.509369
    0.620951     0.355283     0.461367
    0.309341     0.941793     0.461367
    0.411201     0.630183     0.461367
    0.824691     0.732043     0.461367
    0.389491     0.376993     0.482053
    0.612949     0.654865     0.509369
    0.125670     0.125670     0.055888
    0.625670     0.125670     0.055888
    0.375590     0.375590     0.055892
    0.875590     0.375590     0.055892
    0.125670     0.625670     0.055888
    0.625670     0.625670     0.055888
    0.375590     0.875590     0.055892
    0.875590     0.875590     0.055892
    0.375580     0.125690     0.158064
    0.875580     0.125690     0.158064
    0.125680     0.375590     0.158064
    0.625680     0.375590     0.158064
    0.375580     0.625690     0.158064
    0.875580     0.625690     0.158064
    0.125680     0.875590     0.158064
    0.625680     0.875590     0.158064
    0.125670     0.125670     0.260306
    0.625670     0.125670     0.260306
    0.375590     0.375590     0.260313
    0.875590     0.375590     0.260313
    0.125670     0.625670     0.260306
    0.625670     0.625670     0.260306
    0.375590     0.875590     0.260313
    0.875590     0.875590     0.260313
    0.375580     0.125690     0.362482
    0.875580     0.125690     0.362482
    0.125680     0.375590     0.362482
    0.625680     0.375590     0.362482
    0.375580     0.625690     0.362482
    0.875580     0.625690     0.362482
    0.125680     0.875590     0.362482
    0.625680     0.875590     0.362482
