EA20    8.593  8.593 20.019 90.08 90.08 90.08 Sym.group:    0
1.0000
    8.593017     0.000000     0.000000
   -0.011983     8.593000     0.000000
   -0.027956    -0.027995    20.018961
  Cu   O
  40   17 
Direct
    0.380301     0.902617     0.447742
    0.900875     0.404976     0.455218
    0.612382     0.089471     0.451601
    0.677629     0.638750     0.464589
    0.862779     0.144149     0.501126
    0.088852     0.638493     0.452589
    0.886416     0.877398     0.454888
    0.114614     0.098924     0.449087
    0.125670     0.125670     0.058679
    0.625670     0.125670     0.058679
    0.375590     0.375590     0.058683
    0.875590     0.375590     0.058683
    0.125670     0.625670     0.058679
    0.625670     0.625670     0.058679
    0.375590     0.875590     0.058683
    0.875590     0.875590     0.058683
    0.375580     0.125690     0.165960
    0.875580     0.125690     0.165960
    0.125680     0.375590     0.165960
    0.625680     0.375590     0.165960
    0.375580     0.625690     0.165960
    0.875580     0.625690     0.165960
    0.125680     0.875590     0.165960
    0.625680     0.875590     0.165960
    0.125670     0.125670     0.273309
    0.625670     0.125670     0.273309
    0.375590     0.375590     0.273317
    0.875590     0.375590     0.273317
    0.125670     0.625670     0.273309
    0.625670     0.625670     0.273309
    0.375590     0.875590     0.273317
    0.875590     0.875590     0.273317
    0.375580     0.125690     0.380589
    0.875580     0.125690     0.380589
    0.125680     0.375590     0.380589
    0.625680     0.375590     0.380589
    0.375580     0.625690     0.380589
    0.875580     0.625690     0.380589
    0.125680     0.875590     0.380589
    0.625680     0.875590     0.380589
    0.508228     0.509542     0.432972
    0.000610     0.000610     0.004995
    0.500610     0.000610     0.004995
    0.000610     0.500610     0.004995
    0.500610     0.500610     0.004995
    0.250790     0.250800     0.112388
    0.750790     0.250800     0.112388
    0.250790     0.750800     0.112388
    0.750790     0.750800     0.112388
    0.000610     0.000610     0.219624
    0.500610     0.000610     0.219624
    0.000610     0.500610     0.219624
    0.500610     0.500610     0.219624
    0.250790     0.250800     0.327017
    0.750790     0.250800     0.327017
    0.250790     0.750800     0.327017
    0.750790     0.750800     0.327017
