EA0    19.513 19.910 19.666 90.00 90.00 90.00 Sym.group:    0
1.0000
   19.513066     0.000000     0.000000
    0.000000    19.910042     0.000000
    0.000000     0.000000    19.666470
  18   24 
Direct
    0.499584     0.407267     0.345979
    0.408481     0.645672     0.500910
    0.650914     0.499438     0.592112
    0.499584     0.592733     0.654021
    0.408481     0.354328     0.499090
    0.650914     0.500562     0.407888
    0.499583     0.594604     0.347149
    0.599633     0.342555     0.499017
    0.341624     0.499405     0.597546
    0.499583     0.405396     0.652851
    0.599633     0.657445     0.500983
    0.341624     0.500595     0.402454
    0.689706     0.500000     0.500000
    0.317133     0.500000     0.500000
    0.499529     0.501127     0.315170
    0.499529     0.498873     0.684830
    0.501652     0.682569     0.501141
    0.501652     0.317431     0.498859
    0.557113     0.648146     0.409380
    0.441982     0.351616     0.592364
    0.406166     0.444534     0.349472
    0.592451     0.555544     0.649238
    0.349330     0.590314     0.557839
    0.650748     0.408442     0.442468
    0.349330     0.591012     0.443293
    0.650748     0.407748     0.556383
    0.441982     0.352753     0.405789
    0.557113     0.647030     0.592464
    0.406166     0.442703     0.649823
    0.592451     0.557359     0.351468
    0.349330     0.408988     0.556707
    0.650748     0.592252     0.443617
    0.557113     0.352970     0.407536
    0.441982     0.647247     0.594211
    0.592451     0.442641     0.648532
    0.406166     0.557297     0.350177
    0.557113     0.351854     0.590620
    0.441982     0.648384     0.407636
    0.592451     0.444456     0.350762
    0.406166     0.555466     0.650528
    0.650748     0.591558     0.557532
    0.349330     0.409686     0.442161
