EA1
 1.0000000000000000
     4.2326969972731279    0.0000000000000000    0.0000000000000000
     0.0000000000000000    4.2326969972731279    0.0000000000000000
     0.0000000000000000    0.0000000000000000   22.6671314443167482
 O   Cu 
   8  24
Direct
  0.7629230062716802  0.6071965156732279  0.2205837122479666
  0.2370769937283198  0.6071965156732279  0.2205837122479666
  0.2370769937283198  0.3928034843267722  0.2205837122479666
  0.3928034843267723  0.2370769937283198  0.2205837122479666
  0.6071965156732279  0.7629230062716802  0.2205837122479666
  0.3928034843267723  0.7629230062716802  0.2205837122479666
  0.6071965156732279  0.2370769937283198  0.2205837122479666
  0.7629230062716802  0.3928034843267723  0.2205837122479666
  0.5000000000000000  0.5000000000000000  0.5650254859099101
  0.6707189585634181  0.3292810414365818  0.6111973518744044
  0.6707189585634181  0.6707189585634181  0.6111973518744044
  0.3292810414365818  0.3292810414365818  0.6111973518744044
  0.3292810414365818  0.6707189585634181  0.6111973518744044
  0.5000000000000000  0.5000000000000000  0.6974398282815694
  0.5000000000000000  0.5000000000000000  0.3137711462318846
  0.8540018497712782  0.1459981502287217  0.4277133084398396
  0.8540018497712782  0.8540018497712782  0.4277133084398396
  0.1459981502287217  0.1459981502287217  0.4277133084398396
  0.1459981502287217  0.8540018497712782  0.4277133084398396
  0.7115966123076390  0.2884033876923610  0.3496501605541208
  0.7115966123076390  0.7115966123076390  0.3496501605541209
  0.2884033876923610  0.2884033876923610  0.3496501605541208
  0.2884033876923610  0.7115966123076390  0.3496501605541208
  0.6993388151772796  1.0000000000000000  0.7586200147884519
  0.3006611848227205  1.0000000000000000  0.7586200147884519
  0.3006611848227205  0.0000000000000000  0.7586200147884519
  0.0000000000000000  0.3006611848227204  0.7586200147884519
  1.0000000000000000  0.6993388151772796  0.7586200147884519
  0.0000000000000000  0.6993388151772795  0.7586200147884519
  1.0000000000000000  0.3006611848227205  0.7586200147884519
  0.6993388151772796  0.0000000000000000  0.7586200147884519
  0.5000000000000000  0.5000000000000000  0.7794162877520334
EA2
 1.0000000000000000
     9.6759803476725068    0.0000000000000000    0.0000000000000000
     0.0000000000000000    9.4675664027162068    0.0000000000000000
     0.0000000000000000    0.0000000000000000   12.2751130115677363
 O   Cu 
   8  24
Direct
  0.7583670387229351  0.7751516519022382  0.4401182373312326
  0.5627378813274966  0.2428134973415953  0.4401182373312326
  0.2094641124804976  0.6821319119850661  0.4401182373312326
  0.8403840588207654  0.9175366492606287  0.4627346089873338
  0.6423824047372957  0.0990285851821661  0.4627346089873338
  0.0478025689728682  0.6835318267861047  0.4627346089873338
  0.5101896775103097  0.5666990204096332  0.5314773479221320
  0.5101896775103097  0.5666990204096332  0.4143766461267522
  1.0000000000000000  0.6488611942408349  0.5206816924728730
  0.3349064265243443  0.0920918993288519  0.5206816924728730
  0.1956626060065850  0.9591439676592128  0.5206816924728730
  0.5720835578255900  0.8618111548774988  0.5493880219331868
  0.7293124419887654  0.3643613219193633  0.5493880219331868
  0.2291730327165741  0.4739245844320372  0.5493880219331868
  0.6514035886767809  1.0000000000000000  0.4073282254336995
  0.8067497588910950  0.2250615630761270  0.4073282254336995
  0.0724156849630534  0.4750354981527724  0.4073282254336995
  0.9604095535206316  0.9031271796756080  0.5926717745663004
  0.5701594790102977  0.0000000000000000  0.5926717745663004
  0.0000000000000000  0.7969698815532917  0.5926717745663004
  0.9152692590151642  0.6048280573984255  0.4263230967625801
  0.3399593579866378  0.1891027674298192  0.4263230967625801
  0.2753404155291274  0.9061662364006549  0.4263230967625801
  0.6511965237688757  0.6949858171193415  0.4998662807653613
  0.5483928699858176  0.3777519255179383  0.4998662807653613
  0.3309796387762362  0.6273593185916198  0.4998662807653613
  0.8465950039946942  0.7792246676832707  0.5685317701280895
  0.5220752574613184  0.1626873328421494  0.5685317701280895
  0.1618987710749167  0.7581850607034794  0.5685317701280895
  0.7352015562123322  0.9380904486879305  0.5476122842470972
  0.7123903663411510  0.1818476271539065  0.5476122842470972
  0.0829771099774462  0.5801589853870627  0.5476122842470972
EA3
 1.0000000000000000
     8.9394506316240783    0.0000000000000000    0.0000000000000000
     0.0000000000000000    8.5512165187640399    0.0000000000000000
     0.0000000000000000    0.0000000000000000   16.3962994700149451
 O   Cu 
   8  24
Direct
  0.8211201214447804  0.3061839138509120  0.5000000000000000
  0.5000000000000000  0.8876321722981758  0.5000000000000000
  0.1788798785552195  0.6938160861490880  0.5000000000000000
  0.8211201214447804  0.6938160861490880  0.5000000000000000
  0.5000000000000000  0.1123678277018241  0.5000000000000000
  0.1788798785552195  0.3061839138509121  0.5000000000000000
  0.5000000000000000  0.5000000000000000  0.6950531423786295
  0.5000000000000000  0.5000000000000000  0.3049468576213705
  0.8284145238537302  0.9053438567337629  0.5743533084375630
  0.8284145238537302  0.0946561432662370  0.4256466915624370
  0.0000000000000000  0.5946561432662368  0.5743533084375629
  1.0000000000000000  0.5946561432662368  0.4256466915624370
  0.3284145238537301  0.0000000000000000  0.4256466915624369
  0.3284145238537301  0.9999999999999998  0.5743533084375630
  0.1715854761462699  0.0946561432662370  0.5743533084375629
  0.6715854761462700  1.0000000000000000  0.4256466915624370
  0.0000000000000000  0.4053438567337630  0.4256466915624369
  1.0000000000000000  0.4053438567337631  0.5743533084375630
  0.6715854761462698  0.0000000000000002  0.5743533084375629
  0.1715854761462699  0.9053438567337629  0.4256466915624370
  0.6305832097403654  0.9341882573263327  0.6220504101790031
  0.6305832097403654  0.0658117426736672  0.3779495898209970
  0.0750205366739424  0.4011285780678499  0.6220504101790031
  0.9249794633260575  0.4011285780678499  0.3779495898209970
  0.2056037464143078  0.1646831646058173  0.3779495898209969
  0.2056037464143078  0.8353168353941826  0.6220504101790031
  0.3694167902596345  0.0658117426736672  0.6220504101790031
  0.7943962535856922  0.8353168353941827  0.3779495898209970
  0.0750205366739424  0.5988714219321499  0.3779495898209970
  0.9249794633260575  0.5988714219321500  0.6220504101790031
  0.7943962535856920  0.1646831646058174  0.6220504101790031
  0.3694167902596345  0.9341882573263327  0.3779495898209970
EA4
 1.0000000000000000
     8.9547487728597446    0.0000000000000000    0.0000000000000000
     0.0000000000000000    8.9547487728597446    0.0000000000000000
     0.0000000000000000    0.0000000000000000   12.4160928729559696
 O   Cu 
   8  24
Direct
  0.4122746355712328  0.5877253644287672  0.4027031733058890
  0.5000000000000000  0.6240624001392848  0.4027031733058890
  0.3759375998607152  0.5000000000000000  0.4027031733058890
  0.5877253644287672  0.5877253644287672  0.4027031733058890
  0.4122746355712328  0.4122746355712328  0.4027031733058890
  0.6240624001392848  0.5000000000000000  0.4027031733058890
  0.5000000000000000  0.3759375998607152  0.4027031733058890
  0.5877253644287672  0.4122746355712328  0.4027031733058890
  0.3630094426604800  0.6369905573395200  0.5418422566372355
  0.5000000000000000  0.6937339041065984  0.5418422566372355
  0.3062660958934016  0.5000000000000000  0.5418422566372355
  0.6369905573395200  0.6369905573395200  0.5418422566372355
  0.3630094426604800  0.3630094426604800  0.5418422566372355
  0.6937339041065984  0.5000000000000000  0.5418422566372355
  0.5000000000000000  0.3062660958934016  0.5418422566372355
  0.6369905573395200  0.3630094426604800  0.5418422566372355
  0.1464466094067262  0.8535533905932737  0.5972968266941111
  0.5000000000000000  1.0000000000000000  0.5972968266941111
  0.0000000000000000  0.5000000000000000  0.5972968266941111
  0.8535533905932737  0.8535533905932737  0.5972968266941111
  0.1464466094067262  0.1464466094067262  0.5972968266941111
  1.0000000000000000  0.5000000000000000  0.5972968266941111
  0.5000000000000000  0.0000000000000000  0.5972968266941111
  0.8535533905932737  0.1464466094067262  0.5972968266941111
  0.2473248167759831  0.7526751832240168  0.4269525453797633
  0.5000000000000000  0.8573366709905114  0.4269525453797633
  0.1426633290094886  0.5000000000000000  0.4269525453797633
  0.7526751832240168  0.7526751832240168  0.4269525453797633
  0.2473248167759831  0.2473248167759831  0.4269525453797633
  0.8573366709905114  0.5000000000000000  0.4269525453797633
  0.5000000000000000  0.1426633290094886  0.4269525453797633
  0.7526751832240168  0.2473248167759831  0.4269525453797633
EA5
 1.0000000000000000
     7.6811415964057170    0.0000000000000000    0.0000000000000000
     0.0000000000000000    7.6811415964057179    0.0000000000000000
     0.0000000000000000    0.0000000000000000   17.6811415964057161
 O   Cu 
   8  24
Direct
  1.0000000000000000  1.0000000000000000  0.7172128296842316
  0.0000000000000000  0.0000000000000000  0.7172128296842316
  0.0000000000000000  0.9999999999999999  0.2827871703157684
  1.0000000000000000  0.0000000000000001  0.2827871703157684
  0.0000000000000000  0.0000000000000000  0.2827871703157683
  1.0000000000000000  1.0000000000000000  0.2827871703157684
  1.0000000000000000  0.0000000000000001  0.7172128296842316
  0.0000000000000000  0.9999999999999999  0.7172128296842316
  0.5000000000000000  0.8734068910768803  0.6773439899858876
  0.5000000000000000  0.1265931089231198  0.6773439899858875
  0.5000000000000000  0.8734068910768803  0.3226560100141124
  0.5000000000000000  0.1265931089231198  0.3226560100141124
  0.9082263240244545  0.5000000000000000  0.6622175348688016
  0.9082263240244545  0.5000000000000000  0.3377824651311984
  0.0917736759755455  0.5000000000000000  0.6622175348688016
  0.0917736759755455  0.5000000000000000  0.3377824651311984
  0.8734068910768803  0.9082263240244544  0.5000000000000000
  0.1265931089231197  0.9082263240244544  0.5000000000000000
  0.8734068910768803  0.0917736759755456  0.5000000000000000
  0.1265931089231197  0.0917736759755456  0.5000000000000000
  0.5000000000000000  0.6413048894239332  0.6162269586072124
  0.5000000000000000  0.3586951105760669  0.6162269586072124
  0.5000000000000000  0.6413048894239332  0.3837730413927876
  0.5000000000000000  0.3586951105760669  0.3837730413927876
  0.7675416520657985  0.5000000000000000  0.5613864697599800
  0.7675416520657985  0.5000000000000000  0.4386135302400201
  0.2324583479342015  0.5000000000000000  0.5613864697599800
  0.2324583479342015  0.5000000000000000  0.4386135302400201
  0.6413048894239332  0.7675416520657985  0.5000000000000000
  0.3586951105760669  0.7675416520657985  0.5000000000000000
  0.6413048894239332  0.2324583479342016  0.5000000000000000
  0.3586951105760669  0.2324583479342016  0.5000000000000000
