EA164  21.484 20.694 14.235 90.00 90.00 90.00 Sym.group:    0
1.0000
   21.484447     0.000000     0.000000
    0.000000    20.694300     0.000000
    0.000000     0.000000    14.234723
   O  Cu
  18   24 
Direct
    0.519775     0.663512     0.503741
    0.626511     0.400464     0.503741
    0.353714     0.436023     0.503741
    0.384483     0.386973     0.496259
    0.652043     0.452652     0.496259
    0.463475     0.660374     0.496259
    0.347957     0.547348     0.503741
    0.615517     0.613027     0.503741
    0.536525     0.339626     0.503741
    0.373489     0.599536     0.496259
    0.480225     0.336488     0.496259
    0.646286     0.563977     0.496259
    0.478237     0.712500     0.459139
    0.688144     0.413318     0.459139
    0.333620     0.374182     0.459139
    0.321878     0.392902     0.540861
    0.678400     0.393401     0.540861
    0.499722     0.713698     0.540861
    0.321600     0.606599     0.459139
    0.678122     0.607098     0.459139
    0.500278     0.286302     0.459139
    0.311856     0.586682     0.540861
    0.521763     0.287500     0.540861
    0.666380     0.625818     0.540861
    0.609176     0.506086     0.443985
    0.450489     0.398798     0.443985
    0.440336     0.595116     0.443985
    0.559664     0.404884     0.556015
    0.549511     0.601202     0.556015
    0.390824     0.493914     0.556015
    0.402517     0.566735     0.540245
    0.604411     0.554278     0.540245
    0.493072     0.378986     0.540245
    0.390592     0.542360     0.459755
    0.519369     0.380452     0.459755
    0.590039     0.577188     0.459755
    0.480631     0.619548     0.540245
    0.609408     0.457640     0.540245
    0.409961     0.422812     0.540245
    0.395589     0.445722     0.459755
    0.597483     0.433265     0.459755
    0.506928     0.621014     0.459755
