EA1    17.890 16.575 16.575 90.00 90.00 90.00 Sym.group:    0
1.0000
   17.889858     0.000000     0.000000
    0.000000    16.574832     0.000000
    0.000000     0.000000    16.574832
   O  Cu
   4   24 
Direct
    0.646727     0.425377     0.427387     0.020428
    0.646727     0.572613     0.425377     0.020428
    0.646727     0.574623     0.572613     0.020428
    0.646727     0.427387     0.574623     0.020428
    0.353273     0.425377     0.427387     0.016072
    0.353273     0.572613     0.425377     0.016072
    0.353273     0.574623     0.572613     0.016072
    0.353273     0.427387     0.574623     0.016072
    0.431438     0.595792     0.565688     0.014897
    0.431438     0.434312     0.595792     0.014897
    0.431438     0.404208     0.434312     0.014897
    0.431438     0.565688     0.404208     0.014897
    0.568562     0.595792     0.565688     0.021060
    0.568562     0.434312     0.595792     0.021060
    0.568562     0.404208     0.434312     0.021060
    0.568562     0.565688     0.404208     0.021060
    0.371401     0.618699     0.470428     0.015484
    0.371401     0.529572     0.618699     0.015484
    0.371401     0.381301     0.529572     0.015484
    0.371401     0.470428     0.381301     0.015484
    0.628599     0.618699     0.470428     0.030549
    0.628599     0.529572     0.618699     0.030549
    0.628599     0.381301     0.529572     0.030549
    0.628599     0.470428     0.381301     0.030549
    0.500000     0.453156     0.391804     0.018415
    0.500000     0.608196     0.453156     0.018415
    0.500000     0.546844     0.608196     0.018415
    0.500000     0.391804     0.546844     0.018415
EA2    21.764 16.949 16.994 90.00 90.00 90.00 Sym.group:    0
1.0000
   21.764383     0.000000     0.000000
    0.000000    16.949004     0.000000
    0.000000     0.000000    16.993977
   O  Cu
   4   24 
Direct
    0.569207     0.510294     0.438260     0.024597
    0.481461     0.445852     0.472080     0.028322
    0.570660     0.456234     0.540968     0.026815
    0.482639     0.527103     0.555089     0.033743
    0.569935     0.560510     0.489562     0.034845
    0.448918     0.532394     0.402500     0.021830
    0.600738     0.415915     0.436434     0.022435
    0.451174     0.415646     0.561981     0.021198
    0.603007     0.531941     0.596438     0.017942
    0.450321     0.604101     0.501389     0.023799
    0.469306     0.580722     0.547521     0.042286
    0.582403     0.569569     0.435970     0.036967
    0.467434     0.462277     0.415559     0.035718
    0.583413     0.407111     0.507523     0.037150
    0.469930     0.480318     0.591743     0.037729
    0.385040     0.411464     0.513874     0.017274
    0.668277     0.483314     0.583550     0.012023
    0.385492     0.578236     0.545511     0.017645
    0.666177     0.565023     0.435162     0.011512
    0.383742     0.461963     0.422165     0.016791
    0.559587     0.380951     0.564450     0.023846
    0.495153     0.525981     0.633395     0.024040
    0.558895     0.635102     0.515171     0.016383
    0.491524     0.557519     0.377135     0.018813
    0.557344     0.400442     0.406072     0.020568
    0.443893     0.500002     0.501304     0.054804
    0.249042     0.500010     0.505830     0.006886
    0.355291     0.500006     0.503362     0.022705
EA3    17.428 17.709 17.635 90.00 90.00 90.00 Sym.group:    0
1.0000
   17.427590     0.000000     0.000000
    0.000000    17.709354     0.000000
    0.000000     0.000000    17.635467
   O  Cu
   4   24 
Direct
    0.424744     0.627728     0.577438     0.013087
    0.424744     0.466130     0.645916     0.014266
    0.424744     0.351338     0.512743     0.014265
    0.424744     0.441993     0.361960     0.013087
    0.424744     0.612811     0.401944     0.014458
    0.575256     0.627728     0.577438     0.013363
    0.575256     0.466130     0.645916     0.013546
    0.575256     0.351338     0.512743     0.013546
    0.575256     0.441993     0.361960     0.013363
    0.575256     0.612811     0.401944     0.012938
    0.500000     0.596813     0.431138     0.018104
    0.500000     0.595134     0.571181     0.021196
    0.500000     0.461984     0.612854     0.021267
    0.500000     0.381369     0.498567     0.021276
    0.500000     0.464699     0.386261     0.021402
    0.637357     0.380737     0.428927     0.011453
    0.637357     0.530459     0.364136     0.010853
    0.637357     0.638087     0.487105     0.010882
    0.637357     0.554884     0.627894     0.011460
    0.637357     0.395834     0.591938     0.011582
    0.362643     0.380737     0.428927     0.019313
    0.362643     0.530459     0.364136     0.013536
    0.362643     0.638087     0.487105     0.013311
    0.362643     0.554884     0.627894     0.019332
    0.362643     0.395834     0.591938     0.019566
    0.398701     0.500000     0.500000     0.029308
    0.601299     0.500000     0.500000     0.024263
    0.500000     0.500000     0.500000     0.029284
EA4    18.401 15.783 15.582 90.00 90.00 90.00 Sym.group:    0
1.0000
   18.401210     0.000000     0.000000
    0.000000    15.783005     0.000000
    0.000000     0.000000    15.581710
   O  Cu
   4   24 
Direct
    0.461524     0.472525     0.597961     0.027437
    0.461524     0.402508     0.524878     0.035592
    0.461524     0.429983     0.426918     0.035591
    0.461524     0.527475     0.402039     0.027437
    0.461524     0.597492     0.475122     0.028685
    0.461524     0.570017     0.573082     0.028685
    0.538476     0.472525     0.597961     0.030999
    0.538476     0.402508     0.524878     0.034356
    0.538476     0.429983     0.426918     0.034356
    0.538476     0.527475     0.402039     0.030999
    0.538476     0.597492     0.475122     0.027502
    0.538476     0.570017     0.573082     0.027502
    0.603308     0.564420     0.498364     0.039147
    0.603308     0.533609     0.555692     0.039096
    0.603308     0.469189     0.557328     0.039199
    0.603308     0.435580     0.501636     0.039320
    0.603308     0.466391     0.444308     0.039365
    0.603308     0.530811     0.442672     0.039296
    0.396692     0.564420     0.498364     0.040043
    0.396692     0.533609     0.555692     0.040868
    0.396692     0.469189     0.557328     0.043286
    0.396692     0.435580     0.501636     0.043525
    0.396692     0.466391     0.444308     0.043259
    0.396692     0.530811     0.442672     0.042236
    0.343456     0.500000     0.500000     0.054569
    0.656544     0.500000     0.500000     0.051975
    0.427186     0.500000     0.500000     0.094744
    0.572814     0.500000     0.500000     0.085970
EA5    17.712 17.741 17.741 90.00 90.00 90.00 Sym.group:    0
1.0000
   17.712454     0.000000     0.000000
    0.000000    17.740573     0.000000
    0.000000     0.000000    17.740573
   O  Cu
   4   24 
Direct
    0.561273     0.500000     0.500000     0.023858
    0.452314     0.640831     0.471399     0.030179
    0.452314     0.528601     0.640831     0.030467
    0.452314     0.359169     0.528601     0.030179
    0.452314     0.471399     0.359169     0.030477
    0.522779     0.568067     0.397241     0.020711
    0.522779     0.602759     0.568067     0.024244
    0.522779     0.431933     0.602759     0.024244
    0.522779     0.397241     0.431933     0.020711
    0.444052     0.380237     0.585827     0.035782
    0.444052     0.414173     0.380237     0.018983
    0.444052     0.619763     0.414173     0.035650
    0.444052     0.585827     0.619763     0.035809
    0.444052     0.356246     0.467689     0.035645
    0.444052     0.467689     0.643754     0.035804
    0.444052     0.643754     0.532311     0.035777
    0.444052     0.532311     0.356246     0.018982
    0.436289     0.489495     0.448272     0.034163
    0.436289     0.551728     0.489495     0.036084
    0.436289     0.510505     0.551728     0.036888
    0.436289     0.448272     0.510505     0.036084
    0.673256     0.606382     0.570467     0.008910
    0.673256     0.429533     0.606382     0.008910
    0.673256     0.393618     0.429533     0.008534
    0.673256     0.570467     0.393618     0.008534
    0.466603     0.500000     0.500000     0.064601
    0.397390     0.500000     0.500000     0.058461
    0.683768     0.500000     0.500000     0.017172
EA6    19.130 19.130 19.130 90.00 90.00 90.00 Sym.group:    0
1.0000
   19.129890     0.000000     0.000000
    0.000000    19.129890     0.000000
    0.000000     0.000000    19.129890
   O  Cu
   4   24 
Direct
    0.330373     0.500000     0.500000     0.013386
    0.669627     0.500000     0.500000     0.013386
    0.500000     0.652580     0.574113     0.013387
    0.500000     0.347420     0.425887     0.013387
    0.500000     0.574113     0.347420     0.014801
    0.500000     0.425887     0.652580     0.014801
    0.560409     0.500000     0.500000     0.045194
    0.439591     0.500000     0.500000     0.045194
    0.500000     0.445662     0.473606     0.045195
    0.500000     0.554338     0.526394     0.045195
    0.500000     0.473606     0.554338     0.045618
    0.500000     0.526394     0.445662     0.045618
    0.608154     0.355461     0.550030     0.012750
    0.391846     0.355461     0.550030     0.012750
    0.608154     0.550030     0.644539     0.012750
    0.391846     0.550030     0.644539     0.012750
    0.608154     0.449970     0.355461     0.012750
    0.391846     0.449970     0.355461     0.012750
    0.608154     0.644539     0.449970     0.012750
    0.391846     0.644539     0.449970     0.012750
    0.551157     0.431633     0.523664     0.033722
    0.448843     0.431633     0.523664     0.033722
    0.551157     0.523664     0.568367     0.033722
    0.448843     0.523664     0.568367     0.033722
    0.551157     0.476336     0.431633     0.033722
    0.448843     0.476336     0.431633     0.033722
    0.551157     0.568367     0.476336     0.033722
    0.448843     0.568367     0.476336     0.033722
EA7    18.843 19.260 16.388 90.00 90.00 90.00 Sym.group:    0
1.0000
   18.842953     0.000000     0.000000
    0.000000    19.260429     0.000000
    0.000000     0.000000    16.387603
   O  Cu
   4   24 
Direct
    0.301361     0.540869     0.457003     0.011520
    0.635496     0.647863     0.457003     0.011513
    0.563142     0.311268     0.457003     0.014206
    0.560046     0.376751     0.560830     0.023920
    0.360875     0.510750     0.560830     0.023928
    0.579078     0.612498     0.560830     0.023928
    0.379860     0.554054     0.487934     0.022993
    0.607921     0.574762     0.487934     0.023016
    0.512220     0.371184     0.487934     0.029582
    0.473347     0.608384     0.551341     0.014877
    0.609270     0.468390     0.551341     0.016168
    0.417383     0.423226     0.551341     0.015260
    0.377886     0.494664     0.506717     0.026194
    0.556333     0.606129     0.506717     0.026159
    0.565780     0.399206     0.506717     0.045723
    0.546472     0.571474     0.606754     0.018797
    0.540033     0.424890     0.606754     0.029705
    0.413495     0.503637     0.606754     0.018768
    0.449500     0.439093     0.428043     0.017039
    0.471335     0.573241     0.428043     0.016684
    0.579166     0.487666     0.428043     0.017043
    0.416115     0.601512     0.444024     0.015805
    0.631802     0.520316     0.444024     0.015922
    0.452082     0.378172     0.444024     0.016103
    0.363612     0.481569     0.410844     0.017352
    0.551879     0.624771     0.410844     0.017344
    0.584510     0.393661     0.410844     0.018118
    0.500000     0.500000     0.639529     0.021412
EA8    20.416 20.416 14.031 90.00 90.00 90.00 Sym.group:    0
1.0000
   20.416454     0.000000     0.000000
    0.000000    20.416454     0.000000
    0.000000     0.000000    14.030837
   O  Cu
   4   24 
Direct
    0.328853     0.591784     0.469561     0.012408
    0.408216     0.328853     0.469561     0.012408
    0.671147     0.408216     0.469561     0.012408
    0.591784     0.671147     0.469561     0.012408
    0.343019     0.385665     0.469561     0.015770
    0.385665     0.656981     0.469561     0.015770
    0.656981     0.614335     0.469561     0.015770
    0.614335     0.343019     0.469561     0.015770
    0.507514     0.390675     0.471104     0.035782
    0.609325     0.507514     0.471104     0.035782
    0.492486     0.609325     0.471104     0.035782
    0.390675     0.492486     0.471104     0.035782
    0.596413     0.610644     0.514881     0.028129
    0.389356     0.596413     0.514881     0.028129
    0.403587     0.389356     0.514881     0.028129
    0.610644     0.403587     0.514881     0.028129
    0.635815     0.474130     0.503103     0.023857
    0.525870     0.635815     0.503103     0.023857
    0.364185     0.525870     0.503103     0.023857
    0.474130     0.364185     0.503103     0.023857
    0.630999     0.544208     0.503103     0.022569
    0.544208     0.369001     0.503103     0.022569
    0.369001     0.455792     0.503103     0.022569
    0.455792     0.630999     0.503103     0.022569
    0.531258     0.535871     0.568688     0.022514
    0.464129     0.531258     0.568688     0.022514
    0.468742     0.464129     0.568688     0.022514
    0.535871     0.468742     0.568688     0.022514
EA9    17.892 17.826 16.548 90.00 90.00 90.00 Sym.group:    0
1.0000
   17.892443     0.000000     0.000000
    0.000000    17.825589     0.000000
    0.000000     0.000000    16.548054
   O  Cu
   4   24 
Direct
    0.430721     0.596312     0.520890     0.024200
    0.569279     0.403688     0.520890     0.024200
    0.430721     0.403688     0.520890     0.024200
    0.569279     0.596312     0.520890     0.024200
    0.646778     0.422512     0.546222     0.023425
    0.353222     0.577488     0.546222     0.023425
    0.646778     0.577488     0.546222     0.023425
    0.353222     0.422512     0.546222     0.023425
    0.541551     0.354546     0.520808     0.042481
    0.458449     0.645454     0.520808     0.042481
    0.541551     0.645454     0.520808     0.042481
    0.458449     0.354546     0.520808     0.042481
    0.406614     0.625743     0.421790     0.019064
    0.593386     0.374257     0.421790     0.019064
    0.406614     0.374257     0.421790     0.019064
    0.593386     0.625743     0.421790     0.019064
    0.397230     0.448689     0.387543     0.014848
    0.602770     0.551311     0.387543     0.014848
    0.397230     0.551311     0.387543     0.014848
    0.602770     0.448689     0.387543     0.014848
    0.366933     0.533231     0.623707     0.015717
    0.633067     0.466769     0.623707     0.015717
    0.366933     0.466769     0.623707     0.015717
    0.633067     0.533231     0.623707     0.015717
    0.390803     0.433636     0.479039     0.031609
    0.609197     0.566364     0.479039     0.031609
    0.390803     0.566364     0.479039     0.031609
    0.609197     0.433636     0.479039     0.031609
EA10   19.229 19.229 14.561 90.00 90.00 90.00 Sym.group:    0
1.0000
   19.229397     0.000000     0.000000
    0.000000    19.229397     0.000000
    0.000000     0.000000    14.560824
   O  Cu
   4   24 
Direct
    0.473172     0.427586     0.478453     0.043148
    0.427586     0.526828     0.478453     0.043148
    0.526828     0.572414     0.478453     0.043148
    0.572414     0.473172     0.478453     0.043148
    0.359238     0.552150     0.518580     0.024091
    0.552150     0.640762     0.518580     0.024091
    0.640762     0.447850     0.518580     0.024091
    0.447850     0.359238     0.518580     0.024091
    0.501795     0.423760     0.526484     0.052274
    0.423760     0.498205     0.526484     0.052274
    0.498205     0.576240     0.526484     0.052274
    0.576240     0.501795     0.526484     0.052274
    0.556667     0.448966     0.526484     0.052275
    0.551034     0.556667     0.526484     0.052275
    0.443333     0.551034     0.526484     0.052275
    0.448966     0.443333     0.526484     0.052275
    0.347936     0.430151     0.436314     0.016158
    0.430151     0.652064     0.436314     0.016158
    0.652064     0.569849     0.436314     0.016158
    0.569849     0.347936     0.436314     0.016158
    0.653171     0.570358     0.568231     0.015401
    0.570358     0.346829     0.568231     0.015401
    0.346829     0.429642     0.568231     0.015401
    0.429642     0.653171     0.568231     0.015401
    0.563115     0.670357     0.445455     0.016916
    0.670357     0.436885     0.445455     0.016916
    0.436885     0.329643     0.445455     0.016916
    0.329643     0.563115     0.445455     0.016916
EA11   22.420 23.500 13.780 90.00 90.00 90.00 Sym.group:    0
1.0000
   22.419918     0.000000     0.000000
    0.000000    23.499742     0.000000
    0.000000     0.000000    13.780188
   O  Cu
   4   24 
Direct
    0.463159     0.269601     0.523156     0.005954
    0.727563     0.584760     0.523156     0.005829
    0.309279     0.645639     0.523156     0.005774
    0.652150     0.317659     0.523156     0.005951
    0.258408     0.465460     0.523156     0.005959
    0.589443     0.716882     0.523156     0.005959
    0.659427     0.405937     0.484905     0.010221
    0.505671     0.678754     0.484905     0.008151
    0.334902     0.415309     0.484905     0.008168
    0.410794     0.342713     0.484905     0.010098
    0.401828     0.652348     0.484905     0.010043
    0.687378     0.504939     0.484905     0.010182
    0.540700     0.465335     0.480388     0.022345
    0.511117     0.550960     0.480388     0.022305
    0.448184     0.483705     0.480388     0.022311
    0.482784     0.450607     0.480388     0.022346
    0.463772     0.538920     0.480388     0.022334
    0.553443     0.510472     0.480388     0.022353
    0.508686     0.339390     0.480793     0.013272
    0.641449     0.587482     0.480793     0.012883
    0.349865     0.573129     0.480793     0.012860
    0.576254     0.356571     0.480793     0.013292
    0.331677     0.508711     0.480793     0.010468
    0.592069     0.634719     0.480793     0.010472
    0.602634     0.473624     0.563129     0.014692
    0.472625     0.597988     0.563129     0.014048
    0.424740     0.428389     0.563129     0.014115
    0.500000     0.500000     0.495158     0.066565
EA12   22.478 17.053 16.475 90.00 90.00 90.00 Sym.group:    0
1.0000
   22.477728     0.000000     0.000000
    0.000000    17.052565     0.000000
    0.000000     0.000000    16.475378
   O  Cu
   4   24 
Direct
    0.547787     0.435194     0.581691     0.018908
    0.547787     0.535948     0.598935     0.026918
    0.547787     0.600754     0.517244     0.026918
    0.547787     0.564806     0.418309     0.018908
    0.547787     0.464052     0.401065     0.020200
    0.547787     0.399246     0.482756     0.020200
    0.399819     0.419755     0.601151     0.019665
    0.399819     0.544512     0.622504     0.020140
    0.399819     0.624757     0.521353     0.020139
    0.399819     0.580245     0.398849     0.019665
    0.399819     0.455488     0.377496     0.019684
    0.399819     0.375243     0.478647     0.019683
    0.616043     0.545544     0.625345     0.019979
    0.616043     0.627650     0.521848     0.019979
    0.616043     0.582106     0.396503     0.017155
    0.616043     0.454456     0.374655     0.013098
    0.616043     0.372350     0.478152     0.013098
    0.616043     0.417894     0.603497     0.017155
    0.381114     0.510162     0.436395     0.034944
    0.381114     0.451862     0.459088     0.035077
    0.381114     0.441700     0.522693     0.034944
    0.381114     0.489838     0.563605     0.035128
    0.381114     0.548138     0.540912     0.035293
    0.381114     0.558300     0.477307     0.035128
    0.695939     0.500000     0.500000     0.016863
    0.330195     0.500000     0.500000     0.043716
    0.767861     0.500000     0.500000     0.010057
    0.537421     0.500000     0.500000     0.046093
EA13   22.165 23.393 14.840 90.00 90.00 90.00 Sym.group:    0
1.0000
   22.164948     0.000000     0.000000
    0.000000    23.393311     0.000000
    0.000000     0.000000    14.840148
   O  Cu
   4   24 
Direct
    0.596979     0.616657     0.537752     0.018212
    0.558138     0.362096     0.537752     0.016640
    0.344884     0.521248     0.537752     0.016613
    0.642913     0.560963     0.462248     0.018184
    0.372822     0.586786     0.462248     0.018197
    0.484265     0.352252     0.462248     0.018196
    0.596979     0.616657     0.462248     0.031749
    0.558138     0.362096     0.462248     0.029016
    0.344884     0.521248     0.462248     0.029020
    0.642913     0.560963     0.537752     0.031705
    0.372822     0.586786     0.537752     0.020983
    0.484265     0.352252     0.537752     0.020981
    0.431592     0.558854     0.425872     0.017152
    0.587998     0.526705     0.425872     0.022953
    0.480410     0.414440     0.425872     0.017145
    0.543738     0.422880     0.574128     0.022546
    0.548621     0.574450     0.574128     0.022964
    0.407641     0.502670     0.574128     0.022545
    0.431592     0.558854     0.574128     0.016893
    0.587998     0.526705     0.574128     0.021053
    0.480410     0.414440     0.574128     0.016922
    0.543738     0.422880     0.425872     0.016958
    0.548621     0.574450     0.425872     0.020968
    0.407641     0.502670     0.425872     0.016855
    0.240082     0.599471     0.500000     0.007890
    0.720877     0.663541     0.500000     0.010207
    0.539041     0.236988     0.500000     0.007875
    0.500000     0.500000     0.500000     0.032946
EA14   20.415 20.035 15.850 90.00 90.00 90.00 Sym.group:    0
1.0000
   20.415282     0.000000     0.000000
    0.000000    20.034733     0.000000
    0.000000     0.000000    15.850072
   O  Cu
   4   24 
Direct
    0.390672     0.497636     0.569948     0.017081
    0.468423     0.393318     0.569948     0.018942
    0.589812     0.436431     0.569948     0.018942
    0.587084     0.567395     0.569948     0.017080
    0.464009     0.605222     0.569948     0.019190
    0.495588     0.611339     0.430052     0.016778
    0.602553     0.538681     0.430052     0.017206
    0.567793     0.412567     0.430052     0.017179
    0.439346     0.407282     0.430052     0.017183
    0.394721     0.530130     0.430052     0.016996
    0.418552     0.477574     0.479665     0.027466
    0.495762     0.414137     0.479665     0.027650
    0.578829     0.469360     0.479665     0.027618
    0.552957     0.566926     0.479665     0.027000
    0.453900     0.572004     0.479665     0.025439
    0.516955     0.584218     0.520335     0.026226
    0.583842     0.509594     0.520335     0.031786
    0.534862     0.421711     0.520335     0.031735
    0.437704     0.442021     0.520335     0.031661
    0.426636     0.542456     0.520335     0.030399
    0.301367     0.525699     0.500000     0.011491
    0.414633     0.315442     0.500000     0.011582
    0.645874     0.360238     0.500000     0.011583
    0.675522     0.598181     0.500000     0.011585
    0.462604     0.700441     0.500000     0.009988
    0.500000     0.500000     0.398736     0.028197
    0.500000     0.500000     0.601264     0.037741
    0.500000     0.500000     0.500000     0.053020
EA15   22.042 20.488 19.178 90.00 90.00 90.00 Sym.group:    0
1.0000
   22.042196     0.000000     0.000000
    0.000000    20.487642     0.000000
    0.000000     0.000000    19.178043
   O  Cu
   4   24 
Direct
    0.736627     0.555574     0.482596     0.007770
    0.354500     0.509864     0.384770     0.009185
    0.592821     0.375534     0.387415     0.007081
    0.545210     0.488447     0.545121     0.016447
    0.575081     0.475793     0.504581     0.034400
    0.629626     0.463354     0.499159     0.018113
    0.417654     0.519722     0.725683     0.004171
    0.368499     0.594758     0.432378     0.016998
    0.622915     0.585176     0.539034     0.019418
    0.406800     0.347801     0.509008     0.012915
    0.497413     0.564968     0.390389     0.009544
    0.571484     0.334238     0.463951     0.012417
    0.466656     0.331870     0.472359     0.017010
    0.417651     0.602144     0.450780     0.015417
    0.558764     0.606593     0.421024     0.009950
    0.341219     0.581693     0.508315     0.010445
    0.358644     0.491997     0.564086     0.016440
    0.340340     0.450567     0.517899     0.024949
    0.399499     0.688113     0.542385     0.005656
    0.431310     0.305070     0.475976     0.018120
    0.392821     0.463529     0.534125     0.018530
    0.638392     0.414817     0.651866     0.005609
    0.693704     0.437784     0.499244     0.010851
    0.665407     0.551119     0.498316     0.020203
    0.652163     0.606192     0.478840     0.016994
    0.539476     0.649728     0.507929     0.008394
    0.310073     0.476539     0.467580     0.013880
    0.475254     0.527017     0.545192     0.015934
EA16   29.911 16.107 14.285 90.00 90.00 90.00 Sym.group:    0
1.0000
   29.910833     0.000000     0.000000
    0.000000    16.106519     0.000000
    0.000000     0.000000    14.285175
   O  Cu
   4   24 
Direct
    0.788705     0.500000     0.536836     0.011640
    0.211295     0.500000     0.536836     0.011640
    0.500000     0.394970     0.532411     0.029912
    0.500000     0.605030     0.532411     0.029912
    0.253403     0.545200     0.472901     0.015793
    0.746597     0.454800     0.472901     0.015793
    0.746597     0.545200     0.472901     0.015793
    0.253403     0.454800     0.472901     0.015793
    0.657352     0.413826     0.510586     0.009077
    0.342648     0.586174     0.510586     0.009077
    0.342648     0.413826     0.510586     0.009077
    0.657352     0.586174     0.510586     0.009077
    0.418709     0.607612     0.465547     0.014367
    0.581291     0.392388     0.465547     0.014367
    0.581291     0.607612     0.465547     0.014367
    0.418709     0.392388     0.465547     0.014367
    0.445847     0.500000     0.459794     0.020424
    0.554153     0.500000     0.459794     0.020424
    0.550349     0.500000     0.559225     0.021258
    0.449651     0.500000     0.559225     0.021258
    0.466707     0.405566     0.561000     0.035685
    0.533293     0.594434     0.561000     0.035685
    0.533293     0.405566     0.561000     0.035685
    0.466707     0.594434     0.561000     0.035685
    0.613030     0.445637     0.445833     0.015086
    0.386970     0.554363     0.445833     0.015086
    0.386970     0.445637     0.445833     0.015086
    0.613030     0.554363     0.445833     0.015086
EA17   18.954 17.341 17.115 90.00 90.00 90.00 Sym.group:    0
1.0000
   18.954127     0.000000     0.000000
    0.000000    17.340863     0.000000
    0.000000     0.000000    17.115081
   O  Cu
   4   24 
Direct
    0.583255     0.429617     0.448438     0.029091
    0.583255     0.491120     0.587538     0.029077
    0.583255     0.579264     0.464023     0.029077
    0.416745     0.570383     0.551562     0.027928
    0.416745     0.420736     0.535977     0.028048
    0.416745     0.508880     0.412462     0.028047
    0.379181     0.398157     0.582728     0.025007
    0.379181     0.621633     0.547998     0.032086
    0.379181     0.480209     0.369274     0.024984
    0.620819     0.454375     0.623913     0.032261
    0.620819     0.416897     0.398010     0.032234
    0.620819     0.628727     0.478077     0.032281
    0.379181     0.583103     0.601990     0.032087
    0.379181     0.545625     0.376087     0.025009
    0.379181     0.371273     0.521923     0.024985
    0.620819     0.378367     0.452002     0.032233
    0.620819     0.601843     0.417272     0.032259
    0.620819     0.519791     0.630726     0.032279
    0.500000     0.555708     0.625996     0.025225
    0.500000     0.420159     0.611879     0.019960
    0.500000     0.579841     0.388121     0.019960
    0.500000     0.635549     0.514117     0.025225
    0.500000     0.364451     0.485883     0.019388
    0.500000     0.444292     0.374004     0.019388
    0.333437     0.500000     0.500000     0.020772
    0.666563     0.500000     0.500000     0.029720
    0.529705     0.500000     0.500000     0.043612
    0.470295     0.500000     0.500000     0.033304
EA18   20.587 18.290 15.268 90.00 90.00 90.00 Sym.group:    0
1.0000
   20.586646     0.000000     0.000000
    0.000000    18.290235     0.000000
    0.000000     0.000000    15.268391
   O  Cu
   4   24 
Direct
    0.363642     0.456730     0.413927     0.014005
    0.636358     0.543270     0.413927     0.014005
    0.363642     0.543270     0.586073     0.014005
    0.636358     0.456730     0.586073     0.014005
    0.363642     0.456730     0.586073     0.019138
    0.636358     0.543270     0.586073     0.019138
    0.363642     0.543270     0.413927     0.019138
    0.636358     0.456730     0.413927     0.019138
    0.617439     0.654460     0.500000     0.012839
    0.382561     0.345540     0.500000     0.012839
    0.617439     0.345540     0.500000     0.012839
    0.382561     0.654460     0.500000     0.012839
    0.566958     0.550267     0.561536     0.016221
    0.433042     0.449733     0.561536     0.016221
    0.566958     0.449733     0.438464     0.016221
    0.433042     0.550267     0.438464     0.016221
    0.566958     0.550267     0.438464     0.022420
    0.433042     0.449733     0.438464     0.022420
    0.566958     0.449733     0.561536     0.022420
    0.433042     0.550267     0.561536     0.022420
    0.306995     0.384674     0.441927     0.014581
    0.693005     0.615326     0.441927     0.014581
    0.306995     0.615326     0.558073     0.014581
    0.693005     0.384674     0.558073     0.014581
    0.306995     0.384674     0.558073     0.012398
    0.693005     0.615326     0.558073     0.012398
    0.306995     0.615326     0.441927     0.012398
    0.693005     0.384674     0.441927     0.012398
EA19   18.845 18.253 18.241 90.00 90.00 90.00 Sym.group:    0
1.0000
   18.844557     0.000000     0.000000
    0.000000    18.252618     0.000000
    0.000000     0.000000    18.241022
   O  Cu
   4   24 
Direct
    0.664625     0.592937     0.546638     0.010796
    0.664625     0.413167     0.557218     0.010777
    0.664625     0.493895     0.396144     0.010777
    0.335375     0.407063     0.453362     0.009469
    0.335375     0.506105     0.603856     0.009624
    0.335375     0.586833     0.442782     0.009623
    0.429697     0.408902     0.371218     0.012055
    0.429697     0.657006     0.485448     0.010714
    0.429697     0.434091     0.643334     0.010728
    0.570303     0.657629     0.496034     0.012027
    0.570303     0.417753     0.365386     0.012085
    0.570303     0.424618     0.638580     0.012024
    0.429697     0.582247     0.634614     0.010714
    0.429697     0.342371     0.503966     0.012055
    0.429697     0.575382     0.361420     0.010728
    0.570303     0.342994     0.514552     0.012085
    0.570303     0.591098     0.628782     0.012027
    0.570303     0.565909     0.356666     0.012024
    0.500000     0.358973     0.508301     0.017797
    0.500000     0.436669     0.626361     0.017227
    0.500000     0.563331     0.373639     0.017227
    0.500000     0.422302     0.381939     0.017798
    0.500000     0.577698     0.618061     0.017164
    0.500000     0.641027     0.491699     0.017164
    0.664083     0.500000     0.500000     0.034941
    0.335917     0.500000     0.500000     0.020248
    0.395622     0.500000     0.500000     0.021268
    0.604378     0.500000     0.500000     0.030383
EA20   19.240 19.240 19.240 90.00 90.00 90.00 Sym.group:    0
1.0000
   19.239787     0.000000     0.000000
    0.000000    19.239787     0.000000
    0.000000     0.000000    19.239787
   O  Cu
   4   24 
Direct
    0.671514     0.500000     0.500000     0.013309
    0.328486     0.500000     0.500000     0.013309
    0.500000     0.347758     0.578991     0.013309
    0.500000     0.652242     0.421009     0.013309
    0.500000     0.578991     0.652242     0.014570
    0.500000     0.421009     0.347758     0.014570
    0.568731     0.500000     0.500000     0.044527
    0.431269     0.500000     0.500000     0.044527
    0.500000     0.438992     0.531654     0.044527
    0.500000     0.561008     0.468346     0.044527
    0.500000     0.531654     0.561008     0.045012
    0.500000     0.468346     0.438992     0.045012
    0.588624     0.462150     0.619481     0.016962
    0.411376     0.462150     0.619481     0.016962
    0.588624     0.619481     0.537850     0.016962
    0.411376     0.619481     0.537850     0.016962
    0.588624     0.380519     0.462150     0.016962
    0.411376     0.380519     0.462150     0.016962
    0.588624     0.537850     0.380519     0.016962
    0.411376     0.537850     0.380519     0.016962
    0.456266     0.518679     0.441039     0.033897
    0.543734     0.518679     0.441039     0.033897
    0.456266     0.441039     0.481321     0.033898
    0.543734     0.441039     0.481321     0.033898
    0.456266     0.558961     0.518679     0.033898
    0.543734     0.558961     0.518679     0.033898
    0.456266     0.481321     0.558961     0.033897
    0.543734     0.481321     0.558961     0.033897
EA21   18.639 16.906 16.767 90.00 90.00 90.00 Sym.group:    0
1.0000
   18.638674     0.000000     0.000000
    0.000000    16.906117     0.000000
    0.000000     0.000000    16.766882
   O  Cu
   4   24 
Direct
    0.406736     0.461236     0.564024     0.035334
    0.406736     0.425628     0.498162     0.052208
    0.406736     0.464393     0.434139     0.052213
    0.406736     0.538764     0.435976     0.035337
    0.406736     0.574372     0.501838     0.037547
    0.406736     0.535607     0.565861     0.037551
    0.354647     0.567158     0.393797     0.025654
    0.354647     0.624796     0.505542     0.018115
    0.354647     0.557638     0.611745     0.019086
    0.354647     0.432842     0.606203     0.026446
    0.354647     0.375204     0.494458     0.027834
    0.354647     0.442362     0.388255     0.027742
    0.666583     0.520495     0.594127     0.019379
    0.666583     0.429402     0.564961     0.019400
    0.666583     0.408907     0.470833     0.019425
    0.666583     0.479505     0.405873     0.019418
    0.666583     0.570598     0.435039     0.019399
    0.666583     0.591093     0.529167     0.019391
    0.532456     0.468325     0.623145     0.014974
    0.532456     0.378393     0.533913     0.015085
    0.532456     0.410069     0.410768     0.015023
    0.532456     0.531675     0.376855     0.014755
    0.532456     0.621607     0.466087     0.014191
    0.532456     0.589931     0.589232     0.014352
    0.676487     0.500000     0.500000     0.039224
    0.512813     0.500000     0.500000     0.035901
    0.432710     0.500000     0.500000     0.080520
    0.615460     0.500000     0.500000     0.036826
EA22   23.048 17.310 17.186 90.00 90.00 90.00 Sym.group:    0
1.0000
   23.047758     0.000000     0.000000
    0.000000    17.310329     0.000000
    0.000000     0.000000    17.185762
   O  Cu
   4   24 
Direct
    0.415579     0.393388     0.577264     0.016174
    0.415579     0.380262     0.445635     0.020767
    0.415579     0.486874     0.368369     0.020767
    0.415579     0.606612     0.422736     0.016174
    0.415579     0.619738     0.554365     0.016546
    0.415579     0.513126     0.631631     0.016546
    0.472048     0.492505     0.424829     0.032803
    0.472048     0.560884     0.455876     0.030548
    0.472048     0.568380     0.531047     0.028000
    0.472048     0.507495     0.575171     0.028000
    0.472048     0.439116     0.544124     0.030548
    0.472048     0.431620     0.468953     0.032803
    0.578768     0.561267     0.585768     0.014761
    0.578768     0.456890     0.596328     0.014459
    0.578768     0.395623     0.510560     0.014736
    0.578768     0.438733     0.414232     0.015022
    0.578768     0.543110     0.403672     0.014736
    0.578768     0.604377     0.489440     0.014459
    0.491111     0.365736     0.513583     0.024450
    0.491111     0.421189     0.389672     0.024826
    0.491111     0.555453     0.376089     0.024450
    0.491111     0.634264     0.486417     0.019846
    0.491111     0.578811     0.610328     0.019821
    0.491111     0.444547     0.623911     0.019846
    0.524442     0.500000     0.500000     0.039914
    0.759518     0.500000     0.500000     0.006405
    0.307944     0.500000     0.500000     0.013754
    0.663058     0.500000     0.500000     0.016721
EA23   19.221 17.914 18.024 90.00 90.00 90.00 Sym.group:    0
1.0000
   19.221384     0.000000     0.000000
    0.000000    17.913563     0.000000
    0.000000     0.000000    18.024131
   O  Cu
   4   24 
Direct
    0.400920     0.500000     0.500000     0.020988
    0.599080     0.500000     0.500000     0.019352
    0.328800     0.582894     0.440306     0.012811
    0.328800     0.582739     0.559906     0.012811
    0.328800     0.468242     0.596718     0.012898
    0.328800     0.397633     0.499868     0.013511
    0.328800     0.468493     0.403200     0.012898
    0.671200     0.582894     0.440306     0.012380
    0.671200     0.582739     0.559906     0.012380
    0.671200     0.468242     0.596718     0.012365
    0.671200     0.397633     0.499868     0.012392
    0.671200     0.468493     0.403200     0.012364
    0.500000     0.608384     0.613185     0.018916
    0.500000     0.425183     0.637423     0.018501
    0.500000     0.345377     0.471747     0.018470
    0.500000     0.479254     0.345116     0.018532
    0.500000     0.641802     0.432529     0.018935
    0.428658     0.613481     0.609537     0.013696
    0.428658     0.430249     0.641113     0.011528
    0.428658     0.343411     0.477677     0.011352
    0.428658     0.472974     0.345091     0.011743
    0.428658     0.639886     0.426584     0.013903
    0.571342     0.613481     0.609537     0.011251
    0.571342     0.430249     0.641113     0.011223
    0.571342     0.343411     0.477677     0.011243
    0.571342     0.472974     0.345091     0.011245
    0.571342     0.639886     0.426584     0.011269
    0.500000     0.500000     0.500000     0.028692
EA24   20.687 17.160 17.170 90.00 90.00 90.00 Sym.group:    0
1.0000
   20.686557     0.000000     0.000000
    0.000000    17.160399     0.000000
    0.000000     0.000000    17.170423
   O  Cu
   4   24 
Direct
    0.473263     0.458399     0.625226     0.019175
    0.473263     0.370687     0.526606     0.022979
    0.473263     0.412288     0.401380     0.022979
    0.473263     0.541601     0.374774     0.019175
    0.473263     0.629313     0.473394     0.019511
    0.473263     0.587712     0.598620     0.019511
    0.473263     0.466889     0.372269     0.040220
    0.473263     0.372761     0.464792     0.040279
    0.473263     0.405872     0.592523     0.040187
    0.473263     0.533111     0.627731     0.026118
    0.473263     0.627239     0.535208     0.018968
    0.473263     0.594128     0.407477     0.035955
    0.636927     0.550567     0.418874     0.015104
    0.636927     0.595582     0.503205     0.014961
    0.636927     0.545014     0.584331     0.014980
    0.636927     0.449433     0.581126     0.015146
    0.636927     0.404418     0.496795     0.015178
    0.636927     0.454986     0.415669     0.015155
    0.351660     0.443036     0.464535     0.027862
    0.351660     0.502250     0.432964     0.027786
    0.351660     0.559214     0.468429     0.027634
    0.351660     0.556964     0.535465     0.027560
    0.351660     0.497750     0.567036     0.027674
    0.351660     0.440786     0.531571     0.027822
    0.740635     0.500000     0.500000     0.019401
    0.542859     0.500000     0.500000     0.034267
    0.691063     0.500000     0.500000     0.026685
    0.414772     0.500000     0.500000     0.040396
EA25   20.261 17.277 16.894 90.00 90.00 90.00 Sym.group:    0
1.0000
   20.260647     0.000000     0.000000
    0.000000    17.277122     0.000000
    0.000000     0.000000    16.894004
   O  Cu
   4   24 
Direct
    0.493215     0.623104     0.444251     0.020710
    0.493215     0.608761     0.581154     0.022816
    0.493215     0.485657     0.636903     0.022815
    0.493215     0.376896     0.555749     0.020710
    0.493215     0.391239     0.418846     0.021112
    0.493215     0.514343     0.363097     0.021112
    0.537984     0.448761     0.564941     0.034635
    0.537984     0.419386     0.487089     0.032378
    0.537984     0.470626     0.422148     0.029885
    0.537984     0.551239     0.435059     0.031856
    0.537984     0.580614     0.512911     0.034530
    0.537984     0.529374     0.577852     0.034659
    0.450039     0.447867     0.385265     0.017846
    0.450039     0.571093     0.396460     0.022699
    0.450039     0.623227     0.511195     0.032074
    0.450039     0.552133     0.614735     0.032370
    0.450039     0.428907     0.603540     0.032097
    0.450039     0.376773     0.488805     0.022001
    0.572720     0.588515     0.429488     0.023601
    0.572720     0.603968     0.543139     0.024412
    0.572720     0.515454     0.613650     0.024410
    0.572720     0.411485     0.570512     0.024237
    0.572720     0.396032     0.456861     0.021326
    0.572720     0.484546     0.386350     0.020599
    0.341589     0.500000     0.500000     0.020949
    0.412420     0.500000     0.500000     0.032465
    0.649187     0.500000     0.500000     0.020540
    0.273056     0.500000     0.500000     0.012049
EA26   19.314 19.314 19.314 90.00 90.00 90.00 Sym.group:    0
1.0000
   19.313823     0.000000     0.000000
    0.000000    19.313823     0.000000
    0.000000     0.000000    19.313823
   O  Cu
   4   24 
Direct
    0.327227     0.445177     0.545221     0.014867
    0.327227     0.554823     0.454779     0.014867
    0.672773     0.445177     0.454779     0.014867
    0.672773     0.554823     0.545221     0.014867
    0.454779     0.327227     0.554823     0.014264
    0.445177     0.454779     0.672773     0.014264
    0.545221     0.672773     0.554823     0.014264
    0.554823     0.454779     0.327227     0.014264
    0.454779     0.672773     0.445177     0.014264
    0.554823     0.545221     0.672773     0.014264
    0.545221     0.327227     0.445177     0.014264
    0.445177     0.545221     0.327227     0.014264
    0.572071     0.410966     0.354228     0.016716
    0.572071     0.589034     0.645772     0.016716
    0.427929     0.410966     0.645772     0.016716
    0.427929     0.589034     0.354228     0.016716
    0.645772     0.572071     0.589034     0.032352
    0.410966     0.645772     0.427929     0.017305
    0.354228     0.427929     0.589034     0.032352
    0.589034     0.645772     0.572071     0.017305
    0.645772     0.427929     0.410966     0.032352
    0.589034     0.354228     0.427929     0.017305
    0.354228     0.572071     0.410966     0.032352
    0.410966     0.354228     0.572071     0.017305
    0.609121     0.609121     0.390879     0.008584
    0.390879     0.609121     0.609121     0.008584
    0.609121     0.390879     0.609121     0.008584
    0.390879     0.390879     0.390879     0.008584
EA27   28.217 17.842 14.623 90.00 90.00 90.00 Sym.group:    0
1.0000
   28.216503     0.000000     0.000000
    0.000000    17.841785     0.000000
    0.000000     0.000000    14.623171
   O  Cu
   4   24 
Direct
    0.509202     0.645775     0.529802     0.007642
    0.509202     0.354225     0.470198     0.007642
    0.414907     0.439145     0.511817     0.020501
    0.414907     0.560855     0.488183     0.020501
    0.284333     0.616982     0.493865     0.015503
    0.284333     0.383018     0.506135     0.015503
    0.792694     0.432999     0.482443     0.011903
    0.792694     0.567001     0.517557     0.011903
    0.480329     0.500000     0.500000     0.021817
    0.357654     0.500000     0.500000     0.029439
    0.808752     0.500000     0.500000     0.019346
    0.743346     0.591907     0.467169     0.007792
    0.743346     0.408093     0.532831     0.007792
    0.385501     0.501240     0.432191     0.022913
    0.385501     0.498760     0.567809     0.022913
    0.457161     0.609530     0.450042     0.019350
    0.457161     0.390470     0.549958     0.019350
    0.575553     0.425681     0.551446     0.012478
    0.575553     0.574319     0.448554     0.012478
    0.574064     0.532401     0.567351     0.012052
    0.574064     0.467599     0.432649     0.012052
    0.257607     0.414797     0.471196     0.016235
    0.257607     0.585203     0.528804     0.016235
    0.400001     0.383754     0.468373     0.027510
    0.400001     0.616246     0.531627     0.027510
    0.619941     0.500000     0.500000     0.016711
    0.256717     0.500000     0.500000     0.014633
    0.687868     0.500000     0.500000     0.008749
EA28   19.422 18.199 18.096 90.00 90.00 90.00 Sym.group:    0
1.0000
   19.422166     0.000000     0.000000
    0.000000    18.198651     0.000000
    0.000000     0.000000    18.095904
   O  Cu
   4   24 
Direct
    0.325401     0.587462     0.503194     0.016620
    0.325401     0.524007     0.584639     0.024807
    0.325401     0.427376     0.549117     0.024807
    0.325401     0.431109     0.445716     0.016620
    0.325401     0.530047     0.417334     0.025572
    0.674599     0.587513     0.498994     0.012926
    0.674599     0.526091     0.415986     0.012951
    0.674599     0.428612     0.449083     0.012929
    0.674599     0.429789     0.552545     0.012931
    0.674599     0.527994     0.583392     0.012927
    0.450340     0.432611     0.525426     0.020520
    0.450340     0.455131     0.443402     0.020351
    0.450340     0.539658     0.439595     0.020664
    0.450340     0.569379     0.519265     0.020427
    0.450340     0.503220     0.572312     0.020531
    0.549660     0.433261     0.472897     0.019997
    0.549660     0.453746     0.555458     0.020004
    0.549660     0.538153     0.561378     0.019984
    0.549660     0.569834     0.482475     0.019984
    0.549660     0.505007     0.427791     0.019972
    0.500000     0.370647     0.402992     0.012306
    0.500000     0.551766     0.346302     0.012371
    0.500000     0.661347     0.502017     0.012293
    0.500000     0.547951     0.654944     0.012429
    0.500000     0.368289     0.593744     0.012451
    0.657041     0.500000     0.500000     0.034056
    0.342959     0.500000     0.500000     0.062059
    0.500000     0.500000     0.500000     0.062467
EA29   19.292 19.292 14.786 90.00 90.00 90.00 Sym.group:    0
1.0000
   19.292111     0.000000     0.000000
    0.000000    19.292111     0.000000
    0.000000     0.000000    14.786236
   O  Cu
   4   24 
Direct
    0.519769     0.538086     0.552978     0.062365
    0.461914     0.519769     0.552978     0.062365
    0.480231     0.461914     0.552978     0.062365
    0.538086     0.480231     0.552978     0.062365
    0.681961     0.490110     0.433200     0.012848
    0.509890     0.681961     0.433200     0.012848
    0.318039     0.509890     0.433200     0.012848
    0.490110     0.318039     0.433200     0.012848
    0.356885     0.387191     0.433200     0.012848
    0.387191     0.643115     0.433200     0.012848
    0.643115     0.612809     0.433200     0.012848
    0.612809     0.356885     0.433200     0.012848
    0.382709     0.507470     0.461960     0.020407
    0.492530     0.382709     0.461960     0.020407
    0.617291     0.492530     0.461960     0.020407
    0.507470     0.617291     0.461960     0.020407
    0.591621     0.573611     0.461960     0.020407
    0.573611     0.408379     0.461960     0.020407
    0.408379     0.426389     0.461960     0.020407
    0.426389     0.591621     0.461960     0.020407
    0.396348     0.403775     0.578351     0.015891
    0.596225     0.396348     0.578351     0.015891
    0.603652     0.596225     0.578351     0.015891
    0.403775     0.603652     0.578351     0.015891
    0.640145     0.480961     0.578351     0.015892
    0.480961     0.359855     0.578351     0.015892
    0.359855     0.519039     0.578351     0.015892
    0.519039     0.640145     0.578351     0.015892
EA30   22.892 16.879 16.879 90.00 90.00 90.00 Sym.group:    0
1.0000
   22.891891     0.000000     0.000000
    0.000000    16.879175     0.000000
    0.000000     0.000000    16.879175
   O  Cu
   4   24 
Direct
    0.723920     0.487332     0.436216     0.036187
    0.723920     0.436216     0.512668     0.036187
    0.723920     0.512668     0.563784     0.036187
    0.723920     0.563784     0.487332     0.036187
    0.276080     0.451595     0.543426     0.018121
    0.276080     0.456574     0.451595     0.018121
    0.276080     0.548405     0.456574     0.018121
    0.276080     0.543426     0.548405     0.018121
    0.460047     0.425669     0.437317     0.012965
    0.460047     0.437317     0.574331     0.012965
    0.460047     0.574331     0.562683     0.012965
    0.460047     0.562683     0.425669     0.012965
    0.539953     0.402925     0.505548     0.013132
    0.539953     0.494452     0.402925     0.013132
    0.539953     0.597075     0.494452     0.013132
    0.539953     0.505548     0.597075     0.013132
    0.675440     0.404957     0.539171     0.025878
    0.675440     0.539171     0.595043     0.025878
    0.675440     0.595043     0.460829     0.025878
    0.675440     0.460829     0.404957     0.025878
    0.324560     0.447468     0.411638     0.012726
    0.324560     0.588362     0.447468     0.012726
    0.324560     0.552532     0.588362     0.012726
    0.324560     0.411638     0.552532     0.012726
    0.500000     0.625574     0.437213     0.017676
    0.500000     0.437213     0.374426     0.017676
    0.500000     0.374426     0.562787     0.017676
    0.500000     0.562787     0.625574     0.017676
EA31   24.427 18.771 17.560 90.00 90.00 90.00 Sym.group:    0
1.0000
   24.426747     0.000000     0.000000
    0.000000    18.770773     0.000000
    0.000000     0.000000    17.559578
   O  Cu
   4   24 
Direct
    0.522094     0.444655     0.598044     0.011913
    0.543490     0.455792     0.447339     0.012317
    0.397405     0.333417     0.488253     0.008237
    0.635457     0.408075     0.418289     0.008206
    0.302087     0.503381     0.626396     0.008001
    0.570696     0.542152     0.414977     0.012290
    0.337876     0.442236     0.652168     0.007792
    0.371251     0.548896     0.489587     0.016263
    0.294639     0.571411     0.475294     0.013591
    0.390498     0.584442     0.448362     0.015213
    0.281414     0.597742     0.556621     0.008893
    0.714674     0.455605     0.547687     0.009067
    0.248120     0.585041     0.413944     0.006651
    0.631154     0.636239     0.597039     0.006632
    0.559645     0.582679     0.581520     0.010151
    0.730655     0.394874     0.414558     0.007915
    0.681099     0.369594     0.607630     0.007169
    0.520960     0.407957     0.532694     0.024725
    0.376275     0.428819     0.463478     0.021874
    0.401380     0.426632     0.398393     0.015739
    0.456713     0.403792     0.443871     0.014885
    0.469893     0.572309     0.489278     0.013159
    0.698964     0.652380     0.508562     0.009620
    0.661069     0.558493     0.372003     0.007960
    0.503773     0.545589     0.539583     0.016269
    0.344319     0.412166     0.432001     0.020195
    0.673415     0.475601     0.602208     0.009144
    0.680985     0.660030     0.440222     0.009381
EA32   19.327 19.327 19.327 90.00 90.00 90.00 Sym.group:    0
1.0000
   19.326516     0.000000     0.000000
    0.000000    19.326516     0.000000
    0.000000     0.000000    19.326516
   O  Cu
   4   24 
Direct
    0.319670     0.481632     0.453000     0.009527
    0.680330     0.481632     0.547000     0.009527
    0.560960     0.518368     0.676101     0.009527
    0.439040     0.518368     0.323899     0.009527
    0.577021     0.335687     0.546199     0.009505
    0.598064     0.587915     0.366886     0.009505
    0.552081     0.664313     0.573171     0.009505
    0.625037     0.412085     0.391825     0.009505
    0.422979     0.335687     0.453801     0.009505
    0.374963     0.412085     0.608175     0.009505
    0.447919     0.664313     0.426829     0.009505
    0.401936     0.587915     0.633114     0.009505
    0.646389     0.515489     0.399751     0.011496
    0.353611     0.515489     0.600249     0.011496
    0.588492     0.484511     0.346220     0.011496
    0.411508     0.484511     0.653780     0.011496
    0.362470     0.539426     0.393932     0.017995
    0.484607     0.327012     0.539464     0.010993
    0.383501     0.460574     0.371187     0.017996
    0.461861     0.672988     0.518433     0.010993
    0.637530     0.539426     0.606068     0.017995
    0.538139     0.672988     0.481567     0.010993
    0.616499     0.460574     0.628813     0.017996
    0.515393     0.327012     0.460536     0.010993
    0.498526     0.473375     0.462376     0.023576
    0.537624     0.526625     0.498526     0.023576
    0.501474     0.473375     0.537624     0.023576
    0.462376     0.526625     0.501474     0.023576
EA33   17.808 17.981 18.020 90.00 90.00 90.00 Sym.group:    0
1.0000
   17.807720     0.000000     0.000000
    0.000000    17.980873     0.000000
    0.000000     0.000000    18.020046
   O  Cu
   4   24 
Direct
    0.461649     0.395611     0.397182     0.011907
    0.461649     0.565742     0.369163     0.012965
    0.461650     0.645019     0.521957     0.012965
    0.461649     0.523886     0.644406     0.011907
    0.461649     0.369743     0.567291     0.013215
    0.581478     0.621830     0.401503     0.014552
    0.581478     0.631528     0.585178     0.014541
    0.581477     0.459458     0.651140     0.014175
    0.581476     0.343416     0.508232     0.013369
    0.581477     0.443767     0.353947     0.014475
    0.631969     0.423560     0.609728     0.012624
    0.631969     0.371794     0.461368     0.012706
    0.631969     0.497203     0.366396     0.012799
    0.631970     0.626477     0.456061     0.012794
    0.631970     0.580963     0.606448     0.012783
    0.493257     0.471119     0.575796     0.024575
    0.493257     0.418832     0.496015     0.023642
    0.493257     0.478716     0.421741     0.025782
    0.493257     0.568014     0.455619     0.025884
    0.493257     0.563318     0.550830     0.025828
    0.357202     0.406642     0.451273     0.013267
    0.357202     0.517594     0.396346     0.013448
    0.357203     0.604233     0.484665     0.013414
    0.357202     0.546826     0.594177     0.013271
    0.357202     0.424708     0.573539     0.010793
    0.482777     0.500000     0.500000     0.047717
    0.547675     0.500000     0.500000     0.034398
    0.341774     0.500001     0.500000     0.025231
EA34   17.780 18.244 18.318 90.00 90.00 90.00 Sym.group:    0
1.0000
   17.780202     0.000000     0.000000
    0.000000    18.244169     0.000000
    0.000000     0.000000    18.317823
   O  Cu
   4   24 
Direct
    0.465063     0.552812     0.450787     0.021120
    0.538666     0.483614     0.429841     0.027954
    0.465063     0.430803     0.479054     0.027704
    0.538666     0.447188     0.549213     0.021432
    0.465063     0.516386     0.570159     0.024627
    0.538666     0.569197     0.520946     0.025133
    0.622927     0.429234     0.520609     0.022366
    0.380802     0.482537     0.571343     0.020455
    0.622927     0.553303     0.550734     0.018113
    0.380802     0.570766     0.479391     0.022841
    0.622927     0.517463     0.428657     0.022314
    0.380802     0.446697     0.449266     0.023672
    0.594532     0.630379     0.407461     0.011161
    0.409198     0.484725     0.341273     0.012231
    0.594531     0.354345     0.433812     0.011995
    0.409197     0.369621     0.592539     0.011102
    0.594531     0.515275     0.658727     0.010255
    0.409198     0.645655     0.566188     0.009935
    0.646413     0.598744     0.489813     0.016222
    0.357316     0.540515     0.409735     0.017329
    0.646413     0.441770     0.419922     0.017672
    0.357316     0.401256     0.510187     0.017207
    0.646413     0.459485     0.590265     0.017345
    0.357316     0.558230     0.580078     0.015627
    0.357757     0.500000     0.500000     0.034112
    0.442784     0.500000     0.500000     0.047997
    0.526608     0.500000     0.500000     0.054906
    0.628105     0.500000     0.500000     0.034348
EA35   25.249 17.035 16.476 90.00 90.00 90.00 Sym.group:    0
1.0000
   25.248517     0.000000     0.000000
    0.000000    17.035317     0.000000
    0.000000     0.000000    16.475597
   O  Cu
   4   24 
Direct
    0.618518     0.629006     0.457414     0.017182
    0.381482     0.370994     0.457414     0.017182
    0.381482     0.629006     0.542586     0.017182
    0.618518     0.370994     0.542586     0.017182
    0.618518     0.629006     0.542586     0.023421
    0.381482     0.370994     0.542586     0.023421
    0.381482     0.629006     0.457414     0.023421
    0.618518     0.370994     0.457414     0.023421
    0.386468     0.447743     0.434270     0.022349
    0.613532     0.552257     0.434270     0.022349
    0.613532     0.447743     0.565730     0.022349
    0.386468     0.552257     0.565730     0.022349
    0.386468     0.447743     0.565730     0.016144
    0.613532     0.552257     0.565730     0.016144
    0.613532     0.447743     0.434270     0.016144
    0.386468     0.552257     0.434270     0.016144
    0.554701     0.418387     0.616402     0.011222
    0.445299     0.581613     0.616402     0.011222
    0.445299     0.418387     0.383598     0.011222
    0.554701     0.581613     0.383598     0.011222
    0.554701     0.418387     0.383598     0.009755
    0.445299     0.581613     0.383598     0.009755
    0.445299     0.418387     0.616402     0.009755
    0.554701     0.581613     0.616402     0.009755
    0.250312     0.500000     0.500000     0.009460
    0.749688     0.500000     0.500000     0.009460
    0.316067     0.500000     0.500000     0.017968
    0.683933     0.500000     0.500000     0.017968
EA36   18.111 18.111 19.217 90.00 90.00 90.00 Sym.group:    0
1.0000
   18.111121     0.000000     0.000000
    0.000000    18.111121     0.000000
    0.000000     0.000000    19.216855
   O  Cu
   4   24 
Direct
    0.455884     0.512585     0.500471     0.064918
    0.544116     0.487415     0.500471     0.064918
    0.512585     0.544116     0.499529     0.064918
    0.487415     0.455884     0.499529     0.064918
    0.349709     0.515403     0.521083     0.022250
    0.650291     0.484597     0.521083     0.022250
    0.566213     0.635796     0.478917     0.022250
    0.433787     0.364204     0.478917     0.022250
    0.635796     0.433787     0.521083     0.022250
    0.364204     0.566213     0.521083     0.022250
    0.484597     0.349709     0.478917     0.022250
    0.515403     0.650291     0.478917     0.022250
    0.583646     0.476137     0.671122     0.009527
    0.416354     0.523863     0.671122     0.009527
    0.476137     0.416354     0.328878     0.009527
    0.523863     0.583646     0.328878     0.009527
    0.586325     0.540148     0.526724     0.037282
    0.413675     0.459852     0.526724     0.037282
    0.420348     0.447852     0.473276     0.037283
    0.579652     0.552148     0.473276     0.037283
    0.447852     0.579652     0.526724     0.037283
    0.552148     0.420348     0.526724     0.037283
    0.459852     0.586325     0.473276     0.037282
    0.540148     0.413675     0.473276     0.037282
    0.640982     0.578396     0.500000     0.025795
    0.421604     0.640982     0.500000     0.025795
    0.359018     0.421604     0.500000     0.025795
    0.578396     0.359018     0.500000     0.025795
EA37   20.837 18.013 18.490 90.00 90.00 90.00 Sym.group:    0
1.0000
   20.836760     0.000000     0.000000
    0.000000    18.012517     0.000000
    0.000000     0.000000    18.490200
   O  Cu
   4   24 
Direct
    0.401935     0.458540     0.555995     0.030977
    0.401935     0.529050     0.562975     0.044131
    0.401935     0.570508     0.506980     0.044132
    0.401935     0.541460     0.444005     0.030977
    0.401935     0.470950     0.437025     0.033698
    0.401935     0.429492     0.493020     0.033699
    0.301170     0.500000     0.500000     0.027019
    0.451545     0.360566     0.417235     0.012059
    0.451545     0.356705     0.576251     0.014035
    0.451545     0.496139     0.659016     0.015704
    0.451545     0.639434     0.582765     0.015727
    0.451545     0.643295     0.423749     0.015656
    0.451545     0.503861     0.340984     0.013839
    0.455784     0.456319     0.412633     0.022853
    0.455784     0.400491     0.493168     0.022809
    0.455784     0.444172     0.580535     0.032740
    0.455784     0.543681     0.587367     0.035272
    0.455784     0.599509     0.506832     0.035362
    0.455784     0.555828     0.419465     0.032868
    0.664423     0.454818     0.554527     0.024194
    0.664423     0.525883     0.565380     0.024243
    0.664423     0.571064     0.510854     0.024253
    0.664423     0.545182     0.445473     0.024190
    0.664423     0.474117     0.434620     0.024212
    0.664423     0.428936     0.489146     0.024225
    0.694550     0.500000     0.500000     0.040472
    0.640485     0.500000     0.500000     0.052241
    0.521672     0.500000     0.500000     0.029441
EA38   19.249 19.249 19.249 90.00 90.00 90.00 Sym.group:    0
1.0000
   19.248602     0.000000     0.000000
    0.000000    19.248602     0.000000
    0.000000     0.000000    19.248602
   O  Cu
   4   24 
Direct
    0.328336     0.500000     0.500000     0.013425
    0.671664     0.500000     0.500000     0.013425
    0.500000     0.346329     0.423490     0.013425
    0.500000     0.653671     0.576510     0.013425
    0.500000     0.423490     0.653671     0.014786
    0.500000     0.576510     0.346329     0.014786
    0.561490     0.500000     0.500000     0.029117
    0.438510     0.500000     0.500000     0.029117
    0.500000     0.555045     0.527406     0.029117
    0.500000     0.444955     0.472594     0.029117
    0.500000     0.527406     0.444955     0.029675
    0.500000     0.472594     0.555045     0.029675
    0.607258     0.643820     0.451789     0.017407
    0.392742     0.643820     0.451789     0.017407
    0.607258     0.451789     0.356180     0.017407
    0.392742     0.451789     0.356180     0.017407
    0.607258     0.548211     0.643820     0.017407
    0.392742     0.548211     0.643820     0.017407
    0.607258     0.356180     0.548211     0.017407
    0.392742     0.356180     0.548211     0.017407
    0.425511     0.400119     0.533482     0.023051
    0.574489     0.400119     0.533482     0.023051
    0.425511     0.533482     0.599881     0.023051
    0.574489     0.533482     0.599881     0.023051
    0.425511     0.466518     0.400119     0.023051
    0.574489     0.466518     0.400119     0.023051
    0.425511     0.599881     0.466518     0.023051
    0.574489     0.599881     0.466518     0.023051
EA39   32.730 16.863 16.863 90.00 90.00 90.00 Sym.group:    0
1.0000
   32.729500     0.000000     0.000000
    0.000000    16.863091     0.000000
    0.000000     0.000000    16.863091
   O  Cu
   4   24 
Direct
    0.467786     0.580147     0.526016     0.014410
    0.467786     0.419853     0.473984     0.014410
    0.557643     0.526016     0.419853     0.014410
    0.557643     0.473984     0.580147     0.014410
    0.156704     0.500000     0.500000     0.003745
    0.728915     0.546308     0.474637     0.017822
    0.728915     0.453692     0.525363     0.017822
    0.296514     0.547726     0.477418     0.017865
    0.296514     0.452274     0.522582     0.017865
    0.728915     0.477418     0.452274     0.017821
    0.728915     0.522582     0.547726     0.017821
    0.296514     0.525363     0.546308     0.017866
    0.296514     0.474637     0.453692     0.017866
    0.770508     0.476915     0.571117     0.012701
    0.770508     0.523085     0.428883     0.012701
    0.254921     0.428883     0.476915     0.012757
    0.254921     0.571117     0.523085     0.012757
    0.431539     0.486094     0.542838     0.018327
    0.431539     0.513906     0.457162     0.018327
    0.593890     0.457162     0.486094     0.018327
    0.593890     0.542838     0.513906     0.018327
    0.512715     0.563845     0.625217     0.015285
    0.512715     0.374783     0.563845     0.015285
    0.512715     0.436155     0.374783     0.015285
    0.512715     0.625217     0.436155     0.015285
    0.361755     0.500000     0.500000     0.013861
    0.663675     0.500000     0.500000     0.013857
    0.512715     0.500000     0.500000     0.041791
EA40   19.322 19.322 19.322 90.00 90.00 90.00 Sym.group:    0
1.0000
   19.321670     0.000000     0.000000
    0.000000    19.321670     0.000000
    0.000000     0.000000    19.321670
   O  Cu
   4   24 
Direct
    0.500000     0.500000     0.672906     0.012303
    0.500000     0.500000     0.327094     0.012303
    0.500000     0.672906     0.500000     0.012303
    0.500000     0.327094     0.500000     0.012303
    0.672906     0.500000     0.500000     0.013247
    0.327094     0.500000     0.500000     0.013247
    0.500000     0.500000     0.554451     0.039817
    0.500000     0.500000     0.445549     0.039817
    0.500000     0.554451     0.500000     0.039817
    0.500000     0.445549     0.500000     0.039817
    0.554451     0.500000     0.500000     0.040468
    0.445549     0.500000     0.500000     0.040468
    0.610151     0.610151     0.610151     0.012557
    0.610151     0.610151     0.389849     0.012557
    0.610151     0.389849     0.610151     0.012557
    0.610151     0.389849     0.389849     0.012557
    0.389849     0.610151     0.610151     0.012557
    0.389849     0.610151     0.389849     0.012557
    0.389849     0.389849     0.610151     0.012557
    0.389849     0.389849     0.389849     0.012557
    0.563026     0.563026     0.563026     0.023402
    0.563026     0.563026     0.436974     0.023402
    0.563026     0.436974     0.563026     0.023402
    0.563026     0.436974     0.436974     0.023402
    0.436974     0.563026     0.563026     0.023402
    0.436974     0.563026     0.436974     0.023402
    0.436974     0.436974     0.563026     0.023402
    0.436974     0.436974     0.436974     0.023402
EA41   20.146 19.394 19.394 90.00 90.00 90.00 Sym.group:    0
1.0000
   20.146411     0.000000     0.000000
    0.000000    19.393984     0.000000
    0.000000     0.000000    19.393984
   O  Cu
   4   24 
Direct
    0.546394     0.460458     0.405608     0.014242
    0.546394     0.539542     0.594392     0.014242
    0.467352     0.594392     0.460458     0.014268
    0.467352     0.405608     0.539542     0.014268
    0.314433     0.500000     0.500000     0.059830
    0.326720     0.505369     0.446358     0.027570
    0.326720     0.494631     0.553642     0.027570
    0.687026     0.533799     0.458001     0.021930
    0.687026     0.466201     0.541999     0.021930
    0.326720     0.541999     0.533799     0.027570
    0.326720     0.458001     0.466201     0.027570
    0.687026     0.446358     0.494631     0.021930
    0.687026     0.553642     0.505369     0.021930
    0.387898     0.568142     0.535841     0.017162
    0.387898     0.431858     0.464159     0.017162
    0.625848     0.426293     0.477750     0.016806
    0.625848     0.573707     0.522250     0.016806
    0.387898     0.522250     0.426293     0.017162
    0.387898     0.477750     0.573707     0.017162
    0.625848     0.535841     0.431858     0.016805
    0.625848     0.464159     0.568142     0.016805
    0.506873     0.674126     0.571309     0.012346
    0.506873     0.571309     0.325874     0.012346
    0.506873     0.325874     0.428691     0.012346
    0.506873     0.428691     0.674126     0.012346
    0.576685     0.500000     0.500000     0.030367
    0.437061     0.500000     0.500000     0.031182
    0.506873     0.500000     0.500000     0.041457
EA42   18.936 18.455 16.121 90.00 90.00 90.00 Sym.group:    0
1.0000
   18.936261     0.000000     0.000000
    0.000000    18.455054     0.000000
    0.000000     0.000000    16.121263
   O  Cu
   4   24 
Direct
    0.625154     0.477245     0.392029     0.016701
    0.456629     0.622590     0.392029     0.016785
    0.418218     0.400166     0.392029     0.016676
    0.460003     0.623792     0.607971     0.016590
    0.624481     0.473645     0.607971     0.016606
    0.415515     0.402563     0.607971     0.016606
    0.407251     0.406838     0.449609     0.037588
    0.625006     0.464164     0.449609     0.037580
    0.467744     0.628998     0.449609     0.037667
    0.423532     0.392391     0.550391     0.019124
    0.447410     0.621755     0.550391     0.037637
    0.629058     0.485854     0.550391     0.019135
    0.332919     0.563198     0.572524     0.018915
    0.530200     0.319932     0.572524     0.018471
    0.636881     0.616869     0.572524     0.018707
    0.585047     0.339470     0.427476     0.018946
    0.321987     0.504691     0.427476     0.018987
    0.592966     0.655838     0.427476     0.019073
    0.526617     0.363167     0.465223     0.026166
    0.602181     0.592068     0.465223     0.026262
    0.371202     0.544765     0.465223     0.026284
    0.364200     0.507289     0.534777     0.026275
    0.574052     0.617028     0.534777     0.026173
    0.561747     0.375682     0.534777     0.026080
    0.557546     0.329928     0.500000     0.035717
    0.614771     0.636172     0.500000     0.036181
    0.327683     0.533900     0.500000     0.036208
    0.500000     0.500000     0.500000     0.030824
EA43   21.234 20.814 18.112 90.00 90.00 90.00 Sym.group:    0
1.0000
   21.234173     0.000000     0.000000
    0.000000    20.813544     0.000000
    0.000000     0.000000    18.112034
   O  Cu
   4   24 
Direct
    0.445955     0.643534     0.453827     0.020744
    0.617104     0.596793     0.453827     0.021014
    0.626419     0.416287     0.453827     0.021014
    0.461026     0.351470     0.453827     0.020745
    0.349495     0.491916     0.453827     0.021069
    0.594994     0.380628     0.546173     0.022883
    0.640636     0.555281     0.546173     0.022891
    0.491924     0.653539     0.546173     0.022869
    0.354373     0.539610     0.546173     0.020836
    0.418073     0.370942     0.546173     0.022810
    0.445955     0.643534     0.546173     0.022414
    0.617104     0.596793     0.546173     0.022741
    0.626419     0.416287     0.546173     0.022742
    0.461026     0.351470     0.546173     0.022414
    0.349495     0.491916     0.546173     0.021165
    0.594994     0.380628     0.453827     0.043184
    0.640636     0.555281     0.453827     0.043195
    0.491924     0.653539     0.453827     0.043159
    0.354373     0.539610     0.453827     0.021203
    0.418073     0.370942     0.453827     0.042984
    0.288368     0.522531     0.500000     0.020534
    0.455606     0.712304     0.500000     0.019938
    0.684194     0.608680     0.500000     0.019926
    0.658233     0.354864     0.500000     0.019925
    0.413599     0.301621     0.500000     0.019945
    0.500000     0.500000     0.348939     0.015413
    0.500000     0.500000     0.651061     0.014197
    0.500000     0.500000     0.500000     0.028249
EA44   20.250 20.573 14.712 90.00 90.00 90.00 Sym.group:    0
1.0000
   20.250490     0.000000     0.000000
    0.000000    20.572781     0.000000
    0.000000     0.000000    14.712377
   O  Cu
   4   24 
Direct
    0.618679     0.578627     0.500000     0.020996
    0.612642     0.413195     0.500000     0.021732
    0.450938     0.367725     0.500000     0.021732
    0.357035     0.505055     0.500000     0.020996
    0.460706     0.635399     0.500000     0.021814
    0.527305     0.692027     0.553785     0.011663
    0.693972     0.533777     0.553785     0.015056
    0.592577     0.328849     0.553785     0.015103
    0.363243     0.360445     0.553785     0.015079
    0.322903     0.584902     0.553785     0.014588
    0.604813     0.664172     0.446215     0.014588
    0.373767     0.648853     0.446215     0.011664
    0.317171     0.427824     0.446215     0.015056
    0.513238     0.306539     0.446215     0.015103
    0.691011     0.452611     0.446215     0.015080
    0.527305     0.692027     0.446215     0.011663
    0.693972     0.533777     0.446215     0.015056
    0.592577     0.328849     0.446215     0.015103
    0.363243     0.360445     0.446215     0.015079
    0.322903     0.584902     0.446215     0.014588
    0.604813     0.664172     0.553785     0.014588
    0.373767     0.648853     0.553785     0.011664
    0.317171     0.427824     0.553785     0.015056
    0.513238     0.306539     0.553785     0.015103
    0.691011     0.452611     0.553785     0.015080
    0.500000     0.500000     0.570430     0.024392
    0.500000     0.500000     0.429570     0.024392
    0.500000     0.500000     0.500000     0.035041
EA45   19.239 19.239 19.239 90.00 90.00 90.00 Sym.group:    0
1.0000
   19.239168     0.000000     0.000000
    0.000000    19.239168     0.000000
    0.000000     0.000000    19.239168
   O  Cu
   4   24 
Direct
    0.500000     0.500000     0.409728     0.021555
    0.500000     0.500000     0.590272     0.021555
    0.540137     0.419142     0.500000     0.021554
    0.459863     0.580858     0.500000     0.021554
    0.419142     0.459863     0.500000     0.029081
    0.580858     0.540137     0.500000     0.029081
    0.500000     0.500000     0.328497     0.019956
    0.500000     0.500000     0.671503     0.019956
    0.576254     0.346381     0.500000     0.019955
    0.423746     0.653619     0.500000     0.019955
    0.346381     0.423746     0.500000     0.015957
    0.653619     0.576254     0.500000     0.015957
    0.562530     0.685792     0.638616     0.009014
    0.562530     0.685792     0.361384     0.009014
    0.685792     0.437470     0.638616     0.009014
    0.685792     0.437470     0.361384     0.009014
    0.314208     0.562530     0.638616     0.009014
    0.314208     0.562530     0.361384     0.009014
    0.437470     0.314208     0.638616     0.009014
    0.437470     0.314208     0.361384     0.009014
    0.460195     0.381728     0.411760     0.015244
    0.460195     0.381728     0.588240     0.015244
    0.381728     0.539805     0.411760     0.015244
    0.381728     0.539805     0.588240     0.015244
    0.618272     0.460195     0.411760     0.015244
    0.618272     0.460195     0.588240     0.015244
    0.539805     0.618272     0.411760     0.015244
    0.539805     0.618272     0.588240     0.015244
EA46   19.982 18.029 16.376 90.00 90.00 90.00 Sym.group:    0
1.0000
   19.981606     0.000000     0.000000
    0.000000    18.028635     0.000000
    0.000000     0.000000    16.375797
   O  Cu
   4   24 
Direct
    0.540606     0.642230     0.597746     0.010640
    0.459394     0.357770     0.402254     0.010640
    0.409741     0.489520     0.459227     0.018927
    0.590259     0.510480     0.540773     0.018927
    0.407340     0.583834     0.407976     0.015856
    0.592660     0.416166     0.592024     0.015856
    0.325124     0.557390     0.437481     0.014024
    0.674876     0.442610     0.562519     0.014024
    0.663806     0.478956     0.450171     0.018863
    0.336194     0.521044     0.549829     0.018863
    0.503819     0.409200     0.469277     0.020249
    0.496181     0.590800     0.530723     0.020249
    0.601858     0.554288     0.452603     0.028218
    0.398142     0.445712     0.547397     0.028218
    0.587325     0.357002     0.489935     0.013858
    0.412675     0.642998     0.510065     0.013858
    0.552402     0.548713     0.415714     0.019286
    0.447598     0.451287     0.584286     0.019286
    0.683709     0.522747     0.513893     0.019865
    0.316291     0.477253     0.486107     0.019865
    0.390563     0.513838     0.571962     0.021516
    0.609437     0.486162     0.428038     0.021516
    0.345219     0.427349     0.539771     0.018201
    0.654781     0.572651     0.460229     0.018201
    0.470857     0.477521     0.385935     0.019145
    0.529143     0.522479     0.614065     0.019145
    0.468437     0.350553     0.517479     0.015390
    0.531563     0.649447     0.482521     0.015390
EA47   19.803 19.803 15.266 90.00 90.00 90.00 Sym.group:    0
1.0000
   19.802856     0.000000     0.000000
    0.000000    19.802856     0.000000
    0.000000     0.000000    15.265997
   O  Cu
   4   24 
Direct
    0.428688     0.400033     0.425033     0.013447
    0.400033     0.571312     0.425033     0.013447
    0.571312     0.599967     0.425033     0.013447
    0.599967     0.428688     0.425033     0.013447
    0.439091     0.670380     0.557092     0.012552
    0.670380     0.560909     0.557092     0.012552
    0.560909     0.329620     0.557092     0.012552
    0.329620     0.439091     0.557092     0.012552
    0.595582     0.637363     0.526524     0.015920
    0.637363     0.404418     0.526524     0.015920
    0.404418     0.362637     0.526524     0.015920
    0.362637     0.595582     0.526524     0.015920
    0.334132     0.484996     0.396196     0.012426
    0.484996     0.665868     0.396196     0.012426
    0.665868     0.515004     0.396196     0.012426
    0.515004     0.334132     0.396196     0.012426
    0.462429     0.535560     0.491774     0.021519
    0.535560     0.537571     0.491774     0.021519
    0.537571     0.464440     0.491774     0.021519
    0.464440     0.462429     0.491774     0.021519
    0.590845     0.546852     0.568212     0.016438
    0.546852     0.409155     0.568212     0.016438
    0.409155     0.453148     0.568212     0.016438
    0.453148     0.590845     0.568212     0.016438
    0.679500     0.485953     0.535168     0.012656
    0.485953     0.320500     0.535168     0.012656
    0.320500     0.514047     0.535168     0.012656
    0.514047     0.679500     0.535168     0.012656
EA48   19.437 19.365 17.549 90.00 90.00 90.00 Sym.group:    0
1.0000
   19.437341     0.000000     0.000000
    0.000000    19.365114     0.000000
    0.000000     0.000000    17.548834
   O  Cu
   4   24 
Direct
    0.500000     0.500000     0.360138     0.018273
    0.500000     0.500000     0.639862     0.019118
    0.553515     0.669117     0.438307     0.010072
    0.380842     0.631077     0.438307     0.010073
    0.327327     0.461960     0.438307     0.010105
    0.446485     0.330883     0.438307     0.010053
    0.619158     0.368923     0.438307     0.010054
    0.672673     0.538040     0.438307     0.010105
    0.671372     0.456433     0.561693     0.010099
    0.548096     0.329251     0.561693     0.010055
    0.376724     0.372818     0.561693     0.010080
    0.328628     0.543567     0.561693     0.010916
    0.451904     0.670749     0.561693     0.012054
    0.623276     0.627182     0.561693     0.011349
    0.553515     0.669117     0.561693     0.011994
    0.380842     0.631077     0.561693     0.011994
    0.327327     0.461960     0.561693     0.010132
    0.446485     0.330883     0.561693     0.010042
    0.619158     0.368923     0.561693     0.010042
    0.672673     0.538040     0.561693     0.010132
    0.671372     0.456433     0.438307     0.010131
    0.548096     0.329251     0.438307     0.010075
    0.376724     0.372818     0.438307     0.010205
    0.328628     0.543567     0.438307     0.013620
    0.451904     0.670749     0.438307     0.019125
    0.623276     0.627182     0.438307     0.016900
    0.500000     0.500000     0.571583     0.028174
    0.500000     0.500000     0.428417     0.027936
EA49   19.285 19.220 19.285 90.00 90.00 90.00 Sym.group:    0
1.0000
   19.284884     0.000000     0.000000
    0.000000    19.220372     0.000000
    0.000000     0.000000    19.284884
   O  Cu
   4   24 
Direct
    0.345233     0.562965     0.433739     0.013551
    0.591468     0.349321     0.536908     0.013550
    0.648968     0.437124     0.578503     0.013550
    0.414330     0.650591     0.450850     0.013550
    0.577384     0.629919     0.597605     0.011959
    0.608604     0.458576     0.362954     0.011959
    0.432161     0.361603     0.406977     0.011960
    0.537455     0.539201     0.328676     0.011960
    0.615717     0.637668     0.491940     0.011959
    0.470211     0.471422     0.674878     0.011960
    0.374739     0.370810     0.503479     0.011959
    0.383731     0.530802     0.633492     0.011960
    0.390549     0.461494     0.637218     0.012129
    0.546152     0.450793     0.333429     0.012128
    0.599906     0.546984     0.358200     0.012129
    0.463392     0.540730     0.671152     0.012129
    0.560042     0.668751     0.519736     0.012463
    0.640324     0.387547     0.505387     0.025503
    0.445756     0.331161     0.468022     0.012464
    0.600112     0.398898     0.610025     0.025503
    0.633058     0.598836     0.569809     0.012463
    0.407554     0.611724     0.393530     0.025503
    0.361143     0.401252     0.442433     0.012463
    0.352010     0.601831     0.491059     0.025505
    0.526519     0.628647     0.410217     0.016950
    0.551949     0.370159     0.424114     0.016950
    0.577222     0.515111     0.637890     0.016950
    0.344309     0.486083     0.527779     0.016950
EA50   24.933 19.630 14.877 90.00 90.00 90.00 Sym.group:    0
1.0000
   24.932591     0.000000     0.000000
    0.000000    19.629797     0.000000
    0.000000     0.000000    14.877380
   O  Cu
   4   24 
Direct
    0.745037     0.548795     0.505708     0.041906
    0.254963     0.451205     0.494292     0.041906
    0.253483     0.498985     0.472259     0.042183
    0.746517     0.501015     0.527741     0.042183
    0.389245     0.620433     0.479056     0.015915
    0.610755     0.379567     0.520944     0.015915
    0.409872     0.424890     0.525638     0.018289
    0.590128     0.575110     0.474362     0.018289
    0.579971     0.488634     0.424806     0.021760
    0.420029     0.511366     0.575194     0.021760
    0.436083     0.364356     0.515921     0.013303
    0.563917     0.635644     0.484079     0.013303
    0.372660     0.355325     0.468950     0.015172
    0.627340     0.644675     0.531050     0.015172
    0.620178     0.615941     0.473510     0.025347
    0.379822     0.384059     0.526490     0.025347
    0.679036     0.550772     0.508014     0.020313
    0.320964     0.449228     0.491986     0.020313
    0.641992     0.342885     0.462582     0.014449
    0.358008     0.657115     0.537418     0.014449
    0.475965     0.636861     0.513232     0.008316
    0.524035     0.363139     0.486768     0.008316
    0.456064     0.518043     0.564575     0.021308
    0.543936     0.481957     0.435425     0.021308
    0.695136     0.464604     0.508700     0.020511
    0.304864     0.535396     0.491300     0.020511
    0.621022     0.321960     0.527682     0.024170
    0.378978     0.678040     0.472318     0.024170
EA51   18.292 18.094 25.393 90.00 90.00 90.00 Sym.group:    0
1.0000
   18.291901     0.000000     0.000000
    0.000000    18.094048     0.000000
    0.000000     0.000000    25.392999
   O  Cu
   4   24 
Direct
    0.707357     0.500000     0.500000     0.059345
    0.292643     0.500000     0.500000     0.059345
    0.752513     0.500000     0.500000     0.059256
    0.247487     0.500000     0.500000     0.059256
    0.848597     0.592960     0.589569     0.009263
    0.151403     0.484611     0.389139     0.009263
    0.848597     0.578998     0.403866     0.009262
    0.848597     0.350908     0.466472     0.009262
    0.151403     0.643210     0.455313     0.009263
    0.848597     0.652721     0.523829     0.009262
    0.151403     0.347279     0.476171     0.009262
    0.848597     0.409178     0.590676     0.009263
    0.151403     0.649092     0.533528     0.009262
    0.848597     0.396101     0.416757     0.009262
    0.151403     0.501321     0.611398     0.009262
    0.848597     0.498679     0.388602     0.009262
    0.151403     0.603899     0.583243     0.009262
    0.848597     0.515389     0.610861     0.009263
    0.151403     0.351725     0.535319     0.009262
    0.151403     0.421002     0.596134     0.009262
    0.848597     0.648275     0.464681     0.009262
    0.151403     0.590822     0.409324     0.009263
    0.848597     0.356790     0.544687     0.009263
    0.151403     0.407040     0.410431     0.009263
    0.562272     0.500000     0.500000     0.011664
    0.437728     0.500000     0.500000     0.011664
    0.643550     0.500000     0.500000     0.032671
    0.356450     0.500000     0.500000     0.032671
EA52   16.703 16.839 28.791 90.00 90.00 90.00 Sym.group:    0
1.0000
   16.703394     0.000000     0.000000
    0.000000    16.839049     0.000000
    0.000000     0.000000    28.791499
   O  Cu
   4   24 
Direct
    0.590717     0.500000     0.500000     0.022881
    0.480711     0.500000     0.500000     0.022895
    0.019194     0.500000     0.500000     0.110574
    0.052234     0.500000     0.500000     0.110587
    0.717263     0.527751     0.569459     0.010857
    0.354165     0.527751     0.569459     0.010976
    0.717263     0.547356     0.434267     0.010857
    0.354165     0.621525     0.506028     0.010976
    0.717263     0.621525     0.506028     0.010857
    0.717263     0.407744     0.453346     0.010857
    0.354165     0.547356     0.434267     0.010976
    0.717263     0.395626     0.536900     0.010857
    0.354165     0.407744     0.453346     0.010976
    0.354165     0.395626     0.536900     0.010976
    0.627538     0.504826     0.576624     0.013901
    0.443890     0.504826     0.576624     0.013934
    0.627538     0.573102     0.436350     0.013901
    0.443890     0.626091     0.520993     0.013935
    0.627538     0.626091     0.520993     0.013902
    0.627538     0.419088     0.439669     0.013901
    0.443890     0.573102     0.436350     0.013933
    0.627538     0.376891     0.526363     0.013901
    0.443890     0.419088     0.439669     0.013933
    0.443890     0.376891     0.526363     0.013933
    0.833720     0.500000     0.500000     0.011639
    0.237708     0.500000     0.500000     0.012652
    0.676980     0.500000     0.500000     0.026653
    0.394448     0.500000     0.500000     0.026701
EA53   19.701 20.183 14.881 90.00 90.00 90.00 Sym.group:    0
1.0000
   19.700682     0.000000     0.000000
    0.000000    20.182964     0.000000
    0.000000     0.000000    14.880615
   O  Cu
   4   24 
Direct
    0.537511     0.500000     0.514028     0.078427
    0.462489     0.500000     0.514028     0.078427
    0.500000     0.500000     0.535157     0.150515
    0.500000     0.500000     0.477911     0.124983
    0.674648     0.375899     0.553319     0.011735
    0.674648     0.624101     0.553319     0.011735
    0.325352     0.624101     0.553319     0.011735
    0.325352     0.375899     0.553319     0.011735
    0.691439     0.500000     0.426281     0.014950
    0.308561     0.500000     0.426281     0.014950
    0.544492     0.428767     0.556945     0.026792
    0.544492     0.571233     0.556945     0.026792
    0.455508     0.571233     0.556945     0.026792
    0.455508     0.428767     0.556945     0.026792
    0.593021     0.500000     0.464417     0.030862
    0.406979     0.500000     0.464417     0.030862
    0.684725     0.419892     0.406373     0.009937
    0.684725     0.580108     0.406373     0.009937
    0.315275     0.580108     0.406373     0.009937
    0.315275     0.419892     0.406373     0.009937
    0.500000     0.373698     0.494295     0.022188
    0.500000     0.626302     0.494295     0.022188
    0.500000     0.325083     0.556828     0.013444
    0.500000     0.674917     0.556828     0.013444
    0.628137     0.404600     0.502171     0.016083
    0.628137     0.595400     0.502171     0.016083
    0.371863     0.595400     0.502171     0.016083
    0.371863     0.404600     0.502171     0.016083
EA54   21.025 18.768 20.236 90.00 90.00 90.00 Sym.group:    0
1.0000
   21.025113     0.000000     0.000000
    0.000000    18.768336     0.000000
    0.000000     0.000000    20.235611
   O  Cu
   4   24 
Direct
    0.430323     0.428688     0.489238     0.021539
    0.444431     0.553601     0.486223     0.032634
    0.729623     0.442603     0.510193     0.007659
    0.518530     0.226950     0.515959     0.007235
    0.397655     0.623102     0.514809     0.018552
    0.370230     0.380291     0.520670     0.016584
    0.425786     0.529258     0.524984     0.045105
    0.472665     0.567030     0.525750     0.036331
    0.417986     0.460191     0.526651     0.044316
    0.318695     0.512700     0.448402     0.011001
    0.515613     0.671368     0.451621     0.009663
    0.319250     0.514485     0.554934     0.010892
    0.517602     0.674309     0.558176     0.008561
    0.342953     0.358273     0.461155     0.011920
    0.376145     0.652135     0.454062     0.012577
    0.694342     0.650830     0.507603     0.009835
    0.574991     0.307695     0.490098     0.011703
    0.606818     0.661565     0.484554     0.011450
    0.653233     0.387626     0.487961     0.013340
    0.514119     0.434003     0.486186     0.022236
    0.538979     0.534256     0.484418     0.018474
    0.549791     0.470447     0.485212     0.022651
    0.663413     0.494271     0.483705     0.016698
    0.480922     0.307837     0.488689     0.015937
    0.650800     0.568716     0.482779     0.017861
    0.566511     0.407811     0.537793     0.015899
    0.288550     0.598379     0.513418     0.008177
    0.620045     0.581580     0.524753     0.018657
EA55   18.831 18.834 18.847 90.00 90.00 90.00 Sym.group:    0
1.0000
   18.830859     0.000000     0.000000
    0.000000    18.833803     0.000000
    0.000000     0.000000    18.847362
   O  Cu
   4   24 
Direct
    0.375514     0.506162     0.401037     0.020400
    0.570610     0.404287     0.390056     0.019368
    0.658722     0.386246     0.441193     0.014429
    0.339950     0.440615     0.553057     0.012791
    0.382102     0.505576     0.583793     0.026050
    0.584315     0.409494     0.438690     0.041279
    0.375390     0.494906     0.449275     0.046960
    0.377667     0.516703     0.535688     0.026383
    0.451825     0.350046     0.543924     0.020655
    0.395637     0.374342     0.423925     0.017295
    0.436013     0.665383     0.437132     0.024751
    0.458793     0.387718     0.454655     0.026464
    0.418197     0.608842     0.466856     0.023413
    0.427669     0.405396     0.515417     0.026391
    0.423842     0.362390     0.483931     0.038066
    0.413385     0.651604     0.498592     0.024142
    0.507329     0.509512     0.488690     0.017926
    0.678265     0.479213     0.586011     0.009364
    0.685780     0.569418     0.426689     0.008571
    0.605260     0.653852     0.469775     0.010230
    0.576002     0.419358     0.629272     0.010444
    0.467824     0.676771     0.484585     0.023075
    0.598301     0.570317     0.617318     0.007908
    0.461632     0.602431     0.615890     0.008179
    0.506969     0.434253     0.614860     0.012776
    0.534090     0.648713     0.478494     0.017066
    0.673725     0.478381     0.484648     0.016974
    0.615192     0.488072     0.486549     0.016514
EA56   18.569 17.884 19.016 90.00 90.00 90.00 Sym.group:    0
1.0000
   18.568856     0.000000     0.000000
    0.000000    17.884169     0.000000
    0.000000     0.000000    19.016197
   O  Cu
   4   24 
Direct
    0.408456     0.610104     0.595120     0.017660
    0.468813     0.381505     0.592122     0.017828
    0.528949     0.535993     0.450933     0.035438
    0.548589     0.474847     0.452683     0.034163
    0.420325     0.606440     0.414416     0.018991
    0.486909     0.379813     0.411710     0.019186
    0.484845     0.375882     0.544337     0.038308
    0.401489     0.601590     0.546358     0.040612
    0.469734     0.380679     0.459338     0.022227
    0.423896     0.618273     0.463122     0.021066
    0.346500     0.428413     0.437029     0.017675
    0.320042     0.489004     0.559046     0.016569
    0.377543     0.452683     0.528810     0.037364
    0.371480     0.490867     0.471142     0.022223
    0.333507     0.458783     0.498048     0.033495
    0.648087     0.612184     0.554172     0.012538
    0.622561     0.341906     0.553340     0.012633
    0.689739     0.482507     0.557885     0.013123
    0.512207     0.685474     0.543504     0.013240
    0.582905     0.396974     0.527405     0.019358
    0.597814     0.571477     0.527823     0.020634
    0.511985     0.617770     0.521084     0.019071
    0.625338     0.485784     0.530276     0.019655
    0.527019     0.644332     0.430327     0.017366
    0.652447     0.475965     0.440591     0.017303
    0.609781     0.386667     0.437704     0.017228
    0.613318     0.597784     0.437103     0.016960
    0.415724     0.416300     0.514572     0.027115
EA57   18.597 18.307 19.439 90.00 90.00 90.00 Sym.group:    0
1.0000
   18.596655     0.000000     0.000000
    0.000000    18.306748     0.000000
    0.000000     0.000000    19.438594
   O  Cu
   4   24 
Direct
    0.356303     0.505160     0.504998     0.018293
    0.441276     0.354922     0.504010     0.014829
    0.524212     0.606212     0.515092     0.023555
    0.625162     0.429035     0.519650     0.021455
    0.467076     0.638251     0.497827     0.028498
    0.383986     0.659264     0.539774     0.014553
    0.314496     0.427700     0.546920     0.018166
    0.324798     0.589044     0.466130     0.017511
    0.351348     0.349067     0.469274     0.018184
    0.379147     0.654344     0.462612     0.014552
    0.309658     0.422780     0.469758     0.017656
    0.329637     0.593965     0.543292     0.016455
    0.356186     0.353987     0.546436     0.017834
    0.501114     0.495973     0.549616     0.021994
    0.497947     0.492752     0.499095     0.024401
    0.607519     0.627898     0.532021     0.019701
    0.688738     0.485351     0.535689     0.018349
    0.547401     0.328630     0.530042     0.014202
    0.625016     0.370022     0.523066     0.036759
    0.527158     0.643726     0.422434     0.016371
    0.484518     0.319380     0.444064     0.018549
    0.658958     0.412408     0.428386     0.015403
    0.627282     0.485005     0.394756     0.012998
    0.573500     0.579396     0.392327     0.013797
    0.621147     0.581583     0.604540     0.013310
    0.655979     0.520452     0.606113     0.014443
    0.645000     0.475804     0.477609     0.030511
    0.575440     0.597887     0.474468     0.030665
EA58   19.487 16.460 20.617 90.00 90.00 90.00 Sym.group:    0
1.0000
   19.487226     0.000000     0.000000
    0.000000    16.459872     0.000000
    0.000000     0.000000    20.616863
   O  Cu
   4   24 
Direct
    0.383039     0.687721     0.508208     0.015432
    0.708763     0.557411     0.493531     0.012822
    0.377693     0.593790     0.474774     0.020565
    0.363154     0.320257     0.545736     0.011624
    0.306487     0.623657     0.506239     0.018350
    0.635735     0.646107     0.500225     0.015112
    0.507900     0.598451     0.501540     0.024297
    0.638772     0.439498     0.489544     0.031321
    0.631343     0.313091     0.516742     0.009284
    0.637324     0.572336     0.531442     0.018867
    0.671258     0.480001     0.516188     0.024250
    0.467589     0.637171     0.529695     0.020443
    0.669234     0.392261     0.511213     0.020488
    0.553503     0.623023     0.526981     0.018122
    0.344151     0.533870     0.526521     0.019439
    0.550869     0.417328     0.566606     0.013666
    0.468571     0.430880     0.569205     0.014544
    0.470509     0.514928     0.573971     0.015425
    0.552808     0.501376     0.571371     0.015578
    0.361461     0.325187     0.484966     0.026421
    0.378123     0.515557     0.460896     0.027305
    0.638569     0.530459     0.442829     0.017562
    0.371548     0.406753     0.465025     0.016558
    0.446443     0.552912     0.418901     0.015438
    0.561660     0.390166     0.416644     0.009387
    0.571929     0.560092     0.410196     0.012217
    0.436174     0.382986     0.425349     0.010873
    0.295391     0.452731     0.515460     0.011340
EA59   19.376 19.406 21.475 90.00 90.00 90.00 Sym.group:    0
1.0000
   19.376177     0.000000     0.000000
    0.000000    19.405831     0.000000
    0.000000     0.000000    21.475083
   O  Cu
   4   24 
Direct
    0.223462     0.555854     0.500569     0.041509
    0.223703     0.506588     0.512161     0.041096
    0.513150     0.510181     0.376188     0.010634
    0.791151     0.498002     0.494133     0.009978
    0.630261     0.625544     0.499579     0.017024
    0.400646     0.580942     0.487395     0.018924
    0.599528     0.513884     0.554126     0.008256
    0.428588     0.643453     0.497398     0.019644
    0.355498     0.654053     0.525376     0.018408
    0.364491     0.623603     0.487783     0.026167
    0.299398     0.557135     0.504430     0.023264
    0.665186     0.663777     0.539419     0.017521
    0.529988     0.643957     0.518997     0.009793
    0.730721     0.536543     0.506165     0.022537
    0.639856     0.685044     0.498459     0.020197
    0.706841     0.476396     0.445045     0.011458
    0.568670     0.342354     0.449067     0.007951
    0.371780     0.371731     0.451168     0.009167
    0.308307     0.448210     0.562563     0.011334
    0.447407     0.329128     0.562699     0.007946
    0.644003     0.379735     0.559284     0.007897
    0.701792     0.469439     0.557048     0.011268
    0.563621     0.335397     0.561070     0.007398
    0.366732     0.364774     0.563171     0.008669
    0.313356     0.455167     0.450560     0.010439
    0.452456     0.336085     0.450696     0.008177
    0.649052     0.386692     0.447282     0.008878
    0.510356     0.506331     0.438168     0.023160
EA60   19.731 19.335 19.978 90.00 90.00 90.00 Sym.group:    0
1.0000
   19.730977     0.000000     0.000000
    0.000000    19.335210     0.000000
    0.000000     0.000000    19.977612
   O  Cu
   4   24 
Direct
    0.373790     0.515669     0.655693     0.006879
    0.450530     0.542584     0.446580     0.014456
    0.525191     0.569323     0.529821     0.016203
    0.687635     0.496119     0.513506     0.017034
    0.293299     0.509047     0.495350     0.008216
    0.376152     0.341545     0.558507     0.006823
    0.498509     0.494040     0.673262     0.012222
    0.434360     0.327334     0.451116     0.006880
    0.355686     0.625954     0.472723     0.009269
    0.357633     0.482451     0.392627     0.009948
    0.430226     0.632086     0.621212     0.011945
    0.500696     0.332790     0.583261     0.009636
    0.488614     0.639181     0.580668     0.017269
    0.555464     0.371179     0.553974     0.015238
    0.553611     0.507777     0.630216     0.013063
    0.399977     0.472681     0.545908     0.012474
    0.555548     0.495360     0.450698     0.018878
    0.414593     0.578577     0.394525     0.018366
    0.556437     0.629379     0.552673     0.023501
    0.614111     0.488861     0.402349     0.012410
    0.475757     0.450432     0.294103     0.008411
    0.598406     0.327590     0.471760     0.010319
    0.582397     0.655395     0.372089     0.009076
    0.705045     0.532553     0.549746     0.035439
    0.627063     0.521662     0.533277     0.022007
    0.548988     0.599861     0.420184     0.016161
    0.559178     0.391185     0.483632     0.017168
    0.481103     0.469385     0.370539     0.012405
EA61   16.686 20.439 21.492 90.00 90.00 90.00 Sym.group:    0
1.0000
   16.686468     0.000000     0.000000
    0.000000    20.438900     0.000000
    0.000000     0.000000    21.491647
   O  Cu
   4   24 
Direct
    0.547041     0.294576     0.523900     0.008645
    0.785733     0.545058     0.517595     0.008925
    0.551252     0.615507     0.483976     0.022168
    0.285808     0.565700     0.522360     0.018868
    0.775395     0.442821     0.523272     0.011435
    0.422209     0.309063     0.518594     0.011991
    0.628465     0.604226     0.507342     0.027050
    0.609940     0.421007     0.517517     0.026361
    0.492322     0.350391     0.484922     0.016091
    0.721714     0.499311     0.484291     0.017597
    0.595560     0.371524     0.496117     0.018911
    0.689866     0.586781     0.486748     0.018750
    0.673198     0.421925     0.495904     0.017428
    0.394271     0.394883     0.487561     0.011483
    0.507273     0.465554     0.438601     0.013145
    0.581643     0.513834     0.438397     0.014479
    0.257540     0.496933     0.524415     0.022747
    0.548337     0.618573     0.531790     0.035130
    0.288723     0.562635     0.474546     0.034137
    0.355810     0.545066     0.549737     0.025371
    0.498598     0.566651     0.460776     0.023302
    0.337301     0.480097     0.457614     0.016505
    0.361535     0.539048     0.455852     0.019429
    0.492873     0.572670     0.554661     0.014931
    0.331576     0.486115     0.551499     0.018638
    0.129612     0.563410     0.491281     0.007723
    0.692716     0.676815     0.511508     0.009631
    0.443688     0.489824     0.509225     0.022043
EA62   16.532 19.305 19.311 90.00 90.00 90.00 Sym.group:    0
1.0000
   16.532252     0.000000     0.000000
    0.000000    19.304914     0.000000
    0.000000     0.000000    19.310604
   O  Cu
   4   24 
Direct
    0.473920     0.507731     0.381889     0.015979
    0.656440     0.564900     0.596969     0.019061
    0.643750     0.562057     0.407081     0.017984
    0.679757     0.466046     0.545460     0.024025
    0.294001     0.548975     0.567041     0.009145
    0.351595     0.382986     0.563440     0.009879
    0.544473     0.341522     0.552649     0.011267
    0.445636     0.337750     0.450938     0.010475
    0.293241     0.449909     0.459660     0.010385
    0.326550     0.619805     0.458233     0.009149
    0.286068     0.549110     0.460302     0.009641
    0.343662     0.383121     0.456701     0.010500
    0.536540     0.341657     0.445910     0.011500
    0.453569     0.337615     0.557677     0.009802
    0.301174     0.449774     0.566399     0.009962
    0.334483     0.619669     0.564972     0.008859
    0.478310     0.507656     0.440956     0.032371
    0.660984     0.554282     0.545893     0.042626
    0.644213     0.574517     0.457887     0.041194
    0.565224     0.685847     0.442789     0.016059
    0.651737     0.382376     0.437711     0.013385
    0.505457     0.691975     0.574059     0.009914
    0.703638     0.429586     0.562953     0.044616
    0.627112     0.415308     0.533788     0.030009
    0.504645     0.649685     0.479355     0.018430
    0.649551     0.445907     0.471220     0.025716
    0.535306     0.688674     0.508425     0.021385
    0.508967     0.511560     0.509643     0.019439
EA63   19.801 19.664 21.218 90.00 90.00 90.00 Sym.group:    0
1.0000
   19.801385     0.000000     0.000000
    0.000000    19.664078     0.000000
    0.000000     0.000000    21.217608
   O  Cu
   4   24 
Direct
    0.696190     0.648030     0.482676     0.007588
    0.411596     0.733472     0.492254     0.007376
    0.323063     0.393623     0.560318     0.006476
    0.274924     0.595389     0.508496     0.007402
    0.751499     0.452309     0.492456     0.008515
    0.498169     0.690682     0.513256     0.013174
    0.676415     0.401526     0.522572     0.009566
    0.603653     0.659013     0.509705     0.013213
    0.495573     0.553255     0.525021     0.020294
    0.560614     0.478839     0.526399     0.015033
    0.543665     0.538816     0.523402     0.022069
    0.657991     0.572139     0.514916     0.015756
    0.411957     0.646004     0.523197     0.013385
    0.677765     0.502163     0.518413     0.011185
    0.531037     0.600818     0.470675     0.015048
    0.404643     0.330789     0.411454     0.006671
    0.488715     0.301928     0.566621     0.006873
    0.385749     0.491119     0.635347     0.007527
    0.606388     0.354420     0.518500     0.008215
    0.392010     0.456716     0.369610     0.008542
    0.528532     0.381147     0.374805     0.008291
    0.316462     0.514906     0.507467     0.015173
    0.539155     0.406204     0.641184     0.005720
    0.373102     0.574570     0.499162     0.014736
    0.437100     0.525278     0.382381     0.009186
    0.567053     0.453344     0.387327     0.009470
    0.405796     0.342641     0.512769     0.013246
    0.441185     0.400859     0.509617     0.013904
EA64   21.174 19.766 17.109 90.00 90.00 90.00 Sym.group:    0
1.0000
   21.173605     0.000000     0.000000
    0.000000    19.765632     0.000000
    0.000000     0.000000    17.109443
   O  Cu
   4   24 
Direct
    0.492889     0.494513     0.635122     0.012043
    0.760842     0.448980     0.501940     0.036639
    0.757742     0.494360     0.522060     0.036666
    0.228632     0.544268     0.484966     0.005489
    0.317576     0.511490     0.438213     0.011541
    0.442788     0.663950     0.433360     0.007970
    0.620764     0.650016     0.426110     0.008114
    0.546255     0.678629     0.554097     0.008839
    0.368383     0.608684     0.561214     0.008679
    0.316049     0.425747     0.563061     0.009838
    0.315945     0.509627     0.563193     0.010954
    0.441157     0.662088     0.558340     0.008335
    0.619134     0.648153     0.551090     0.008800
    0.547886     0.680492     0.429116     0.008400
    0.370013     0.610547     0.436234     0.008423
    0.317680     0.427610     0.438081     0.010195
    0.493791     0.495543     0.565961     0.026962
    0.389431     0.382698     0.471359     0.018633
    0.598177     0.424802     0.471321     0.020693
    0.576963     0.507201     0.428802     0.010600
    0.577031     0.367346     0.478537     0.019749
    0.646508     0.358334     0.520828     0.016292
    0.634536     0.385824     0.470484     0.028285
    0.690881     0.447425     0.502814     0.025646
    0.361422     0.347840     0.521655     0.018140
    0.484216     0.366564     0.502677     0.009464
    0.698731     0.529286     0.504959     0.020922
    0.384575     0.327982     0.464407     0.020793
EA65   17.951 19.888 19.812 90.00 90.00 90.00 Sym.group:    0
1.0000
   17.951154     0.000000     0.000000
    0.000000    19.888300     0.000000
    0.000000     0.000000    19.811638
   O  Cu
   4   24 
Direct
    0.337627     0.465406     0.550089     0.024032
    0.425106     0.620285     0.547272     0.022014
    0.620269     0.590258     0.557204     0.020275
    0.721424     0.501529     0.543524     0.010236
    0.470128     0.633018     0.462570     0.024790
    0.332445     0.510900     0.461751     0.024607
    0.333085     0.464426     0.463786     0.026901
    0.420563     0.619305     0.460969     0.025265
    0.615727     0.589278     0.470901     0.018103
    0.474670     0.633998     0.548873     0.047620
    0.336988     0.511880     0.548054     0.049354
    0.651541     0.552260     0.560229     0.044423
    0.263892     0.489079     0.502732     0.019097
    0.424804     0.687035     0.501305     0.020213
    0.690678     0.607163     0.516517     0.019340
    0.508186     0.487600     0.654522     0.009789
    0.673484     0.409610     0.410806     0.009218
    0.619946     0.345749     0.559378     0.007173
    0.491676     0.330768     0.526777     0.009419
    0.624887     0.518290     0.376123     0.010590
    0.356145     0.400848     0.522519     0.019283
    0.541254     0.389906     0.389189     0.010223
    0.531185     0.406522     0.636155     0.008935
    0.400268     0.453477     0.400075     0.011391
    0.554714     0.552229     0.394221     0.010999
    0.475105     0.430021     0.406658     0.014982
    0.433106     0.379924     0.523212     0.015538
    0.671095     0.419236     0.504590     0.012751
EA66   19.088 19.170 20.456 90.00 90.00 90.00 Sym.group:    0
1.0000
   19.087558     0.000000     0.000000
    0.000000    19.170117     0.000000
    0.000000     0.000000    20.455920
   O  Cu
   4   24 
Direct
    0.397517     0.589349     0.442243     0.011286
    0.356933     0.390639     0.442171     0.011400
    0.594218     0.556629     0.443967     0.015073
    0.771125     0.464580     0.525043     0.010936
    0.551810     0.672261     0.551374     0.010860
    0.279733     0.544624     0.549228     0.010866
    0.369880     0.633308     0.524893     0.013386
    0.311435     0.363047     0.524767     0.012050
    0.284880     0.490351     0.417851     0.009666
    0.500494     0.665841     0.419448     0.009797
    0.429801     0.432721     0.497281     0.020381
    0.435314     0.517535     0.497210     0.019282
    0.370906     0.528631     0.559117     0.014705
    0.465843     0.682471     0.532708     0.009498
    0.266188     0.457529     0.531315     0.010054
    0.607968     0.583903     0.517598     0.023490
    0.583276     0.401406     0.486840     0.022361
    0.571486     0.482797     0.452486     0.022302
    0.551615     0.345749     0.493413     0.016826
    0.627582     0.334777     0.526350     0.017909
    0.619392     0.361918     0.486973     0.030051
    0.690028     0.420656     0.510914     0.016323
    0.645987     0.616934     0.478201     0.021537
    0.445603     0.348217     0.511879     0.011431
    0.421428     0.460457     0.545723     0.017688
    0.709480     0.500763     0.511096     0.023072
    0.620332     0.637487     0.521978     0.028727
    0.519746     0.515420     0.497934     0.017851
EA67   19.900 19.083 20.622 90.00 90.00 90.00 Sym.group:    0
1.0000
   19.900273     0.000000     0.000000
    0.000000    19.082996     0.000000
    0.000000     0.000000    20.621840
   O  Cu
   4   24 
Direct
    0.558329     0.565313     0.488102     0.028018
    0.244484     0.453016     0.506958     0.039107
    0.245626     0.501219     0.518348     0.039305
    0.797422     0.494437     0.463437     0.004857
    0.588524     0.638134     0.517819     0.021843
    0.527955     0.574386     0.526168     0.044866
    0.615276     0.488968     0.532079     0.023818
    0.466222     0.552046     0.526034     0.016075
    0.587202     0.549313     0.528571     0.040961
    0.697427     0.550088     0.457294     0.010698
    0.448554     0.655409     0.447201     0.011092
    0.452806     0.664019     0.554289     0.010232
    0.703492     0.557931     0.564456     0.008392
    0.335632     0.569544     0.456599     0.012411
    0.598293     0.664595     0.457171     0.012099
    0.637976     0.376151     0.480446     0.017973
    0.416293     0.423651     0.482351     0.020299
    0.433521     0.507400     0.444643     0.013407
    0.441710     0.363645     0.491321     0.018630
    0.369815     0.357300     0.524678     0.018050
    0.380147     0.383553     0.485443     0.026038
    0.318122     0.450240     0.506038     0.023636
    0.670064     0.341524     0.519224     0.016949
    0.539690     0.362317     0.506874     0.009748
    0.568921     0.481735     0.532064     0.024329
    0.305521     0.535906     0.501844     0.024919
    0.645902     0.318654     0.479208     0.023312
    0.405072     0.619505     0.501339     0.013563
EA68   20.834 18.920 19.676 90.00 90.00 90.00 Sym.group:    0
1.0000
   20.833734     0.000000     0.000000
    0.000000    18.919557     0.000000
    0.000000     0.000000    19.676383
   O  Cu
   4   24 
Direct
    0.481035     0.494368     0.626329     0.011957
    0.744671     0.447300     0.478146     0.040786
    0.745255     0.497387     0.464794     0.040812
    0.534381     0.325967     0.547188     0.010685
    0.297522     0.529770     0.541894     0.008191
    0.424711     0.669252     0.551174     0.007524
    0.606735     0.637092     0.558461     0.009062
    0.529717     0.680124     0.434337     0.008124
    0.348249     0.628475     0.424908     0.007177
    0.295173     0.534886     0.420120     0.005834
    0.422362     0.674369     0.429400     0.007194
    0.604385     0.642209     0.436687     0.008378
    0.661014     0.549259     0.558611     0.010614
    0.532066     0.675008     0.556112     0.008316
    0.350598     0.623358     0.546682     0.007660
    0.298078     0.445960     0.539751     0.008944
    0.479735     0.497200     0.558942     0.024827
    0.362165     0.375575     0.499774     0.018687
    0.562556     0.509784     0.539571     0.012054
    0.551386     0.358254     0.492682     0.023744
    0.621285     0.349198     0.458636     0.019364
    0.611247     0.378015     0.499864     0.022476
    0.673523     0.445896     0.477592     0.024380
    0.331018     0.338865     0.458306     0.018553
    0.457153     0.358366     0.473905     0.010868
    0.433059     0.483072     0.443496     0.008850
    0.688143     0.535342     0.480378     0.023025
    0.352777     0.315650     0.502260     0.020945
EA69   18.637 18.584 19.135 90.00 90.00 90.00 Sym.group:    0
1.0000
   18.637057     0.000000     0.000000
    0.000000    18.583771     0.000000
    0.000000     0.000000    19.134692
   O  Cu
   4   24 
Direct
    0.347188     0.414519     0.482272     0.020327
    0.640601     0.497201     0.449688     0.025908
    0.588646     0.591483     0.507860     0.021901
    0.396745     0.545175     0.532678     0.020593
    0.527361     0.350627     0.482827     0.024275
    0.484431     0.360841     0.567463     0.022963
    0.639188     0.464920     0.539432     0.030069
    0.647545     0.513399     0.530232     0.030517
    0.534305     0.366825     0.563371     0.023580
    0.324721     0.459299     0.475601     0.044070
    0.477487     0.344643     0.486918     0.023409
    0.632244     0.448722     0.458887     0.049019
    0.515983     0.289067     0.536490     0.026698
    0.278047     0.416669     0.528005     0.019293
    0.707507     0.468199     0.492775     0.024193
    0.471041     0.484525     0.366961     0.010638
    0.552673     0.668598     0.520276     0.017702
    0.398278     0.631341     0.540243     0.018133
    0.644275     0.575641     0.506165     0.039803
    0.354459     0.505705     0.543645     0.034556
    0.355989     0.544994     0.441777     0.018519
    0.425937     0.566321     0.399285     0.013562
    0.528173     0.590992     0.386063     0.012258
    0.516286     0.657690     0.599144     0.013221
    0.450073     0.641712     0.607707     0.013481
    0.414592     0.584932     0.483777     0.030659
    0.546821     0.616841     0.466676     0.026565
    0.599404     0.399121     0.503782     0.017470
EA70   21.539 17.731 20.133 90.00 90.00 90.00 Sym.group:    0
1.0000
   21.538720     0.000000     0.000000
    0.000000    17.731407     0.000000
    0.000000     0.000000    20.133055
   O  Cu
   4   24 
Direct
    0.519667     0.341947     0.464324     0.014254
    0.333136     0.422775     0.457387     0.020152
    0.746042     0.525076     0.493754     0.036765
    0.741720     0.467334     0.477969     0.039348
    0.313463     0.470637     0.543198     0.023234
    0.470629     0.337639     0.552701     0.016189
    0.633447     0.437633     0.549143     0.014702
    0.522651     0.340493     0.553204     0.018512
    0.336120     0.421321     0.546267     0.022042
    0.310478     0.472090     0.454318     0.042332
    0.467645     0.339093     0.463820     0.028564
    0.630463     0.439087     0.460262     0.013382
    0.706883     0.445412     0.505261     0.043208
    0.504558     0.268028     0.512677     0.017333
    0.258935     0.420839     0.500929     0.016250
    0.468345     0.509337     0.353418     0.007600
    0.390446     0.654938     0.525261     0.021761
    0.590524     0.576838     0.521091     0.017767
    0.569156     0.478366     0.554886     0.011546
    0.571245     0.651121     0.515880     0.016041
    0.637531     0.651634     0.481251     0.019289
    0.626369     0.621425     0.521049     0.024097
    0.678705     0.535438     0.494466     0.023753
    0.363274     0.699235     0.486305     0.015390
    0.481453     0.661956     0.498757     0.009068
    0.446539     0.521445     0.462707     0.009425
    0.293518     0.564246     0.518855     0.009813
    0.387058     0.724616     0.530860     0.016107
EA71   20.392 20.593 18.900 90.00 90.00 90.00 Sym.group:    0
1.0000
   20.392184     0.000000     0.000000
    0.000000    20.593153     0.000000
    0.000000     0.000000    18.899742
   O  Cu
   4   24 
Direct
    0.329858     0.505284     0.402019     0.009131
    0.463712     0.270910     0.519085     0.007634
    0.667940     0.330692     0.497884     0.008007
    0.736887     0.617809     0.496311     0.007685
    0.345572     0.595991     0.449575     0.015591
    0.632898     0.596311     0.561496     0.011113
    0.483116     0.571279     0.408992     0.009463
    0.400425     0.605987     0.468848     0.012995
    0.550760     0.618316     0.440452     0.009290
    0.323855     0.579198     0.526534     0.010732
    0.352490     0.482937     0.584517     0.010981
    0.385370     0.695412     0.560670     0.005176
    0.657887     0.621416     0.500466     0.016597
    0.536081     0.661900     0.527994     0.007974
    0.291137     0.465812     0.485975     0.016394
    0.475759     0.526585     0.566464     0.011167
    0.671729     0.424547     0.471543     0.013242
    0.316392     0.419473     0.510500     0.013975
    0.403052     0.345900     0.499434     0.012580
    0.697284     0.530968     0.470959     0.012945
    0.538933     0.482097     0.484052     0.014340
    0.476347     0.463777     0.490549     0.019775
    0.510296     0.346879     0.484667     0.014234
    0.583311     0.368252     0.477087     0.013773
    0.605590     0.494245     0.537304     0.011970
    0.413355     0.437974     0.557260     0.015127
    0.436838     0.497320     0.495594     0.019952
    0.713126     0.442725     0.523771     0.011494
EA72   19.044 22.357 21.088 90.00 90.00 90.00 Sym.group:    0
1.0000
   19.044487     0.000000     0.000000
    0.000000    22.356839     0.000000
    0.000000     0.000000    21.088045
   O  Cu
   4   24 
Direct
    0.174703     0.536160     0.525126     0.006009
    0.683615     0.661906     0.498422     0.007228
    0.783295     0.463390     0.503215     0.031636
    0.774526     0.512552     0.487754     0.031874
    0.335425     0.681015     0.524376     0.006499
    0.441643     0.659992     0.490140     0.007978
    0.570700     0.652909     0.480520     0.011820
    0.230201     0.469424     0.491127     0.011859
    0.443439     0.541225     0.478358     0.024552
    0.502280     0.537996     0.473972     0.018332
    0.394187     0.496835     0.478587     0.014877
    0.281230     0.553231     0.490942     0.011512
    0.639703     0.588500     0.468237     0.014471
    0.338691     0.605020     0.490674     0.009089
    0.485388     0.590554     0.533532     0.015581
    0.460014     0.495985     0.483616     0.025683
    0.354929     0.371182     0.507945     0.016441
    0.597032     0.427129     0.518990     0.015816
    0.570546     0.510855     0.552720     0.021994
    0.575508     0.365470     0.511432     0.015243
    0.653556     0.362181     0.481303     0.015583
    0.642510     0.387702     0.520936     0.019885
    0.701196     0.458009     0.499003     0.022210
    0.319562     0.335682     0.466250     0.013726
    0.464253     0.361055     0.487670     0.008561
    0.523649     0.516181     0.543877     0.023566
    0.704495     0.545391     0.498820     0.019450
    0.353722     0.312470     0.512455     0.017296
EA73   19.574 20.344 19.139 90.00 90.00 90.00 Sym.group:    0
1.0000
   19.573722     0.000000     0.000000
    0.000000    20.344148     0.000000
    0.000000     0.000000    19.139400
   O  Cu
   4   24 
Direct
    0.345685     0.468590     0.454142     0.021240
    0.326481     0.511347     0.536311     0.024172
    0.364765     0.544018     0.595883     0.017027
    0.732407     0.511193     0.517482     0.007239
    0.344885     0.447312     0.503384     0.037533
    0.327280     0.532624     0.487069     0.037974
    0.571451     0.410739     0.440325     0.018197
    0.410893     0.496548     0.444849     0.025846
    0.528763     0.466346     0.437636     0.016127
    0.395116     0.551443     0.473075     0.024245
    0.409323     0.454769     0.541538     0.024028
    0.206807     0.464288     0.471613     0.009222
    0.658191     0.353961     0.452984     0.008789
    0.631609     0.510369     0.611613     0.010485
    0.487522     0.556747     0.639215     0.010588
    0.668650     0.626873     0.513757     0.009483
    0.562881     0.364762     0.551883     0.013422
    0.529144     0.687659     0.529258     0.008827
    0.426358     0.427165     0.586060     0.019720
    0.592172     0.643018     0.515662     0.013941
    0.498692     0.408773     0.558212     0.017421
    0.556913     0.532120     0.608810     0.015408
    0.697372     0.453711     0.435004     0.013200
    0.637907     0.477712     0.445943     0.017186
    0.505020     0.674581     0.378248     0.004572
    0.436292     0.528973     0.318518     0.006226
    0.570652     0.389461     0.489567     0.019853
    0.576769     0.504897     0.461958     0.019031
EA74   18.983 18.684 18.623 90.00 90.00 90.00 Sym.group:    0
1.0000
   18.982856     0.000000     0.000000
    0.000000    18.683998     0.000000
    0.000000     0.000000    18.622517
   O  Cu
   4   24 
Direct
    0.631365     0.345108     0.537908     0.008671
    0.547382     0.427682     0.673696     0.008233
    0.450358     0.625682     0.597142     0.016979
    0.403428     0.387910     0.414371     0.009187
    0.701941     0.508507     0.524075     0.007398
    0.413811     0.354823     0.582904     0.008074
    0.489478     0.352372     0.365422     0.012483
    0.576981     0.351659     0.391594     0.010743
    0.570587     0.414882     0.334662     0.008428
    0.564380     0.351258     0.603830     0.017027
    0.672971     0.562168     0.436601     0.011700
    0.621519     0.411250     0.619655     0.016493
    0.394062     0.359546     0.490648     0.016394
    0.518186     0.438337     0.494015     0.017354
    0.438020     0.618848     0.406885     0.017283
    0.457278     0.630355     0.545653     0.038403
    0.429356     0.618702     0.458371     0.019317
    0.623096     0.615720     0.427368     0.022208
    0.312814     0.555150     0.447181     0.015141
    0.586480     0.661062     0.556865     0.015677
    0.315105     0.499554     0.576749     0.018103
    0.596450     0.593413     0.524454     0.021359
    0.360998     0.540602     0.539650     0.021687
    0.350614     0.498869     0.479679     0.023186
    0.561145     0.616333     0.464438     0.022088
    0.604639     0.638199     0.492130     0.032115
    0.314197     0.527309     0.511952     0.033677
    0.493361     0.494698     0.502103     0.020311
EA75   18.614 20.760 21.575 90.00 90.00 90.00 Sym.group:    0
1.0000
   18.614164     0.000000     0.000000
    0.000000    20.760412     0.000000
    0.000000     0.000000    21.575286
   O  Cu
   4   24 
Direct
    0.227843     0.438984     0.478375     0.007064
    0.672265     0.329093     0.494735     0.008178
    0.353432     0.284424     0.476324     0.007185
    0.438059     0.633824     0.495264     0.011869
    0.451203     0.315044     0.506752     0.012994
    0.285980     0.518379     0.509450     0.013995
    0.569379     0.331601     0.513576     0.014433
    0.469321     0.450509     0.517800     0.026064
    0.430834     0.497873     0.518429     0.020132
    0.523199     0.458058     0.520911     0.022890
    0.320369     0.426165     0.508758     0.015320
    0.640903     0.409524     0.523942     0.014708
    0.365270     0.370907     0.508025     0.014490
    0.503998     0.397741     0.465060     0.013417
    0.491352     0.503295     0.512542     0.034123
    0.635008     0.579592     0.498613     0.012868
    0.733832     0.536972     0.462072     0.009730
    0.513119     0.699415     0.460170     0.012049
    0.735715     0.445487     0.536329     0.011026
    0.604516     0.668283     0.537496     0.010123
    0.329393     0.642374     0.530968     0.011449
    0.728600     0.532449     0.537755     0.009680
    0.507886     0.694891     0.535853     0.012687
    0.740948     0.450011     0.460646     0.010722
    0.609748     0.672806     0.461813     0.009899
    0.334625     0.646898     0.455284     0.011882
    0.506414     0.493542     0.444533     0.012247
    0.276789     0.571858     0.528526     0.012190
EA76   21.007 18.124 23.568 90.00 90.00 90.00 Sym.group:    0
1.0000
   21.007247     0.000000     0.000000
    0.000000    18.124495     0.000000
    0.000000     0.000000    23.568138
   O  Cu
   4   24 
Direct
    0.797187     0.555628     0.508942     0.031550
    0.795082     0.502517     0.491473     0.031908
    0.211682     0.455162     0.485300     0.031111
    0.213787     0.508273     0.502769     0.031213
    0.281133     0.533635     0.434717     0.012512
    0.587656     0.555852     0.547594     0.015760
    0.357775     0.575833     0.514363     0.017181
    0.379258     0.611462     0.537039     0.016598
    0.255833     0.632973     0.474883     0.009042
    0.212248     0.620621     0.569940     0.007194
    0.665090     0.651895     0.419779     0.006527
    0.580662     0.600219     0.438731     0.008685
    0.361428     0.449822     0.538704     0.011922
    0.472963     0.594197     0.505514     0.011337
    0.513778     0.564578     0.472381     0.011848
    0.718310     0.672425     0.515190     0.007784
    0.628736     0.373881     0.485910     0.015781
    0.392034     0.423269     0.470721     0.018505
    0.604393     0.499296     0.558766     0.019487
    0.421036     0.359119     0.478571     0.014261
    0.348791     0.353950     0.509997     0.015086
    0.354387     0.379650     0.467446     0.023790
    0.718757     0.557956     0.503132     0.018796
    0.668413     0.339500     0.531320     0.014514
    0.527543     0.359815     0.506070     0.007504
    0.560518     0.491441     0.548368     0.018121
    0.733789     0.465504     0.502005     0.022157
    0.637732     0.311527     0.480375     0.014827
EA77   19.676 18.563 19.298 90.00 90.00 90.00 Sym.group:    0
1.0000
   19.676401     0.000000     0.000000
    0.000000    18.562797     0.000000
    0.000000     0.000000    19.298149
   O  Cu
   4   24 
Direct
    0.601091     0.508628     0.497274     0.012078
    0.682965     0.547467     0.417230     0.010766
    0.374937     0.386417     0.442553     0.011582
    0.579618     0.661586     0.459317     0.009801
    0.687516     0.435752     0.447178     0.011764
    0.666596     0.436471     0.562819     0.011345
    0.649117     0.548631     0.604339     0.009847
    0.533150     0.357963     0.408334     0.011028
    0.498352     0.391505     0.584726     0.022839
    0.476441     0.570803     0.617649     0.021145
    0.601267     0.368199     0.414468     0.010361
    0.566742     0.394893     0.592717     0.010765
    0.543546     0.574255     0.632735     0.012108
    0.432219     0.378112     0.569152     0.016265
    0.448216     0.548505     0.331655     0.013115
    0.374143     0.525502     0.598755     0.013206
    0.437037     0.620185     0.591483     0.019449
    0.391261     0.608660     0.399185     0.013172
    0.429429     0.540884     0.636648     0.017470
    0.381751     0.604802     0.553589     0.013010
    0.450625     0.625696     0.370903     0.013542
    0.369737     0.384307     0.526966     0.018357
    0.428335     0.341284     0.449678     0.020329
    0.388853     0.531469     0.359939     0.013082
    0.462870     0.653854     0.481666     0.013777
    0.455830     0.428162     0.366915     0.012545
    0.647732     0.604015     0.468407     0.021224
    0.440627     0.421995     0.613721     0.015853
EA78   16.795 19.819 22.841 90.00 90.00 90.00 Sym.group:    0
1.0000
   16.795386     0.000000     0.000000
    0.000000    19.818694     0.000000
    0.000000     0.000000    22.840773
   O  Cu
   4   24 
Direct
    0.501978     0.573662     0.517756     0.032434
    0.793530     0.549657     0.479874     0.010614
    0.613607     0.556447     0.386596     0.007780
    0.212006     0.473550     0.537631     0.012509
    0.169386     0.494942     0.500307     0.025251
    0.842185     0.484254     0.547289     0.010768
    0.845727     0.421496     0.515849     0.009019
    0.165843     0.557700     0.531747     0.012664
    0.718388     0.533050     0.531769     0.016608
    0.286819     0.579915     0.521852     0.013136
    0.613009     0.550821     0.569047     0.016445
    0.390052     0.575033     0.563923     0.020602
    0.579980     0.479078     0.534881     0.025441
    0.456884     0.576620     0.492570     0.038537
    0.548197     0.566704     0.494669     0.040804
    0.658519     0.505434     0.565630     0.017990
    0.352772     0.463619     0.520693     0.012393
    0.348511     0.539099     0.558506     0.020916
    0.662779     0.429954     0.527817     0.013443
    0.332306     0.615151     0.450947     0.008829
    0.375325     0.292348     0.518562     0.007459
    0.343265     0.452674     0.398782     0.007659
    0.277153     0.506216     0.434666     0.011589
    0.406967     0.324347     0.456978     0.008406
    0.721782     0.512945     0.428899     0.015375
    0.522941     0.316103     0.481898     0.006122
    0.706944     0.599475     0.429996     0.016894
    0.553146     0.469706     0.500865     0.023528
EA79   19.991 19.989 16.947 90.00 90.00 90.00 Sym.group:    0
1.0000
   19.991364     0.000000     0.000000
    0.000000    19.988860     0.000000
    0.000000     0.000000    16.947213
   O  Cu
   4   24 
Direct
    0.606328     0.349519     0.523895     0.015294
    0.683469     0.516854     0.523895     0.015695
    0.577140     0.667335     0.523895     0.015695
    0.393672     0.650481     0.523895     0.015294
    0.316531     0.483146     0.523895     0.015371
    0.422860     0.332665     0.523895     0.015371
    0.515914     0.316425     0.476105     0.015794
    0.348996     0.394429     0.476105     0.015519
    0.333082     0.578004     0.476105     0.016848
    0.484086     0.683575     0.476105     0.020140
    0.651004     0.605571     0.476105     0.020218
    0.666918     0.421996     0.476105     0.020127
    0.470468     0.580702     0.500000     0.026390
    0.415352     0.514773     0.500000     0.025616
    0.444884     0.434071     0.500000     0.025782
    0.529532     0.419298     0.500000     0.026542
    0.584648     0.485227     0.500000     0.026430
    0.555116     0.565929     0.500000     0.026440
    0.381197     0.599342     0.500000     0.031017
    0.354576     0.446772     0.500000     0.024790
    0.473379     0.347430     0.500000     0.025065
    0.618803     0.400658     0.500000     0.031231
    0.645424     0.553228     0.500000     0.031254
    0.526621     0.652570     0.500000     0.031261
    0.500000     0.500000     0.534292     0.036018
    0.500000     0.500000     0.465708     0.036203
    0.500000     0.500000     0.627077     0.019642
    0.500000     0.500000     0.372923     0.019313
EA80   18.917 17.928 15.984 90.00 90.00 90.00 Sym.group:    0
1.0000
   18.917485     0.000000     0.000000
    0.000000    17.927628     0.000000
    0.000000     0.000000    15.983881
   O  Cu
   4   24 
Direct
    0.400369     0.608036     0.433162     0.019485
    0.400369     0.391964     0.566838     0.019485
    0.599631     0.608036     0.433162     0.019485
    0.599631     0.391964     0.566838     0.019485
    0.545404     0.413313     0.419534     0.019159
    0.545404     0.586687     0.580466     0.019159
    0.454596     0.413313     0.419534     0.019159
    0.454596     0.586687     0.580466     0.019159
    0.539061     0.435532     0.525896     0.025395
    0.539061     0.564468     0.474104     0.025395
    0.460939     0.435532     0.525896     0.025395
    0.460939     0.564468     0.474104     0.025395
    0.334082     0.417551     0.435186     0.011112
    0.334082     0.582449     0.564814     0.011112
    0.665918     0.417551     0.435186     0.011112
    0.665918     0.582449     0.564814     0.011112
    0.426602     0.352529     0.465518     0.019743
    0.426602     0.647471     0.534482     0.019743
    0.573398     0.352529     0.465518     0.019743
    0.573398     0.647471     0.534482     0.019743
    0.345104     0.578481     0.395398     0.024754
    0.345104     0.421519     0.604602     0.024754
    0.654896     0.578481     0.395398     0.024754
    0.654896     0.421519     0.604602     0.024754
    0.605259     0.603457     0.497055     0.036919
    0.605259     0.396543     0.502945     0.036919
    0.394741     0.603457     0.497055     0.036919
    0.394741     0.396543     0.502945     0.036919
EA81   27.918 16.574 16.574 90.00 90.00 90.00 Sym.group:    0
1.0000
   27.918267     0.000000     0.000000
    0.000000    16.573616     0.000000
    0.000000     0.000000    16.573616
   O  Cu
   4   24 
Direct
    0.226375     0.456157     0.464968     0.014429
    0.773625     0.464968     0.543843     0.014429
    0.226375     0.543843     0.535032     0.014429
    0.773625     0.535032     0.456157     0.014429
    0.558409     0.446021     0.438353     0.014793
    0.441591     0.438353     0.553979     0.014793
    0.558409     0.553979     0.561647     0.014793
    0.441591     0.561647     0.446021     0.014793
    0.669995     0.527956     0.571946     0.007479
    0.330005     0.571946     0.472044     0.007479
    0.669995     0.472044     0.428054     0.007479
    0.330005     0.428054     0.527956     0.007479
    0.731610     0.475238     0.580653     0.023254
    0.268390     0.580653     0.524762     0.023254
    0.731610     0.524762     0.419347     0.023254
    0.268390     0.419347     0.475238     0.023254
    0.462813     0.442900     0.448645     0.021189
    0.537187     0.448645     0.557100     0.021189
    0.462813     0.557100     0.551355     0.021189
    0.537187     0.551355     0.442900     0.021189
    0.499787     0.495465     0.451802     0.029966
    0.500213     0.451802     0.504535     0.029966
    0.499787     0.504535     0.548198     0.029966
    0.500213     0.548198     0.495465     0.029966
    0.549287     0.487463     0.618671     0.015171
    0.450713     0.618671     0.512537     0.015171
    0.549287     0.512537     0.381329     0.015171
    0.450713     0.381329     0.487463     0.015171
EA82   17.537 17.884 17.639 90.00 90.00 90.00 Sym.group:    0
1.0000
   17.536699     0.000000     0.000000
    0.000000    17.884416     0.000000
    0.000000     0.000000    17.639312
   O  Cu
   4   24 
Direct
    0.644468     0.495886     0.400258     0.020685
    0.644468     0.587251     0.546258     0.016143
    0.644468     0.416862     0.553483     0.018067
    0.644468     0.418471     0.444029     0.021260
    0.644468     0.492957     0.599573     0.021363
    0.644468     0.588573     0.456398     0.021365
    0.500746     0.628734     0.424223     0.012141
    0.500746     0.500358     0.650925     0.012149
    0.500746     0.370907     0.424853     0.012466
    0.500746     0.368756     0.571213     0.012339
    0.500746     0.626450     0.579634     0.012127
    0.500746     0.504795     0.349153     0.012159
    0.381986     0.598629     0.574528     0.012319
    0.381986     0.387027     0.549338     0.012362
    0.381986     0.514344     0.376134     0.012344
    0.381986     0.510697     0.624245     0.012458
    0.381986     0.600776     0.428485     0.012479
    0.381986     0.388527     0.447270     0.012440
    0.484335     0.471985     0.547548     0.026818
    0.484335     0.473394     0.451627     0.027038
    0.484335     0.554621     0.500825     0.026521
    0.607195     0.523357     0.542467     0.033973
    0.607195     0.452048     0.499275     0.051877
    0.607195     0.524595     0.458258     0.036819
    0.365243     0.524327     0.458713     0.031155
    0.365243     0.523103     0.542004     0.031121
    0.365243     0.452571     0.499283     0.031151
    0.466479     0.500000     0.500000     0.050337
EA83   24.229 17.161 17.211 90.00 90.00 90.00 Sym.group:    0
1.0000
   24.228895     0.000000     0.000000
    0.000000    17.161193     0.000000
    0.000000     0.000000    17.211463
   O  Cu
   4   24 
Direct
    0.445206     0.516626     0.368193     0.020621
    0.445206     0.379414     0.443503     0.022165
    0.445206     0.408848     0.596890     0.022165
    0.445206     0.564251     0.616378     0.020621
    0.445206     0.630860     0.475036     0.022443
    0.554794     0.491513     0.367425     0.020440
    0.554794     0.623834     0.450984     0.020429
    0.554794     0.585020     0.602282     0.020408
    0.554794     0.428711     0.612229     0.020525
    0.554794     0.370921     0.467080     0.020530
    0.445206     0.414980     0.397718     0.044079
    0.445206     0.376166     0.549016     0.044122
    0.445206     0.508487     0.632575     0.044053
    0.445206     0.629079     0.532920     0.022988
    0.445206     0.571289     0.387771     0.042840
    0.554794     0.591152     0.403110     0.020411
    0.554794     0.620586     0.556497     0.020411
    0.554794     0.483374     0.631807     0.021448
    0.554794     0.369140     0.524964     0.021573
    0.554794     0.435749     0.383622     0.021448
    0.365265     0.500000     0.500000     0.033583
    0.634735     0.500000     0.500000     0.032026
    0.739154     0.500000     0.500000     0.010784
    0.260846     0.500000     0.500000     0.011203
    0.321715     0.500000     0.500000     0.019428
    0.678285     0.500000     0.500000     0.018787
    0.406809     0.500000     0.500000     0.032430
    0.593191     0.500000     0.500000     0.030002
EA84   19.661 17.029 16.630 90.00 90.00 90.00 Sym.group:    0
1.0000
   19.660608     0.000000     0.000000
    0.000000    17.029457     0.000000
    0.000000     0.000000    16.629583
   O  Cu
   4   24 
Direct
    0.647163     0.515773     0.568722     0.035381
    0.647163     0.566004     0.520373     0.059181
    0.647163     0.550231     0.451650     0.059181
    0.647163     0.484227     0.431278     0.035382
    0.647163     0.433996     0.479627     0.038990
    0.647163     0.449769     0.548350     0.038990
    0.352837     0.532297     0.562368     0.028023
    0.352837     0.463404     0.559827     0.028028
    0.352837     0.431107     0.497459     0.028035
    0.352837     0.467703     0.437632     0.028033
    0.352837     0.536596     0.440173     0.028039
    0.352837     0.568893     0.502541     0.028042
    0.563980     0.628403     0.512745     0.017702
    0.563980     0.574979     0.392499     0.017515
    0.563980     0.446577     0.379754     0.016712
    0.563980     0.371597     0.487255     0.013978
    0.563980     0.425021     0.607501     0.014216
    0.563980     0.553423     0.620246     0.017105
    0.436020     0.411527     0.596143     0.012492
    0.436020     0.374455     0.469608     0.012502
    0.436020     0.462930     0.373466     0.012518
    0.436020     0.588473     0.403857     0.012669
    0.436020     0.625545     0.530392     0.012683
    0.436020     0.537070     0.626534     0.012523
    0.533480     0.500000     0.500000     0.036759
    0.466520     0.500000     0.500000     0.031424
    0.678545     0.500000     0.500000     0.095055
    0.321455     0.500000     0.500000     0.057765
EA85   19.327 19.116 19.005 90.00 90.00 90.00 Sym.group:    0
1.0000
   19.327016     0.000000     0.000000
    0.000000    19.116162     0.000000
    0.000000     0.000000    19.005134
   O  Cu
   4   24 
Direct
    0.599040     0.549680     0.606540     0.013238
    0.396983     0.575360     0.585271     0.013238
    0.405378     0.407977     0.421480     0.013238
    0.598599     0.466983     0.386708     0.013238
    0.516910     0.542016     0.351979     0.013147
    0.396815     0.393103     0.537684     0.013148
    0.533215     0.462211     0.646308     0.013148
    0.620606     0.439941     0.572801     0.013148
    0.486589     0.347992     0.479293     0.013147
    0.378507     0.587954     0.469991     0.013148
    0.463286     0.647782     0.522419     0.013148
    0.604072     0.579001     0.419524     0.013147
    0.481081     0.612699     0.635672     0.020474
    0.512819     0.579083     0.658524     0.020474
    0.515166     0.423276     0.340521     0.020474
    0.490935     0.384942     0.365285     0.020474
    0.463272     0.651544     0.416351     0.018541
    0.326088     0.509143     0.516243     0.019858
    0.494141     0.344865     0.585104     0.018542
    0.671446     0.514497     0.468113     0.019857
    0.536233     0.364030     0.607540     0.018542
    0.329308     0.461803     0.495529     0.019858
    0.506354     0.639561     0.391006     0.018541
    0.673158     0.514558     0.520114     0.019857
    0.474305     0.530601     0.507641     0.030537
    0.521599     0.508656     0.466380     0.030538
    0.524872     0.495262     0.532032     0.030538
    0.479224     0.465481     0.493947     0.030537
EA86   19.207 19.207 19.207 90.00 90.00 90.00 Sym.group:    0
1.0000
   19.207471     0.000000     0.000000
    0.000000    19.207471     0.000000
    0.000000     0.000000    19.207471
   O  Cu
   4   24 
Direct
    0.500000     0.500000     0.555088     0.039122
    0.500000     0.500000     0.444912     0.039122
    0.525025     0.549076     0.500000     0.039122
    0.474975     0.450924     0.500000     0.039122
    0.450924     0.525025     0.500000     0.069238
    0.549076     0.474975     0.500000     0.069238
    0.500000     0.500000     0.329039     0.012134
    0.500000     0.500000     0.670961     0.012134
    0.422338     0.347696     0.500000     0.012133
    0.577662     0.652304     0.500000     0.012133
    0.652304     0.422338     0.500000     0.013944
    0.347696     0.577662     0.500000     0.013944
    0.450302     0.653118     0.613831     0.010319
    0.450302     0.653118     0.386169     0.010319
    0.346882     0.450302     0.613831     0.010319
    0.346882     0.450302     0.386169     0.010319
    0.653118     0.549698     0.613831     0.010319
    0.653118     0.549698     0.386169     0.010319
    0.549698     0.346882     0.613831     0.010319
    0.549698     0.346882     0.386169     0.010319
    0.573735     0.272827     0.331115     0.006461
    0.573735     0.272827     0.668885     0.006461
    0.727173     0.573735     0.331115     0.006461
    0.727173     0.573735     0.668885     0.006461
    0.272827     0.426265     0.331115     0.006461
    0.272827     0.426265     0.668885     0.006461
    0.426265     0.727173     0.331115     0.006461
    0.426265     0.727173     0.668885     0.006461
EA87   24.838 19.702 14.862 90.00 90.00 90.00 Sym.group:    0
1.0000
   24.837772     0.000000     0.000000
    0.000000    19.702004     0.000000
    0.000000     0.000000    14.861947
   O  Cu
   4   24 
Direct
    0.256621     0.548935     0.507016     0.037677
    0.743379     0.451065     0.492984     0.037677
    0.745546     0.498047     0.473169     0.037759
    0.254454     0.501953     0.526831     0.037759
    0.609430     0.621585     0.477410     0.016168
    0.390570     0.378415     0.522590     0.016168
    0.589058     0.424538     0.522637     0.018945
    0.410942     0.575462     0.477363     0.018945
    0.420301     0.488340     0.425247     0.021469
    0.579699     0.511660     0.574753     0.021469
    0.562845     0.363738     0.508308     0.013379
    0.437155     0.636262     0.491692     0.013379
    0.625255     0.354241     0.465862     0.015625
    0.374745     0.645759     0.534138     0.015625
    0.380503     0.615829     0.475889     0.027640
    0.619497     0.384171     0.524111     0.027640
    0.322793     0.551129     0.503084     0.019837
    0.677207     0.448871     0.496916     0.019837
    0.357205     0.343795     0.463257     0.014622
    0.642795     0.656205     0.536743     0.014622
    0.523490     0.638803     0.504456     0.009316
    0.476510     0.361197     0.495544     0.009316
    0.543492     0.518455     0.563647     0.021437
    0.456508     0.481545     0.436353     0.021437
    0.306737     0.465258     0.501026     0.018770
    0.693263     0.534742     0.498974     0.018770
    0.379765     0.321061     0.530839     0.018467
    0.620235     0.678939     0.469161     0.018467
EA88   20.356 20.643 14.712 90.00 90.00 90.00 Sym.group:    0
1.0000
   20.356307     0.000000     0.000000
    0.000000    20.643001     0.000000
    0.000000     0.000000    14.712360
   O  Cu
   4   24 
Direct
    0.458823     0.365310     0.500000     0.019295
    0.616528     0.416806     0.500000     0.020219
    0.616537     0.583180     0.500000     0.020219
    0.458840     0.634694     0.500000     0.019295
    0.351405     0.500008     0.500000     0.021291
    0.318675     0.419856     0.553782     0.011355
    0.522078     0.305624     0.553785     0.014905
    0.692605     0.459517     0.553785     0.015021
    0.599683     0.667889     0.553785     0.014906
    0.371584     0.642331     0.553784     0.014455
    0.371566     0.357684     0.446216     0.014455
    0.318685     0.580165     0.446218     0.011355
    0.522101     0.694374     0.446215     0.014904
    0.692610     0.540462     0.446215     0.015022
    0.599663     0.332099     0.446215     0.014907
    0.318675     0.419856     0.446218     0.011355
    0.522078     0.305624     0.446215     0.014905
    0.692605     0.459517     0.446215     0.015021
    0.599683     0.667889     0.446215     0.014906
    0.371584     0.642331     0.446216     0.014455
    0.371566     0.357684     0.553784     0.014455
    0.318685     0.580165     0.553782     0.011355
    0.522101     0.694374     0.553785     0.014904
    0.692610     0.540462     0.553785     0.015022
    0.599663     0.332099     0.553785     0.014907
    0.493052     0.500000     0.570429     0.017924
    0.493052     0.500000     0.429571     0.017924
    0.493263     0.500001     0.500000     0.029373
EA89   23.792 23.670 15.961 90.00 90.00 90.00 Sym.group:    0
1.0000
   23.792034     0.000000     0.000000
    0.000000    23.669688     0.000000
    0.000000     0.000000    15.961031
   O  Cu
   4   24 
Direct
    0.643967     0.319138     0.519270     0.005608
    0.270248     0.458802     0.518842     0.005533
    0.583531     0.721700     0.533338     0.004691
    0.468024     0.274104     0.516622     0.007087
    0.733842     0.593593     0.625615     0.003846
    0.295868     0.651742     0.631953     0.003036
    0.417469     0.342693     0.502078     0.012152
    0.406636     0.651089     0.460884     0.006701
    0.677363     0.506302     0.480460     0.007438
    0.651329     0.407706     0.488440     0.010496
    0.504548     0.678157     0.438632     0.007947
    0.345546     0.414606     0.486348     0.011137
    0.485185     0.450769     0.480505     0.021636
    0.465674     0.538168     0.469829     0.021329
    0.550383     0.511859     0.471958     0.020789
    0.539468     0.466627     0.477306     0.021322
    0.509957     0.551649     0.462263     0.022436
    0.451866     0.482970     0.475580     0.021191
    0.573289     0.358314     0.486457     0.012452
    0.341625     0.508223     0.463022     0.010362
    0.586844     0.635917     0.427098     0.008506
    0.509724     0.340174     0.501703     0.014571
    0.632665     0.587633     0.475833     0.007933
    0.359147     0.571564     0.489033     0.009100
    0.430474     0.419952     0.554272     0.011643
    0.467662     0.588042     0.528268     0.012708
    0.597496     0.469563     0.548765     0.010267
    0.500169     0.498946     0.485626     0.049365
EA90   19.353 19.255 17.549 90.00 90.00 90.00 Sym.group:    0
1.0000
   19.353010     0.000000     0.000000
    0.000000    19.255358     0.000000
    0.000000     0.000000    17.548797
   O  Cu
   4   24 
Direct
    0.499999     0.500000     0.368192     0.018670
    0.500001     0.500000     0.647915     0.016607
    0.363159     0.385655     0.436905     0.010083
    0.332809     0.561962     0.436837     0.010058
    0.469922     0.675660     0.437050     0.010154
    0.636560     0.614114     0.436946     0.010103
    0.666671     0.438267     0.436920     0.010101
    0.530091     0.324274     0.437031     0.010150
    0.605245     0.356260     0.560370     0.010090
    0.676479     0.519739     0.560293     0.010078
    0.571224     0.663476     0.560389     0.010095
    0.394742     0.643731     0.560395     0.010862
    0.323514     0.480256     0.560348     0.012024
    0.428762     0.336521     0.560408     0.011322
    0.363482     0.385849     0.560294     0.011926
    0.333378     0.561741     0.560226     0.011949
    0.469892     0.675877     0.560437     0.010044
    0.636501     0.614143     0.560333     0.010069
    0.666603     0.438255     0.560307     0.010078
    0.530093     0.324116     0.560418     0.010055
    0.605273     0.356329     0.436984     0.010181
    0.676559     0.519743     0.436906     0.010116
    0.571247     0.663389     0.437003     0.010310
    0.394799     0.643465     0.437008     0.013718
    0.323922     0.480361     0.436961     0.019153
    0.428796     0.336808     0.437021     0.016925
    0.500002     0.499999     0.579635     0.028615
    0.500274     0.500011     0.436470     0.028479
EA91   21.759 21.405 23.262 90.00 90.00 90.00 Sym.group:    0
1.0000
   21.758804     0.000000     0.000000
    0.000000    21.404666     0.000000
    0.000000     0.000000    23.262354
   O  Cu
   4   24 
Direct
    0.640419     0.516497     0.594972     0.011156
    0.437913     0.678899     0.526579     0.027718
    0.456116     0.690999     0.413840     0.010228
    0.562965     0.334538     0.445539     0.010127
    0.243727     0.363016     0.570265     0.014708
    0.554483     0.504369     0.364207     0.006895
    0.493607     0.615102     0.495134     0.021431
    0.674577     0.505060     0.664173     0.021119
    0.341324     0.457434     0.536649     0.013380
    0.586003     0.330232     0.384285     0.018587
    0.694387     0.453347     0.685568     0.012064
    0.495988     0.607728     0.538024     0.018994
    0.497742     0.558290     0.393724     0.010379
    0.651923     0.338131     0.353136     0.008415
    0.350367     0.429616     0.500724     0.013196
    0.512889     0.637069     0.384225     0.019605
    0.435596     0.686172     0.483666     0.042968
    0.620283     0.568432     0.573983     0.021407
    0.234831     0.390716     0.606150     0.014506
    0.497048     0.326937     0.476911     0.014485
    0.180653     0.388583     0.576770     0.010762
    0.724509     0.518722     0.688203     0.013181
    0.446258     0.719000     0.516102     0.050725
    0.505725     0.650283     0.344997     0.017978
    0.599625     0.270106     0.383398     0.012891
    0.402322     0.530974     0.493317     0.008001
    0.641816     0.455029     0.509703     0.008491
    0.516906     0.474720     0.495757     0.008824
EA92   24.958 19.630 14.877 90.00 90.00 90.00 Sym.group:    0
1.0000
   24.957752     0.000000     0.000000
    0.000000    19.629783     0.000000
    0.000000     0.000000    14.877380
   O  Cu
   4   24 
Direct
    0.253387     0.454339     0.509867     0.049292
    0.742968     0.551928     0.498524     0.035344
    0.746934     0.501985     0.467858     0.035765
    0.254394     0.499957     0.523265     0.049353
    0.611987     0.380217     0.478342     0.016052
    0.390698     0.621084     0.520190     0.015997
    0.589623     0.574516     0.525154     0.018263
    0.409551     0.424295     0.473855     0.018489
    0.420595     0.510976     0.423151     0.021714
    0.580368     0.488245     0.573564     0.021132
    0.563537     0.635420     0.512174     0.013462
    0.435834     0.364131     0.480319     0.013347
    0.625274     0.643953     0.471548     0.015990
    0.370847     0.354605     0.533616     0.015635
    0.379863     0.383102     0.475632     0.026700
    0.619974     0.614984     0.528643     0.024499
    0.319294     0.447714     0.516748     0.018459
    0.677006     0.549257     0.500773     0.020091
    0.358208     0.656412     0.461365     0.013697
    0.641901     0.342182     0.536252     0.014028
    0.524638     0.364060     0.517384     0.008887
    0.476618     0.637782     0.490906     0.009773
    0.544312     0.481230     0.562018     0.021030
    0.456536     0.517314     0.432853     0.021394
    0.306782     0.534887     0.501144     0.018023
    0.696661     0.464094     0.483805     0.021298
    0.380203     0.678707     0.528185     0.019227
    0.622006     0.322626     0.472867     0.023544
EA93   18.909 18.445 17.872 90.00 90.00 90.00 Sym.group:    0
1.0000
   18.909082     0.000000     0.000000
    0.000000    18.445066     0.000000
    0.000000     0.000000    17.871623
   O  Cu
   4   24 
Direct
    0.335867     0.575471     0.436953     0.011415
    0.334285     0.511575     0.601261     0.011725
    0.337660     0.405521     0.462231     0.011652
    0.664136     0.409674     0.562988     0.008396
    0.665759     0.594511     0.546003     0.010106
    0.662296     0.488518     0.390507     0.010557
    0.573647     0.344397     0.522572     0.013145
    0.566455     0.558756     0.348637     0.010674
    0.570314     0.597691     0.627306     0.010642
    0.426366     0.565795     0.355264     0.012687
    0.433591     0.345829     0.514303     0.012739
    0.430092     0.589199     0.631654     0.012691
    0.573486     0.656929     0.488602     0.010643
    0.566671     0.431766     0.646360     0.011496
    0.569804     0.412140     0.366126     0.011132
    0.426466     0.444021     0.648480     0.012953
    0.433318     0.653179     0.475784     0.012872
    0.429788     0.403630     0.374925     0.012660
    0.496864     0.445005     0.632527     0.017134
    0.500191     0.583961     0.616115     0.017145
    0.499808     0.417616     0.383891     0.017008
    0.503304     0.361834     0.516161     0.017115
    0.503117     0.639729     0.483791     0.017048
    0.496715     0.556555     0.367532     0.016856
    0.336476     0.502330     0.500166     0.027111
    0.663523     0.502300     0.499852     0.018087
    0.604022     0.501075     0.499904     0.018772
    0.395978     0.500995     0.500104     0.026798
EA94   18.411 19.172 19.426 90.00 90.00 90.00 Sym.group:    0
1.0000
   18.411308     0.000000     0.000000
    0.000000    19.172194     0.000000
    0.000000     0.000000    19.426145
   O  Cu
   4   24 
Direct
    0.493991     0.565398     0.335543     0.014240
    0.505238     0.346841     0.595018     0.013141
    0.494002     0.434703     0.664483     0.014279
    0.506769     0.653056     0.404954     0.013133
    0.442898     0.627205     0.617040     0.011737
    0.681169     0.457277     0.539856     0.012118
    0.557059     0.367802     0.397824     0.011835
    0.681496     0.540528     0.459315     0.012121
    0.559535     0.631463     0.601909     0.011817
    0.318575     0.472640     0.547100     0.012490
    0.440508     0.373529     0.383228     0.011663
    0.318759     0.529556     0.453731     0.012378
    0.313795     0.460282     0.459335     0.012341
    0.685437     0.451641     0.471476     0.012361
    0.686244     0.546221     0.527673     0.012338
    0.314524     0.541857     0.541515     0.012474
    0.505434     0.670216     0.561207     0.011512
    0.558030     0.388164     0.627677     0.026264
    0.502852     0.329659     0.438774     0.011515
    0.441193     0.398000     0.637551     0.026858
    0.496894     0.600397     0.648355     0.012179
    0.558914     0.611104     0.372056     0.026194
    0.494820     0.399727     0.351664     0.012175
    0.441863     0.602732     0.362717     0.026833
    0.594227     0.635612     0.487604     0.012132
    0.592627     0.363159     0.511968     0.012047
    0.406983     0.514497     0.621269     0.014631
    0.406164     0.486732     0.379157     0.014622
EA95   17.905 17.840 16.591 90.00 90.00 90.00 Sym.group:    0
1.0000
   17.905151     0.000000     0.000000
    0.000000    17.840275     0.000000
    0.000000     0.000000    16.591394
   O  Cu
   4   24 
Direct
    0.568726     0.403097     0.519376     0.025605
    0.431274     0.596903     0.519376     0.025605
    0.569734     0.595563     0.522296     0.024067
    0.430266     0.404437     0.522296     0.024067
    0.352972     0.577826     0.541870     0.023146
    0.647028     0.422174     0.541870     0.023146
    0.353680     0.422978     0.550333     0.023896
    0.646320     0.577022     0.550333     0.023896
    0.458533     0.645745     0.518691     0.043837
    0.541467     0.354255     0.518691     0.043837
    0.458424     0.355077     0.522817     0.040274
    0.541576     0.644923     0.522817     0.040274
    0.589229     0.370166     0.418360     0.018491
    0.410771     0.629834     0.418360     0.018491
    0.597410     0.621445     0.425629     0.018731
    0.402590     0.378555     0.425629     0.018731
    0.608420     0.545930     0.389092     0.014841
    0.391580     0.454070     0.389092     0.014841
    0.596974     0.443393     0.386581     0.015551
    0.403026     0.556607     0.386581     0.015551
    0.635712     0.470002     0.622027     0.014719
    0.364288     0.529998     0.622027     0.014719
    0.630233     0.536410     0.624741     0.016670
    0.369767     0.463590     0.624741     0.016670
    0.611486     0.563867     0.481166     0.035534
    0.388514     0.436133     0.481166     0.035534
    0.606753     0.431248     0.477022     0.035758
    0.393247     0.568752     0.477022     0.035758
EA96   20.973 21.217 18.112 90.00 90.00 90.00 Sym.group:    0
1.0000
   20.973179     0.000000     0.000000
    0.000000    21.217121     0.000000
    0.000000     0.000000    18.112044
   O  Cu
   4   24 
Direct
    0.371879     0.583223     0.454814     0.020843
    0.376537     0.415509     0.452821     0.019560
    0.553842     0.356499     0.453288     0.020151
    0.652166     0.502070     0.455035     0.020641
    0.545076     0.644331     0.453475     0.020959
    0.590058     0.380128     0.542544     0.022702
    0.412165     0.374245     0.550136     0.021849
    0.355429     0.543626     0.544100     0.022824
    0.497943     0.650550     0.545775     0.020663
    0.645365     0.549539     0.547997     0.023058
    0.374910     0.586572     0.547154     0.022295
    0.379596     0.408622     0.545173     0.022515
    0.548690     0.356832     0.545641     0.022185
    0.653262     0.503150     0.547368     0.022597
    0.545064     0.643975     0.545821     0.020783
    0.595145     0.379902     0.450214     0.043109
    0.409001     0.381010     0.457769     0.042614
    0.352467     0.540251     0.451764     0.043001
    0.497956     0.650905     0.453429     0.021156
    0.644306     0.548468     0.455647     0.042830
    0.530556     0.710775     0.499279     0.020426
    0.304579     0.589549     0.498306     0.020402
    0.346945     0.351141     0.504098     0.016994
    0.604053     0.312790     0.495453     0.018619
    0.712591     0.536388     0.502706     0.020624
    0.500018     0.499990     0.349003     0.013022
    0.499982     0.500010     0.651125     0.013942
    0.500422     0.499948     0.500064     0.023445
EA97   23.077 23.201 13.943 90.00 90.00 90.00 Sym.group:    0
1.0000
   23.076807     0.000000     0.000000
    0.000000    23.200529     0.000000
    0.000000     0.000000    13.942856
   O  Cu
   4   24 
Direct
    0.735031     0.542389     0.522081     0.006834
    0.346372     0.678014     0.523693     0.006521
    0.422158     0.277040     0.522885     0.005645
    0.625907     0.700846     0.522574     0.006536
    0.609877     0.293079     0.521522     0.006250
    0.261457     0.510537     0.524555     0.005703
    0.539259     0.676890     0.486375     0.010768
    0.325859     0.445296     0.475377     0.008713
    0.633908     0.377984     0.493474     0.008883
    0.679922     0.471211     0.483439     0.009949
    0.384807     0.359575     0.479742     0.010504
    0.435151     0.669039     0.492049     0.011482
    0.520417     0.548700     0.479863     0.022205
    0.447411     0.493038     0.479393     0.022202
    0.532266     0.458282     0.482579     0.022050
    0.553186     0.500816     0.479344     0.022135
    0.474205     0.453908     0.480468     0.022100
    0.472950     0.545091     0.482027     0.022105
    0.651875     0.561805     0.470897     0.012399
    0.370503     0.599591     0.488687     0.013834
    0.477545     0.338884     0.483483     0.012214
    0.613588     0.617625     0.476028     0.013114
    0.545344     0.343299     0.489476     0.010367
    0.341272     0.538595     0.477615     0.010157
    0.491000     0.603083     0.564333     0.012209
    0.416121     0.442383     0.559091     0.012703
    0.592534     0.453056     0.563741     0.011524
    0.500078     0.499945     0.495210     0.065897
EA98   19.198 20.622 20.071 90.00 90.00 90.00 Sym.group:    0
1.0000
   19.198171     0.000000     0.000000
    0.000000    20.621992     0.000000
    0.000000     0.000000    20.070703
   O  Cu
   4   24 
Direct
    0.565890     0.327985     0.503430     0.029229
    0.489793     0.695181     0.491161     0.029028
    0.434011     0.671917     0.503575     0.029097
    0.510180     0.304822     0.489813     0.028509
    0.294362     0.526039     0.514581     0.015211
    0.496000     0.539700     0.364243     0.022737
    0.702104     0.597348     0.407538     0.014887
    0.505004     0.461877     0.363677     0.022736
    0.297620     0.402594     0.407783     0.014435
    0.479423     0.535660     0.692060     0.010042
    0.704957     0.473036     0.515682     0.014520
    0.520301     0.463464     0.691573     0.010155
    0.570914     0.506293     0.737059     0.007226
    0.568534     0.517841     0.409240     0.012388
    0.433060     0.484286     0.409056     0.012925
    0.429399     0.493382     0.736944     0.008029
    0.308467     0.424993     0.454220     0.015667
    0.479054     0.685123     0.443968     0.044444
    0.691078     0.574579     0.455167     0.016052
    0.444788     0.681892     0.551528     0.043099
    0.283499     0.503667     0.467756     0.015900
    0.521125     0.315248     0.443310     0.042310
    0.715995     0.495828     0.467663     0.015311
    0.554984     0.317652     0.550692     0.043856
    0.494201     0.428792     0.392891     0.022300
    0.505898     0.571640     0.395111     0.022103
    0.452958     0.532967     0.570032     0.008451
    0.546402     0.466192     0.570247     0.008549
EA99   19.997 19.997 19.239 90.00 90.00 90.00 Sym.group:    0
1.0000
   19.996549     0.000000     0.000000
    0.000000    19.996548     0.000000
    0.000000     0.000000    19.239150
   O  Cu
   4   24 
Direct
    0.414734     0.500000     0.500000     0.021762
    0.588440     0.500000     0.500000     0.019315
    0.495632     0.545270     0.422960     0.018607
    0.495632     0.454730     0.577040     0.018607
    0.502646     0.574122     0.547051     0.027001
    0.502646     0.425878     0.452949     0.027001
    0.336523     0.500000     0.500000     0.020266
    0.666538     0.500000     0.500000     0.020056
    0.493279     0.586005     0.353635     0.018704
    0.493279     0.413995     0.646365     0.018704
    0.507073     0.640821     0.589391     0.012593
    0.507073     0.359179     0.410609     0.012593
    0.632998     0.317039     0.546429     0.007835
    0.366266     0.316301     0.545666     0.008308
    0.632998     0.456063     0.309069     0.008057
    0.366266     0.455329     0.309836     0.008553
    0.632998     0.543937     0.690931     0.008057
    0.366266     0.544671     0.690164     0.008553
    0.632998     0.682961     0.453571     0.007835
    0.366266     0.683699     0.454334     0.008308
    0.415033     0.620362     0.467936     0.012962
    0.584829     0.613048     0.473437     0.013186
    0.415033     0.531877     0.624025     0.014390
    0.584829     0.524530     0.618572     0.014511
    0.415033     0.468123     0.375975     0.014390
    0.584829     0.475470     0.381428     0.014511
    0.415033     0.379638     0.532064     0.012962
    0.584829     0.386952     0.526563     0.013186
EA100  22.175 22.013 16.720 90.00 90.00 90.00 Sym.group:    0
1.0000
   22.174987     0.000000     0.000000
    0.000000    22.012853     0.000000
    0.000000     0.000000    16.720340
   O  Cu
   4   24 
Direct
    0.375098     0.543209     0.425414     0.010876
    0.423212     0.396072     0.500695     0.014077
    0.576787     0.396072     0.499304     0.014077
    0.624903     0.543209     0.574587     0.010881
    0.500000     0.634144     0.500012     0.016861
    0.431415     0.736073     0.623072     0.003591
    0.299119     0.467910     0.562793     0.011296
    0.463399     0.326365     0.546806     0.014157
    0.639910     0.425622     0.508296     0.019831
    0.705784     0.612535     0.616213     0.007272
    0.294210     0.612538     0.383779     0.007264
    0.568592     0.736074     0.376929     0.003590
    0.700884     0.467908     0.437206     0.011296
    0.536601     0.326364     0.453194     0.014158
    0.360090     0.425624     0.491704     0.019831
    0.422699     0.564759     0.567700     0.010756
    0.343256     0.499851     0.467461     0.021599
    0.461236     0.324328     0.452181     0.014915
    0.670724     0.397756     0.413168     0.010099
    0.563190     0.634638     0.523730     0.011593
    0.436816     0.634637     0.476262     0.011592
    0.577294     0.564754     0.432301     0.010756
    0.656744     0.499851     0.532537     0.021602
    0.538764     0.324328     0.547819     0.014915
    0.329274     0.397756     0.586833     0.010098
    0.500538     0.502545     0.561969     0.017789
    0.499463     0.502537     0.438033     0.017789
    0.500000     0.502541     0.500001     0.028956
EA101  19.120 19.589 14.712 90.00 90.00 90.00 Sym.group:    0
1.0000
   19.120367     0.000000     0.000000
    0.000000    19.589096     0.000000
    0.000000     0.000000    14.712267
   O  Cu
   4   24 
Direct
    0.497487     0.568227     0.500000     0.032477
    0.540931     0.524749     0.500000     0.049635
    0.540929     0.475243     0.500000     0.049637
    0.497479     0.431774     0.500000     0.032480
    0.342768     0.500009     0.500000     0.021175
    0.321415     0.590348     0.553764     0.010649
    0.528364     0.672022     0.553805     0.013609
    0.660509     0.542506     0.553813     0.015033
    0.606859     0.367406     0.553816     0.015421
    0.409426     0.366653     0.553797     0.012984
    0.409441     0.633357     0.446203     0.012984
    0.321404     0.409672     0.446236     0.010649
    0.528343     0.327974     0.446195     0.013610
    0.660503     0.457479     0.446187     0.015034
    0.606874     0.632580     0.446184     0.015420
    0.321415     0.590348     0.446236     0.010649
    0.528364     0.672022     0.446195     0.013609
    0.660509     0.542506     0.446187     0.015033
    0.606859     0.367406     0.446184     0.015421
    0.409426     0.366653     0.446203     0.012984
    0.409441     0.633357     0.553797     0.012984
    0.321404     0.409672     0.553764     0.010649
    0.528343     0.327974     0.553805     0.013610
    0.660503     0.457479     0.553813     0.015034
    0.606874     0.632580     0.553816     0.015420
    0.490932     0.500001     0.570426     0.046628
    0.490932     0.500001     0.429574     0.046628
    0.492268     0.500001     0.500000     0.079577
EA102  19.833 19.494 19.704 90.00 90.00 90.00 Sym.group:    0
1.0000
   19.833280     0.000000     0.000000
    0.000000    19.494291     0.000000
    0.000000     0.000000    19.704444
   O  Cu
   4   24 
Direct
    0.333495     0.467425     0.564232     0.008648
    0.398545     0.763395     0.469273     0.005985
    0.382941     0.502514     0.318356     0.005231
    0.708305     0.462373     0.473792     0.008305
    0.648586     0.568097     0.565076     0.009551
    0.606610     0.433689     0.572452     0.022325
    0.629716     0.428496     0.401199     0.012344
    0.526547     0.376669     0.623204     0.009834
    0.524868     0.632948     0.541600     0.012667
    0.387773     0.377718     0.600878     0.012701
    0.518403     0.470338     0.333343     0.009715
    0.399661     0.700818     0.537054     0.013894
    0.555887     0.522287     0.661197     0.010284
    0.656523     0.556550     0.431756     0.013169
    0.469905     0.356657     0.467510     0.011964
    0.540521     0.631994     0.405312     0.009045
    0.413278     0.508658     0.637540     0.012127
    0.365770     0.377757     0.363862     0.009575
    0.589576     0.574063     0.425145     0.012995
    0.458983     0.638818     0.541778     0.013069
    0.420256     0.367733     0.425769     0.012699
    0.565377     0.449244     0.389862     0.011796
    0.481752     0.507719     0.637649     0.012575
    0.457854     0.382237     0.600962     0.016812
    0.340327     0.494427     0.466463     0.015099
    0.632656     0.461229     0.544785     0.025695
    0.584191     0.483999     0.523828     0.016875
    0.401695     0.502149     0.476121     0.015362
EA103  18.977 23.535 23.820 90.00 90.00 90.00 Sym.group:    0
1.0000
   18.976780     0.000000     0.000000
    0.000000    23.535045     0.000000
    0.000000     0.000000    23.819574
   O  Cu
   4   24 
Direct
    0.447178     0.352612     0.630094     0.004975
    0.758578     0.627759     0.637717     0.003278
    0.273183     0.513060     0.622650     0.011493
    0.588557     0.280069     0.375206     0.003765
    0.306291     0.646084     0.366043     0.003997
    0.625998     0.582543     0.368260     0.005520
    0.523378     0.255060     0.462473     0.006954
    0.606313     0.557854     0.463370     0.009364
    0.429898     0.687789     0.453564     0.004690
    0.459692     0.364545     0.519103     0.014638
    0.366642     0.438038     0.538388     0.012507
    0.716560     0.703989     0.534027     0.004713
    0.229156     0.610926     0.417510     0.004246
    0.683180     0.333863     0.438089     0.006449
    0.547212     0.548230     0.431674     0.011846
    0.783348     0.542577     0.578575     0.006323
    0.393685     0.430464     0.589222     0.013102
    0.260697     0.529111     0.573967     0.026915
    0.753808     0.432225     0.508307     0.005394
    0.551387     0.745499     0.492338     0.003260
    0.414469     0.605534     0.502599     0.006468
    0.408947     0.344559     0.499985     0.013702
    0.231701     0.456180     0.499351     0.005703
    0.639665     0.416213     0.497417     0.006136
    0.491021     0.518288     0.629430     0.011954
    0.509223     0.479278     0.370605     0.011941
    0.506110     0.484323     0.417724     0.013137
    0.494123     0.513329     0.582310     0.012272
EA104  22.420 23.500 13.780 90.00 90.00 90.00 Sym.group:    0
1.0000
   22.419918     0.000000     0.000000
    0.000000    23.499742     0.000000
    0.000000     0.000000    13.780188
   O  Cu
   4   24 
Direct
    0.463159     0.269601     0.523156     0.005954
    0.727563     0.584760     0.523156     0.005829
    0.309279     0.645639     0.523156     0.005774
    0.652150     0.317659     0.523156     0.005951
    0.258408     0.465460     0.523156     0.005959
    0.589443     0.716882     0.523156     0.005959
    0.659427     0.405937     0.484905     0.010221
    0.505671     0.678754     0.484905     0.008151
    0.334902     0.415309     0.484905     0.008168
    0.410794     0.342713     0.484905     0.010098
    0.401828     0.652348     0.484905     0.010043
    0.687378     0.504939     0.484905     0.010182
    0.540700     0.465335     0.480388     0.022345
    0.511117     0.550960     0.480388     0.022305
    0.448184     0.483705     0.480388     0.022311
    0.482784     0.450607     0.480388     0.022346
    0.463772     0.538920     0.480388     0.022334
    0.553443     0.510472     0.480388     0.022353
    0.508686     0.339390     0.480793     0.013272
    0.641449     0.587482     0.480793     0.012883
    0.349865     0.573129     0.480793     0.012860
    0.576254     0.356571     0.480793     0.013292
    0.331677     0.508711     0.480793     0.010468
    0.592069     0.634719     0.480793     0.010472
    0.602634     0.473624     0.563129     0.014692
    0.472625     0.597988     0.563129     0.014048
    0.424740     0.428389     0.563129     0.014115
    0.500000     0.500000     0.495158     0.066565
EA105  19.221 17.914 18.024 90.00 90.00 90.00 Sym.group:    0
1.0000
   19.221384     0.000000     0.000000
    0.000000    17.913563     0.000000
    0.000000     0.000000    18.024131
   O  Cu
   4   24 
Direct
    0.400920     0.500000     0.500000     0.020988
    0.599080     0.500000     0.500000     0.019352
    0.328800     0.582894     0.440306     0.012811
    0.328800     0.582739     0.559906     0.012811
    0.328800     0.468242     0.596718     0.012898
    0.328800     0.397633     0.499868     0.013511
    0.328800     0.468493     0.403200     0.012898
    0.671200     0.582894     0.440306     0.012380
    0.671200     0.582739     0.559906     0.012380
    0.671200     0.468242     0.596718     0.012365
    0.671200     0.397633     0.499868     0.012392
    0.671200     0.468493     0.403200     0.012364
    0.500000     0.608384     0.613185     0.018916
    0.500000     0.425183     0.637423     0.018501
    0.500000     0.345377     0.471747     0.018470
    0.500000     0.479254     0.345116     0.018532
    0.500000     0.641802     0.432529     0.018935
    0.428658     0.613481     0.609537     0.013696
    0.428658     0.430249     0.641113     0.011528
    0.428658     0.343411     0.477677     0.011352
    0.428658     0.472974     0.345091     0.011743
    0.428658     0.639886     0.426584     0.013903
    0.571342     0.613481     0.609537     0.011251
    0.571342     0.430249     0.641113     0.011223
    0.571342     0.343411     0.477677     0.011243
    0.571342     0.472974     0.345091     0.011245
    0.571342     0.639886     0.426584     0.011269
    0.500000     0.500000     0.500000     0.028692
EA106  19.437 19.365 17.549 90.00 90.00 90.00 Sym.group:    0
1.0000
   19.437341     0.000000     0.000000
    0.000000    19.365114     0.000000
    0.000000     0.000000    17.548834
   O  Cu
   4   24 
Direct
    0.500000     0.500000     0.360138     0.018273
    0.500000     0.500000     0.639862     0.019118
    0.553515     0.669117     0.438307     0.010072
    0.380842     0.631077     0.438307     0.010073
    0.327327     0.461960     0.438307     0.010105
    0.446485     0.330883     0.438307     0.010053
    0.619158     0.368923     0.438307     0.010054
    0.672673     0.538040     0.438307     0.010105
    0.671372     0.456433     0.561693     0.010099
    0.548096     0.329251     0.561693     0.010055
    0.376724     0.372818     0.561693     0.010080
    0.328628     0.543567     0.561693     0.010916
    0.451904     0.670749     0.561693     0.012054
    0.623276     0.627182     0.561693     0.011349
    0.553515     0.669117     0.561693     0.011994
    0.380842     0.631077     0.561693     0.011994
    0.327327     0.461960     0.561693     0.010132
    0.446485     0.330883     0.561693     0.010042
    0.619158     0.368923     0.561693     0.010042
    0.672673     0.538040     0.561693     0.010132
    0.671372     0.456433     0.438307     0.010131
    0.548096     0.329251     0.438307     0.010075
    0.376724     0.372818     0.438307     0.010205
    0.328628     0.543567     0.438307     0.013620
    0.451904     0.670749     0.438307     0.019125
    0.623276     0.627182     0.438307     0.016900
    0.500000     0.500000     0.571583     0.028174
    0.500000     0.500000     0.428417     0.027936
EA107  20.250 20.573 14.712 90.00 90.00 90.00 Sym.group:    0
1.0000
   20.250490     0.000000     0.000000
    0.000000    20.572781     0.000000
    0.000000     0.000000    14.712377
   O  Cu
   4   24 
Direct
    0.618679     0.578627     0.500000     0.020996
    0.612642     0.413195     0.500000     0.021732
    0.450938     0.367725     0.500000     0.021732
    0.357035     0.505055     0.500000     0.020996
    0.460706     0.635399     0.500000     0.021814
    0.527305     0.692027     0.553785     0.011663
    0.693972     0.533777     0.553785     0.015056
    0.592577     0.328849     0.553785     0.015103
    0.363243     0.360445     0.553785     0.015079
    0.322903     0.584902     0.553785     0.014588
    0.604813     0.664172     0.446215     0.014588
    0.373767     0.648853     0.446215     0.011664
    0.317171     0.427824     0.446215     0.015056
    0.513238     0.306539     0.446215     0.015103
    0.691011     0.452611     0.446215     0.015080
    0.527305     0.692027     0.446215     0.011663
    0.693972     0.533777     0.446215     0.015056
    0.592577     0.328849     0.446215     0.015103
    0.363243     0.360445     0.446215     0.015079
    0.322903     0.584902     0.446215     0.014588
    0.604813     0.664172     0.553785     0.014588
    0.373767     0.648853     0.553785     0.011664
    0.317171     0.427824     0.553785     0.015056
    0.513238     0.306539     0.553785     0.015103
    0.691011     0.452611     0.553785     0.015080
    0.500000     0.500000     0.570430     0.024392
    0.500000     0.500000     0.429570     0.024392
    0.500000     0.500000     0.500000     0.035041
EA108  24.933 19.630 14.877 90.00 90.00 90.00 Sym.group:    0
1.0000
   24.932591     0.000000     0.000000
    0.000000    19.629797     0.000000
    0.000000     0.000000    14.877380
   O  Cu
   4   24 
Direct
    0.745037     0.548795     0.505708     0.041906
    0.254963     0.451205     0.494292     0.041906
    0.253483     0.498985     0.472259     0.042183
    0.746517     0.501015     0.527741     0.042183
    0.389245     0.620433     0.479056     0.015915
    0.610755     0.379567     0.520944     0.015915
    0.409872     0.424890     0.525638     0.018289
    0.590128     0.575110     0.474362     0.018289
    0.579971     0.488634     0.424806     0.021760
    0.420029     0.511366     0.575194     0.021760
    0.436083     0.364356     0.515921     0.013303
    0.563917     0.635644     0.484079     0.013303
    0.372660     0.355325     0.468950     0.015172
    0.627340     0.644675     0.531050     0.015172
    0.620178     0.615941     0.473510     0.025347
    0.379822     0.384059     0.526490     0.025347
    0.679036     0.550772     0.508014     0.020313
    0.320964     0.449228     0.491986     0.020313
    0.641992     0.342885     0.462582     0.014449
    0.358008     0.657115     0.537418     0.014449
    0.475965     0.636861     0.513232     0.008316
    0.524035     0.363139     0.486768     0.008316
    0.456064     0.518043     0.564575     0.021308
    0.543936     0.481957     0.435425     0.021308
    0.695136     0.464604     0.508700     0.020511
    0.304864     0.535396     0.491300     0.020511
    0.621022     0.321960     0.527682     0.024170
    0.378978     0.678040     0.472318     0.024170
EA109  19.327 19.327 19.327 90.00 90.00 90.00 Sym.group:    0
1.0000
   19.326516     0.000000     0.000000
    0.000000    19.326516     0.000000
    0.000000     0.000000    19.326516
   O  Cu
   4   24 
Direct
    0.319670     0.481632     0.453000     0.009527
    0.680330     0.481632     0.547000     0.009527
    0.560960     0.518368     0.676101     0.009527
    0.439040     0.518368     0.323899     0.009527
    0.577021     0.335687     0.546199     0.009505
    0.598064     0.587915     0.366886     0.009505
    0.552081     0.664313     0.573171     0.009505
    0.625037     0.412085     0.391825     0.009505
    0.422979     0.335687     0.453801     0.009505
    0.374963     0.412085     0.608175     0.009505
    0.447919     0.664313     0.426829     0.009505
    0.401936     0.587915     0.633114     0.009505
    0.646389     0.515489     0.399751     0.011496
    0.353611     0.515489     0.600249     0.011496
    0.588492     0.484511     0.346220     0.011496
    0.411508     0.484511     0.653780     0.011496
    0.362470     0.539426     0.393932     0.017995
    0.484607     0.327012     0.539464     0.010993
    0.383501     0.460574     0.371187     0.017996
    0.461861     0.672988     0.518433     0.010993
    0.637530     0.539426     0.606068     0.017995
    0.538139     0.672988     0.481567     0.010993
    0.616499     0.460574     0.628813     0.017996
    0.515393     0.327012     0.460536     0.010993
    0.498526     0.473375     0.462376     0.023576
    0.537624     0.526625     0.498526     0.023576
    0.501474     0.473375     0.537624     0.023576
    0.462376     0.526625     0.501474     0.023576
EA110  21.234 20.814 18.112 90.00 90.00 90.00 Sym.group:    0
1.0000
   21.234173     0.000000     0.000000
    0.000000    20.813544     0.000000
    0.000000     0.000000    18.112034
   O  Cu
   4   24 
Direct
    0.445955     0.643534     0.453827     0.020744
    0.617104     0.596793     0.453827     0.021014
    0.626419     0.416287     0.453827     0.021014
    0.461026     0.351470     0.453827     0.020745
    0.349495     0.491916     0.453827     0.021069
    0.594994     0.380628     0.546173     0.022883
    0.640636     0.555281     0.546173     0.022891
    0.491924     0.653539     0.546173     0.022869
    0.354373     0.539610     0.546173     0.020836
    0.418073     0.370942     0.546173     0.022810
    0.445955     0.643534     0.546173     0.022414
    0.617104     0.596793     0.546173     0.022741
    0.626419     0.416287     0.546173     0.022742
    0.461026     0.351470     0.546173     0.022414
    0.349495     0.491916     0.546173     0.021165
    0.594994     0.380628     0.453827     0.043184
    0.640636     0.555281     0.453827     0.043195
    0.491924     0.653539     0.453827     0.043159
    0.354373     0.539610     0.453827     0.021203
    0.418073     0.370942     0.453827     0.042984
    0.288368     0.522531     0.500000     0.020534
    0.455606     0.712304     0.500000     0.019938
    0.684194     0.608680     0.500000     0.019926
    0.658233     0.354864     0.500000     0.019925
    0.413599     0.301621     0.500000     0.019945
    0.500000     0.500000     0.348939     0.015413
    0.500000     0.500000     0.651061     0.014197
    0.500000     0.500000     0.500000     0.028249
EA111  18.936 18.455 16.121 90.00 90.00 90.00 Sym.group:    0
1.0000
   18.936261     0.000000     0.000000
    0.000000    18.455054     0.000000
    0.000000     0.000000    16.121263
   O  Cu
   4   24 
Direct
    0.625154     0.477245     0.392029     0.016701
    0.456629     0.622590     0.392029     0.016785
    0.418218     0.400166     0.392029     0.016676
    0.460003     0.623792     0.607971     0.016590
    0.624481     0.473645     0.607971     0.016606
    0.415515     0.402563     0.607971     0.016606
    0.407251     0.406838     0.449609     0.037588
    0.625006     0.464164     0.449609     0.037580
    0.467744     0.628998     0.449609     0.037667
    0.423532     0.392391     0.550391     0.019124
    0.447410     0.621755     0.550391     0.037637
    0.629058     0.485854     0.550391     0.019135
    0.332919     0.563198     0.572524     0.018915
    0.530200     0.319932     0.572524     0.018471
    0.636881     0.616869     0.572524     0.018707
    0.585047     0.339470     0.427476     0.018946
    0.321987     0.504691     0.427476     0.018987
    0.592966     0.655838     0.427476     0.019073
    0.526617     0.363167     0.465223     0.026166
    0.602181     0.592068     0.465223     0.026262
    0.371202     0.544765     0.465223     0.026284
    0.364200     0.507289     0.534777     0.026275
    0.574052     0.617028     0.534777     0.026173
    0.561747     0.375682     0.534777     0.026080
    0.557546     0.329928     0.500000     0.035717
    0.614771     0.636172     0.500000     0.036181
    0.327683     0.533900     0.500000     0.036208
    0.500000     0.500000     0.500000     0.030824
EA112  19.523 19.643 18.637 90.00 90.00 90.00 Sym.group:    0
1.0000
   19.522700     0.000000     0.000000
    0.000000    19.642535     0.000000
    0.000000     0.000000    18.637344
   O  Cu
   4   24 
Direct
    0.491461     0.483847     0.355118     0.013937
    0.359039     0.550622     0.535928     0.023208
    0.502301     0.660205     0.530507     0.021073
    0.630095     0.662801     0.513535     0.010395
    0.358249     0.424036     0.563623     0.011630
    0.511949     0.349447     0.565355     0.010988
    0.655317     0.437477     0.533324     0.013749
    0.598458     0.363315     0.442113     0.010080
    0.427864     0.345902     0.461582     0.010922
    0.324805     0.477378     0.443028     0.012536
    0.352032     0.406761     0.455590     0.011230
    0.505732     0.332173     0.457323     0.010884
    0.649100     0.420202     0.425292     0.010915
    0.604676     0.380589     0.550145     0.011446
    0.434081     0.363176     0.569614     0.010724
    0.331023     0.494652     0.551061     0.025566
    0.494902     0.493406     0.414901     0.029020
    0.687428     0.515556     0.399389     0.007455
    0.373803     0.576042     0.441107     0.015474
    0.496568     0.642991     0.439715     0.016596
    0.379536     0.593255     0.531899     0.047651
    0.549964     0.654742     0.533765     0.045891
    0.307333     0.589977     0.482081     0.017459
    0.531510     0.712232     0.479539     0.019157
    0.513436     0.529425     0.652032     0.009259
    0.683782     0.489057     0.552070     0.012000
    0.587078     0.484962     0.636825     0.009313
    0.658477     0.565773     0.483539     0.012059
EA113  17.547 21.534 20.655 90.00 90.00 90.00 Sym.group:    0
1.0000
   17.546780     0.000000     0.000000
    0.000000    21.533667     0.000000
    0.000000     0.000000    20.655202
   O  Cu
   4   24 
Direct
    0.192290     0.446963     0.523255     0.006158
    0.656785     0.326825     0.517819     0.007310
    0.548676     0.633709     0.421458     0.008202
    0.690176     0.461412     0.431269     0.011254
    0.344961     0.673052     0.528760     0.010155
    0.702983     0.629558     0.537485     0.008338
    0.560574     0.685635     0.506299     0.010358
    0.756553     0.452185     0.519675     0.011182
    0.545109     0.559621     0.481468     0.026359
    0.612200     0.590321     0.546839     0.012082
    0.432560     0.705126     0.510405     0.008335
    0.759651     0.552059     0.523025     0.008215
    0.325878     0.574597     0.496480     0.013156
    0.590190     0.512971     0.535030     0.020250
    0.286360     0.620870     0.498363     0.012546
    0.429950     0.265663     0.525755     0.007376
    0.371498     0.334356     0.505760     0.008374
    0.283769     0.402259     0.498178     0.012388
    0.671793     0.417872     0.485100     0.021473
    0.443621     0.538921     0.485045     0.020384
    0.549755     0.516694     0.483124     0.030358
    0.462347     0.450036     0.490702     0.022577
    0.422380     0.481074     0.488105     0.022433
    0.532347     0.469447     0.486592     0.030046
    0.284259     0.497667     0.485367     0.011287
    0.569997     0.361118     0.492916     0.014502
    0.488433     0.337881     0.500015     0.010256
    0.484902     0.502109     0.495710     0.042045
EA114  20.604 17.318 19.526 90.00 90.00 90.00 Sym.group:    0
1.0000
   20.603597     0.000000     0.000000
    0.000000    17.318432     0.000000
    0.000000     0.000000    19.525598
   O  Cu
   4   24 
Direct
    0.480708     0.483877     0.401367     0.013787
    0.630153     0.356662     0.469443     0.012508
    0.724137     0.488521     0.518305     0.050273
    0.721691     0.539873     0.529568     0.050098
    0.328986     0.613396     0.455357     0.009808
    0.318692     0.408532     0.463144     0.009110
    0.469125     0.280438     0.470291     0.009941
    0.316441     0.410822     0.572696     0.007189
    0.466820     0.282557     0.579849     0.006186
    0.389811     0.315349     0.467799     0.008094
    0.299469     0.502734     0.459209     0.008780
    0.389111     0.672519     0.453943     0.010913
    0.658864     0.467690     0.465580     0.025814
    0.569649     0.298029     0.470987     0.015437
    0.479146     0.485155     0.461985     0.028692
    0.408174     0.642807     0.519801     0.014410
    0.464484     0.583288     0.531064     0.022009
    0.520870     0.567183     0.532536     0.015176
    0.411559     0.549756     0.532929     0.024631
    0.535153     0.674314     0.446806     0.010817
    0.529690     0.688514     0.560931     0.009717
    0.305756     0.546635     0.568822     0.009326
    0.639350     0.597849     0.460616     0.015744
    0.613136     0.373194     0.536524     0.023001
    0.657663     0.476610     0.515933     0.031159
    0.429811     0.480809     0.538249     0.014515
    0.666859     0.568363     0.510138     0.026983
    0.574692     0.644525     0.506128     0.015242
EA115  19.347 21.079 19.040 90.00 90.00 90.00 Sym.group:    0
1.0000
   19.347100     0.000000     0.000000
    0.000000    21.079266     0.000000
    0.000000     0.000000    19.040424
   O  Cu
   4   24 
Direct
    0.233438     0.582980     0.531912     0.004924
    0.699900     0.635487     0.494976     0.008607
    0.753736     0.470091     0.480894     0.008557
    0.383329     0.431998     0.404171     0.017422
    0.398677     0.706248     0.529129     0.007669
    0.488744     0.670901     0.490812     0.009917
    0.600392     0.644673     0.478153     0.013490
    0.470159     0.550320     0.477470     0.028886
    0.521063     0.538362     0.471698     0.021256
    0.419523     0.512546     0.478322     0.018863
    0.330351     0.586417     0.493924     0.013084
    0.649835     0.569315     0.463404     0.016419
    0.389427     0.630488     0.492929     0.011887
    0.513593     0.590605     0.535286     0.015953
    0.476645     0.501332     0.482375     0.028654
    0.697981     0.513499     0.494147     0.019518
    0.627934     0.464705     0.608923     0.018821
    0.385515     0.433332     0.598161     0.015874
    0.373834     0.439300     0.456103     0.038753
    0.391113     0.423362     0.545884     0.018094
    0.634018     0.475211     0.558284     0.020070
    0.494666     0.342320     0.562870     0.016519
    0.555310     0.352157     0.435539     0.013284
    0.496629     0.382012     0.469776     0.022329
    0.539002     0.387398     0.534075     0.018647
    0.524947     0.347453     0.499220     0.030297
    0.623267     0.457065     0.466028     0.011880
    0.326971     0.360419     0.465534     0.010616
EA116  19.708 20.385 20.063 90.00 90.00 90.00 Sym.group:    0
1.0000
   19.707527     0.000000     0.000000
    0.000000    20.384975     0.000000
    0.000000     0.000000    20.063493
   O  Cu
   4   24 
Direct
    0.406598     0.705282     0.518802     0.008508
    0.687649     0.636038     0.494931     0.010027
    0.415125     0.374453     0.456416     0.023626
    0.475221     0.419294     0.461023     0.020430
    0.266201     0.575447     0.514377     0.010759
    0.592513     0.645575     0.478306     0.012890
    0.303638     0.500433     0.481332     0.011029
    0.488342     0.671240     0.487155     0.014178
    0.528702     0.534606     0.468373     0.019226
    0.438184     0.506520     0.471051     0.019202
    0.481207     0.546307     0.472408     0.022440
    0.400717     0.628218     0.485665     0.018623
    0.643688     0.568357     0.465027     0.016123
    0.350522     0.581800     0.484083     0.017650
    0.525009     0.585666     0.524123     0.017354
    0.361459     0.546472     0.520536     0.019463
    0.615098     0.374623     0.437199     0.011521
    0.384662     0.402008     0.550399     0.019692
    0.575016     0.342851     0.526294     0.015376
    0.692114     0.498851     0.530314     0.014975
    0.422258     0.365935     0.543248     0.019714
    0.683698     0.549296     0.536065     0.018519
    0.622231     0.366106     0.524031     0.016276
    0.377529     0.410526     0.463566     0.034970
    0.627949     0.296889     0.472524     0.013613
    0.349001     0.339046     0.503484     0.018502
    0.755560     0.539294     0.483997     0.011278
    0.530109     0.488866     0.645270     0.007707
EA117  20.725 21.775 16.392 90.00 90.00 90.00 Sym.group:    0
1.0000
   20.725484     0.000000     0.000000
    0.000000    21.775007     0.000000
    0.000000     0.000000    16.392068
   O  Cu
   4   24 
Direct
    0.486207     0.381147     0.529313     0.013010
    0.656244     0.506107     0.532545     0.022898
    0.275260     0.401221     0.485313     0.008331
    0.480074     0.724951     0.545801     0.007296
    0.417549     0.373333     0.513221     0.019256
    0.329625     0.375913     0.563566     0.014107
    0.509724     0.482524     0.571199     0.012510
    0.558170     0.332531     0.542040     0.012402
    0.694973     0.433068     0.544641     0.015345
    0.680305     0.558418     0.537787     0.027771
    0.471692     0.358989     0.427170     0.014732
    0.693690     0.522134     0.431391     0.015165
    0.632681     0.472013     0.394843     0.012594
    0.542093     0.405440     0.393120     0.010704
    0.591851     0.359855     0.621427     0.009057
    0.655365     0.463485     0.484291     0.027914
    0.644789     0.642114     0.521211     0.009187
    0.255149     0.579135     0.524447     0.006023
    0.334396     0.614069     0.483337     0.007793
    0.417057     0.667481     0.495775     0.012141
    0.428500     0.527549     0.465455     0.019741
    0.517317     0.526822     0.465132     0.017290
    0.434054     0.472485     0.456063     0.020414
    0.322842     0.462083     0.463973     0.013628
    0.508261     0.651520     0.492661     0.014146
    0.568390     0.622631     0.490002     0.013209
    0.419419     0.581230     0.551195     0.009904
    0.474322     0.501752     0.473084     0.038118
EA118  19.626 19.097 22.001 90.00 90.00 90.00 Sym.group:    0
1.0000
   19.626273     0.000000     0.000000
    0.000000    19.097072     0.000000
    0.000000     0.000000    22.000965
   O  Cu
   4   24 
Direct
    0.221348     0.431337     0.490750     0.049442
    0.220733     0.477894     0.480758     0.049696
    0.557044     0.563161     0.507028     0.018299
    0.813390     0.503681     0.532524     0.005162
    0.381597     0.610761     0.483559     0.017819
    0.412497     0.411202     0.519831     0.020621
    0.422278     0.501610     0.551096     0.010767
    0.446950     0.351137     0.517992     0.015879
    0.368387     0.336266     0.481343     0.015839
    0.378068     0.367070     0.518894     0.026384
    0.301818     0.428648     0.488371     0.019923
    0.340500     0.645920     0.520245     0.016186
    0.555072     0.356090     0.496308     0.008621
    0.485385     0.633891     0.504879     0.015709
    0.574302     0.476584     0.464443     0.021251
    0.282993     0.517426     0.495889     0.022329
    0.366485     0.668976     0.476448     0.024539
    0.586433     0.636416     0.476824     0.023857
    0.622661     0.487858     0.466106     0.021732
    0.589778     0.547115     0.468242     0.035776
    0.704358     0.555123     0.537246     0.010907
    0.434804     0.649774     0.544650     0.012294
    0.713877     0.559749     0.433456     0.008522
    0.593519     0.665311     0.534942     0.012865
    0.650655     0.377645     0.518365     0.015693
    0.687667     0.343155     0.481598     0.016942
    0.661871     0.320496     0.520745     0.024522
    0.625531     0.575706     0.487466     0.026978
EA119  18.838 20.781 20.344 90.00 90.00 90.00 Sym.group:    0
1.0000
   18.838440     0.000000     0.000000
    0.000000    20.780955     0.000000
    0.000000     0.000000    20.343996
   O  Cu
   4   24 
Direct
    0.257956     0.431727     0.500765     0.008068
    0.299274     0.624706     0.493129     0.007408
    0.592313     0.374624     0.354342     0.006148
    0.607150     0.544773     0.490749     0.011002
    0.394622     0.643248     0.530744     0.010725
    0.430728     0.325032     0.556612     0.007645
    0.340265     0.389370     0.540792     0.013024
    0.500798     0.446223     0.560589     0.024500
    0.459554     0.475555     0.553377     0.023134
    0.563913     0.469477     0.567073     0.018193
    0.523810     0.553703     0.556336     0.016757
    0.328050     0.485152     0.535706     0.015434
    0.342822     0.554147     0.532975     0.015594
    0.539045     0.335092     0.572605     0.008045
    0.453166     0.417945     0.498630     0.017227
    0.518435     0.500065     0.548922     0.036359
    0.552152     0.501407     0.334507     0.010129
    0.685802     0.376920     0.556199     0.005503
    0.701447     0.445560     0.417146     0.009741
    0.368748     0.495521     0.380702     0.008465
    0.693939     0.509498     0.458742     0.012650
    0.396462     0.557673     0.419210     0.010354
    0.551827     0.562658     0.380078     0.010950
    0.527220     0.405150     0.449147     0.012629
    0.666679     0.621734     0.663887     0.005946
    0.542576     0.727467     0.465939     0.006774
    0.541122     0.646441     0.477544     0.009895
    0.620123     0.579135     0.603554     0.009821
EA120  20.288 19.216 22.118 90.00 90.00 90.00 Sym.group:    0
1.0000
   20.288418     0.000000     0.000000
    0.000000    19.215777     0.000000
    0.000000     0.000000    22.118134
   O  Cu
   4   24 
Direct
    0.452786     0.584671     0.496462     0.034110
    0.214334     0.516065     0.469061     0.004101
    0.767578     0.537560     0.524998     0.016343
    0.759333     0.453345     0.520304     0.019120
    0.481942     0.593891     0.532959     0.041195
    0.392370     0.504881     0.537242     0.021998
    0.422324     0.568905     0.534241     0.039996
    0.315471     0.572576     0.464882     0.009654
    0.306233     0.582549     0.566032     0.007438
    0.417535     0.692598     0.466190     0.009803
    0.367773     0.383467     0.488391     0.018855
    0.333556     0.347721     0.524573     0.017699
    0.463822     0.365577     0.515187     0.019962
    0.438052     0.495527     0.538087     0.022810
    0.358030     0.321775     0.487261     0.018193
    0.623069     0.699062     0.518574     0.008092
    0.524383     0.679630     0.483660     0.013302
    0.714496     0.467161     0.492113     0.030411
    0.519018     0.551453     0.473632     0.029931
    0.464332     0.549840     0.467936     0.043874
    0.563302     0.501961     0.475600     0.018907
    0.669867     0.559250     0.489769     0.012120
    0.618202     0.616991     0.487472     0.011458
    0.502012     0.503185     0.478555     0.028629
    0.595014     0.365224     0.505476     0.016575
    0.627546     0.325577     0.467521     0.016658
    0.493519     0.357717     0.483517     0.020072
    0.594099     0.301842     0.510303     0.021296
EA121  20.475 21.936 17.687 90.00 90.00 90.00 Sym.group:    0
1.0000
   20.475310     0.000000     0.000000
    0.000000    21.935594     0.000000
    0.000000     0.000000    17.687030
   O  Cu
   4   24 
Direct
    0.207035     0.525665     0.496250     0.036004
    0.204894     0.480751     0.471791     0.036346
    0.586086     0.424486     0.489135     0.020883
    0.566707     0.531691     0.481690     0.031889
    0.619670     0.602461     0.515336     0.019492
    0.387296     0.552833     0.519013     0.020387
    0.403821     0.478139     0.561150     0.012834
    0.414436     0.607438     0.507120     0.015229
    0.340487     0.611411     0.472725     0.018054
    0.349105     0.587308     0.520835     0.025080
    0.285188     0.526220     0.498653     0.018477
    0.655332     0.633780     0.465925     0.014977
    0.516793     0.612836     0.490020     0.012997
    0.546862     0.506128     0.444467     0.039154
    0.266711     0.449835     0.486214     0.020170
    0.628817     0.653947     0.520834     0.021319
    0.651196     0.386808     0.525806     0.016376
    0.587051     0.512435     0.526979     0.044533
    0.597765     0.453159     0.531096     0.044147
    0.701464     0.503295     0.436393     0.011287
    0.700110     0.506666     0.559710     0.009774
    0.681239     0.368375     0.457012     0.011182
    0.437333     0.310956     0.497615     0.007265
    0.497249     0.423924     0.487353     0.021006
    0.458206     0.453276     0.485799     0.018161
    0.536873     0.316789     0.493808     0.008840
    0.442409     0.398960     0.549220     0.013274
    0.729865     0.580427     0.508051     0.008688
EA122  17.025 21.705 21.067 90.00 90.00 90.00 Sym.group:    0
1.0000
   17.024663     0.000000     0.000000
    0.000000    21.705170     0.000000
    0.000000     0.000000    21.066794
   O  Cu
   4   24 
Direct
    0.382050     0.283576     0.527740     0.007901
    0.786217     0.518798     0.484114     0.009092
    0.228270     0.421514     0.521954     0.007525
    0.474174     0.678111     0.441825     0.007926
    0.711848     0.345774     0.504399     0.009572
    0.605475     0.341681     0.491256     0.010543
    0.482543     0.319016     0.492986     0.012577
    0.438813     0.486257     0.475928     0.019766
    0.541438     0.455015     0.475716     0.025472
    0.485351     0.444763     0.477404     0.025866
    0.563790     0.508625     0.467756     0.019813
    0.384659     0.365394     0.484797     0.014681
    0.697820     0.479912     0.465901     0.014868
    0.330365     0.413911     0.486120     0.015167
    0.672477     0.417206     0.477551     0.011771
    0.528470     0.398310     0.536896     0.014204
    0.501843     0.494749     0.482245     0.043874
    0.288956     0.573299     0.440654     0.008677
    0.282745     0.482571     0.543836     0.013503
    0.360433     0.648091     0.542036     0.008824
    0.589218     0.677314     0.545615     0.008516
    0.740331     0.541029     0.551087     0.013578
    0.697158     0.615930     0.548742     0.008493
    0.482813     0.687478     0.543369     0.009798
    0.297217     0.583350     0.542176     0.009154
    0.352226     0.638003     0.440516     0.009674
    0.580435     0.666976     0.444089     0.011915
    0.512865     0.513346     0.563290     0.011592
EA123  20.471 17.594 19.172 90.00 90.00 90.00 Sym.group:    0
1.0000
   20.470503     0.000000     0.000000
    0.000000    17.594123     0.000000
    0.000000     0.000000    19.171843
   O  Cu
   4   24 
Direct
    0.274381     0.520167     0.487894     0.043459
    0.276374     0.471143     0.478457     0.043705
    0.653531     0.545863     0.591071     0.015734
    0.441881     0.627503     0.585170     0.009608
    0.584096     0.330812     0.467642     0.014402
    0.529376     0.395987     0.458506     0.014561
    0.474003     0.418896     0.460829     0.013788
    0.457783     0.312934     0.551640     0.010450
    0.356088     0.400778     0.543054     0.015055
    0.426555     0.549476     0.502797     0.024811
    0.442188     0.463770     0.546756     0.012877
    0.448579     0.610640     0.488401     0.024351
    0.385204     0.617561     0.456552     0.019126
    0.393823     0.590448     0.499240     0.034425
    0.339983     0.522815     0.484594     0.027045
    0.329874     0.435514     0.494654     0.028679
    0.419833     0.350087     0.494391     0.012808
    0.641647     0.536639     0.405912     0.016945
    0.650468     0.557076     0.541836     0.037120
    0.649254     0.526524     0.455302     0.018183
    0.547786     0.709775     0.434950     0.011020
    0.655322     0.377594     0.435109     0.012367
    0.611421     0.698053     0.560908     0.009399
    0.617601     0.341429     0.557620     0.014416
    0.549422     0.667511     0.526362     0.013756
    0.625477     0.411271     0.526267     0.018508
    0.581743     0.650021     0.467726     0.016631
    0.636306     0.359712     0.496361     0.028248
EA124  20.055 19.083 20.452 90.00 90.00 90.00 Sym.group:    0
1.0000
   20.055052     0.000000     0.000000
    0.000000    19.083224     0.000000
    0.000000     0.000000    20.451807
   O  Cu
   4   24 
Direct
    0.453487     0.461249     0.509092     0.024935
    0.623889     0.331644     0.517295     0.008879
    0.342391     0.342590     0.505219     0.014905
    0.553559     0.500679     0.515703     0.033775
    0.390696     0.633958     0.500441     0.014707
    0.438952     0.723257     0.543606     0.007496
    0.338763     0.480033     0.541659     0.012241
    0.311254     0.577573     0.454185     0.008990
    0.402281     0.354064     0.466082     0.020856
    0.444080     0.719246     0.460922     0.007853
    0.488592     0.324491     0.473225     0.017178
    0.343895     0.476019     0.458925     0.012271
    0.306126     0.581585     0.536869     0.009579
    0.397149     0.358079     0.548828     0.019030
    0.502221     0.517167     0.457008     0.034692
    0.522626     0.599153     0.514780     0.017303
    0.622961     0.634737     0.449872     0.009121
    0.618515     0.637970     0.549400     0.009355
    0.729877     0.493710     0.514630     0.011121
    0.677629     0.563327     0.486995     0.014042
    0.538195     0.350118     0.490502     0.019416
    0.551028     0.528722     0.480627     0.053573
    0.518550     0.479059     0.481444     0.048925
    0.612253     0.412658     0.488426     0.020471
    0.650147     0.470599     0.487473     0.021577
    0.487172     0.427232     0.530984     0.035761
    0.633873     0.502316     0.524551     0.025164
    0.499838     0.518765     0.511259     0.041656
EA125  19.098 18.241 19.174 90.00 90.00 90.00 Sym.group:    0
1.0000
   19.097610     0.000000     0.000000
    0.000000    18.241181     0.000000
    0.000000     0.000000    19.174327
   O  Cu
   4   24 
Direct
    0.506943     0.431744     0.512589     0.017607
    0.631411     0.496547     0.447382     0.025749
    0.576513     0.591924     0.503738     0.028560
    0.500031     0.577450     0.508767     0.025268
    0.348369     0.496557     0.511355     0.019705
    0.322677     0.592954     0.550104     0.008913
    0.620170     0.369746     0.555138     0.012294
    0.422261     0.358669     0.556010     0.012535
    0.331233     0.397940     0.472794     0.011330
    0.542854     0.321468     0.474144     0.011617
    0.421665     0.356583     0.473588     0.012808
    0.331828     0.400025     0.555165     0.010654
    0.543450     0.323555     0.556578     0.012138
    0.497309     0.505623     0.564656     0.027006
    0.631873     0.466117     0.537780     0.027753
    0.637620     0.515787     0.527405     0.030799
    0.625664     0.446877     0.457755     0.047660
    0.697985     0.471548     0.490545     0.024789
    0.466947     0.472651     0.366418     0.010560
    0.537845     0.669240     0.514655     0.020177
    0.631352     0.578495     0.501958     0.039999
    0.352402     0.530798     0.440690     0.017558
    0.419236     0.554867     0.397186     0.014136
    0.517383     0.584830     0.382581     0.013961
    0.503240     0.658562     0.593980     0.015086
    0.407561     0.575766     0.481246     0.016794
    0.534502     0.614519     0.462356     0.037265
    0.439675     0.639157     0.603439     0.013330
EA126  20.103 19.178 21.817 90.00 90.00 90.00 Sym.group:    0
1.0000
   20.102663     0.000000     0.000000
    0.000000    19.177577     0.000000
    0.000000     0.000000    21.816741
   O  Cu
   4   24 
Direct
    0.718775     0.625666     0.473439     0.021436
    0.325651     0.712306     0.516624     0.006571
    0.723490     0.560795     0.488485     0.022606
    0.472416     0.247177     0.525689     0.008920
    0.738187     0.424559     0.491179     0.007893
    0.509933     0.694708     0.505547     0.008760
    0.644648     0.385385     0.525842     0.008855
    0.546140     0.319637     0.538633     0.011683
    0.619109     0.649955     0.502503     0.011367
    0.478017     0.558941     0.523445     0.033092
    0.533741     0.476908     0.527493     0.026342
    0.488829     0.446933     0.533325     0.027762
    0.527793     0.538536     0.522057     0.027548
    0.660407     0.557104     0.511195     0.023512
    0.667348     0.485204     0.517537     0.016523
    0.527763     0.597968     0.462967     0.014856
    0.546036     0.408671     0.479665     0.011651
    0.479489     0.501643     0.519225     0.042968
    0.244049     0.498574     0.526568     0.006898
    0.307268     0.421159     0.501170     0.008627
    0.414621     0.702340     0.488088     0.012325
    0.429733     0.485015     0.488046     0.018147
    0.454739     0.550511     0.484999     0.024424
    0.349548     0.613605     0.492277     0.012862
    0.320374     0.537190     0.495832     0.010066
    0.471451     0.262624     0.464792     0.018332
    0.368645     0.353025     0.507979     0.009518
    0.431800     0.383861     0.385399     0.007061
EA127  20.056 18.959 18.524 90.00 90.00 90.00 Sym.group:    0
1.0000
   20.055925     0.000000     0.000000
    0.000000    18.959017     0.000000
    0.000000     0.000000    18.523628
   O  Cu
   4   24 
Direct
    0.603481     0.414550     0.566599     0.011709
    0.457776     0.526979     0.487577     0.028469
    0.500608     0.574229     0.495062     0.029028
    0.274645     0.524824     0.505115     0.013768
    0.478279     0.334861     0.441386     0.016726
    0.709215     0.477547     0.456443     0.011051
    0.633898     0.381549     0.471310     0.013349
    0.516399     0.330040     0.581915     0.012028
    0.569391     0.489449     0.519433     0.021935
    0.629220     0.489006     0.450306     0.015299
    0.553002     0.327876     0.457857     0.011563
    0.715659     0.562801     0.488128     0.010117
    0.423004     0.415469     0.491745     0.020442
    0.389605     0.376167     0.529740     0.019206
    0.580901     0.552138     0.475812     0.019592
    0.415197     0.362057     0.479425     0.027240
    0.380292     0.641626     0.450686     0.012722
    0.587281     0.652371     0.463951     0.012172
    0.685428     0.599831     0.552967     0.010285
    0.463291     0.674060     0.547817     0.012698
    0.332841     0.533155     0.525343     0.030043
    0.338177     0.445024     0.516371     0.015437
    0.383435     0.629224     0.538427     0.013932
    0.590423     0.639973     0.551662     0.012227
    0.460149     0.686459     0.460093     0.012433
    0.329698     0.545557     0.437606     0.017412
    0.513817     0.495727     0.545710     0.023664
    0.484888     0.317451     0.511514     0.017166
EA128  19.389 19.373 17.358 90.00 90.00 90.00 Sym.group:    0
1.0000
   19.388818     0.000000     0.000000
    0.000000    19.373323     0.000000
    0.000000     0.000000    17.358470
   O  Cu
   4   24 
Direct
    0.585292     0.510743     0.485892     0.016617
    0.305926     0.548982     0.467662     0.019751
    0.643249     0.570284     0.612725     0.014269
    0.671726     0.484744     0.530763     0.024295
    0.321718     0.450931     0.416001     0.015988
    0.632669     0.602520     0.436458     0.012862
    0.672066     0.430672     0.463763     0.023711
    0.648461     0.504468     0.384797     0.013284
    0.476490     0.493646     0.348154     0.011026
    0.458060     0.629175     0.453730     0.017802
    0.409510     0.476889     0.353686     0.011031
    0.389630     0.616959     0.454429     0.013447
    0.583727     0.369087     0.444107     0.010654
    0.525789     0.639269     0.441426     0.012567
    0.333959     0.492723     0.612457     0.010136
    0.406981     0.340594     0.574139     0.008632
    0.575865     0.336605     0.533291     0.011453
    0.335575     0.410574     0.464773     0.013799
    0.314930     0.506684     0.482898     0.043384
    0.499718     0.315443     0.548556     0.009533
    0.354604     0.396613     0.594331     0.009581
    0.357727     0.569902     0.617385     0.009480
    0.642810     0.567987     0.548048     0.031579
    0.493503     0.670901     0.622185     0.008513
    0.699416     0.450762     0.543482     0.044914
    0.633096     0.426926     0.513684     0.027195
    0.511831     0.682501     0.538221     0.010215
    0.515674     0.503418     0.512958     0.019859
EA129  19.906 21.178 19.796 90.00 90.00 90.00 Sym.group:    0
1.0000
   19.906481     0.000000     0.000000
    0.000000    21.178235     0.000000
    0.000000     0.000000    19.796141
   O  Cu
   4   24 
Direct
    0.403373     0.580555     0.429417     0.012974
    0.365900     0.391042     0.437126     0.008609
    0.800264     0.540040     0.506898     0.039996
    0.802567     0.498167     0.523432     0.039606
    0.283120     0.539476     0.551482     0.009571
    0.319552     0.366112     0.530086     0.010892
    0.289907     0.485333     0.408544     0.008834
    0.439659     0.432448     0.494704     0.017542
    0.443532     0.513289     0.491571     0.018511
    0.377015     0.524768     0.560842     0.014547
    0.271100     0.456096     0.535070     0.009465
    0.597883     0.403000     0.480779     0.018397
    0.566538     0.349964     0.490663     0.013894
    0.644656     0.340412     0.525582     0.014787
    0.635786     0.365511     0.481464     0.024810
    0.457618     0.352254     0.513338     0.009993
    0.430346     0.459748     0.547290     0.022261
    0.378966     0.595099     0.486321     0.028441
    0.616569     0.559245     0.483977     0.019709
    0.604258     0.481179     0.450244     0.012659
    0.585435     0.612593     0.489787     0.015902
    0.661047     0.623066     0.523112     0.019457
    0.651879     0.596125     0.482670     0.027806
    0.722272     0.540377     0.508443     0.021294
    0.342717     0.628257     0.527170     0.016999
    0.481892     0.612368     0.510430     0.012174
    0.459695     0.507640     0.549070     0.024200
    0.366452     0.645837     0.480488     0.026461
EA130  22.035 16.752 20.722 90.00 90.00 90.00 Sym.group:    0
1.0000
   22.035338     0.000000     0.000000
    0.000000    16.752081     0.000000
    0.000000     0.000000    20.721907
   O  Cu
   4   24 
Direct
    0.591656     0.472131     0.490046     0.021780
    0.584953     0.223093     0.471527     0.006570
    0.705143     0.662959     0.497870     0.010405
    0.287874     0.579060     0.509696     0.015045
    0.501180     0.583737     0.455892     0.018054
    0.592688     0.511039     0.453839     0.042791
    0.666262     0.622782     0.421917     0.011430
    0.419755     0.663271     0.426099     0.008511
    0.260471     0.535540     0.482261     0.030142
    0.500728     0.268636     0.497500     0.010954
    0.397061     0.301099     0.502154     0.008101
    0.510655     0.428135     0.496759     0.024136
    0.463390     0.442937     0.498880     0.023489
    0.347423     0.399635     0.505296     0.012499
    0.589217     0.323916     0.494441     0.013480
    0.331408     0.480027     0.504644     0.019256
    0.472781     0.372789     0.450926     0.016206
    0.461300     0.690862     0.526317     0.009361
    0.372800     0.621867     0.532263     0.012697
    0.696129     0.556349     0.531864     0.012185
    0.472536     0.513264     0.541228     0.016803
    0.567586     0.513388     0.539810     0.024941
    0.622733     0.635228     0.530528     0.013145
    0.352499     0.510860     0.542888     0.018793
    0.558916     0.671784     0.529020     0.010210
    0.459569     0.583253     0.478962     0.017304
    0.520930     0.481175     0.532355     0.034347
    0.692358     0.351184     0.555019     0.006000
EA131  20.137 17.373 19.758 90.00 90.00 90.00 Sym.group:    0
1.0000
   20.136868     0.000000     0.000000
    0.000000    17.373308     0.000000
    0.000000     0.000000    19.758194
   O  Cu
   4   24 
Direct
    0.247208     0.496318     0.488987     0.010379
    0.497130     0.500085     0.594616     0.015939
    0.617660     0.640268     0.539631     0.011039
    0.662476     0.444444     0.528037     0.013684
    0.459292     0.295090     0.436670     0.011389
    0.626591     0.353129     0.457595     0.012728
    0.509483     0.297228     0.573433     0.007765
    0.539800     0.291090     0.451226     0.009309
    0.403974     0.382665     0.480786     0.017817
    0.434572     0.490793     0.553919     0.020985
    0.320614     0.550756     0.502450     0.014528
    0.371165     0.340249     0.522181     0.015527
    0.306279     0.462177     0.498186     0.022296
    0.394889     0.323796     0.473413     0.024015
    0.482973     0.463965     0.501269     0.022626
    0.449048     0.699623     0.546475     0.009931
    0.371854     0.667344     0.438798     0.008779
    0.658157     0.544324     0.425798     0.011587
    0.542847     0.699426     0.436737     0.010573
    0.610958     0.647837     0.432523     0.012827
    0.655498     0.452463     0.420960     0.012417
    0.442631     0.707603     0.439386     0.009465
    0.378234     0.659461     0.545893     0.009409
    0.664169     0.536379     0.532898     0.020298
    0.549241     0.691299     0.543819     0.017294
    0.493319     0.504375     0.535355     0.035257
    0.608797     0.349639     0.523911     0.014204
    0.701141     0.508176     0.575049     0.019432
EA132  20.235 20.632 17.032 90.00 90.00 90.00 Sym.group:    0
1.0000
   20.235208     0.000000     0.000000
    0.000000    20.631638     0.000000
    0.000000     0.000000    17.031992
   O  Cu
   4   24 
Direct
    0.676101     0.644916     0.520228     0.009432
    0.412863     0.702674     0.503948     0.012197
    0.379931     0.428692     0.501579     0.013679
    0.377929     0.593424     0.524157     0.013503
    0.590926     0.366045     0.572999     0.009228
    0.732342     0.474168     0.522739     0.011937
    0.495072     0.673045     0.479493     0.015412
    0.666631     0.427005     0.488832     0.013846
    0.592641     0.651637     0.485527     0.015672
    0.496789     0.550828     0.475375     0.025345
    0.558508     0.488742     0.478896     0.018089
    0.541274     0.541066     0.478127     0.027124
    0.645082     0.578078     0.485224     0.019700
    0.665190     0.517033     0.486122     0.018648
    0.524357     0.589195     0.541095     0.019314
    0.640940     0.487775     0.535745     0.017931
    0.544250     0.369764     0.503560     0.013569
    0.479658     0.313636     0.534833     0.012146
    0.301436     0.473797     0.545947     0.013942
    0.397635     0.343960     0.448012     0.012995
    0.299052     0.556032     0.471177     0.013970
    0.478256     0.315048     0.448984     0.011212
    0.300036     0.475209     0.460098     0.013317
    0.399037     0.342548     0.533860     0.014466
    0.300453     0.554620     0.557025     0.014276
    0.497385     0.505253     0.519352     0.018073
    0.604516     0.392912     0.429783     0.011189
    0.401708     0.642898     0.467285     0.030017
EA133  22.191 20.791 21.302 90.00 90.00 90.00 Sym.group:    0
1.0000
   22.190846     0.000000     0.000000
    0.000000    20.790598     0.000000
    0.000000     0.000000    21.301818
   O  Cu
   4   24 
Direct
    0.609838     0.271794     0.509135     0.006759
    0.657018     0.698433     0.517993     0.006263
    0.735475     0.416857     0.525974     0.007440
    0.294185     0.320580     0.516052     0.006429
    0.696314     0.499648     0.510383     0.012965
    0.525449     0.309483     0.475102     0.010329
    0.664261     0.604487     0.495077     0.011695
    0.564587     0.489593     0.475996     0.018664
    0.524212     0.445840     0.467683     0.015351
    0.550647     0.537593     0.470734     0.018721
    0.608648     0.359011     0.485822     0.014830
    0.580110     0.655452     0.466561     0.012194
    0.654897     0.410428     0.503697     0.014100
    0.615261     0.526000     0.536579     0.011249
    0.490034     0.391773     0.513984     0.013309
    0.235311     0.534346     0.512100     0.005462
    0.315161     0.599757     0.492660     0.008648
    0.390096     0.691995     0.499086     0.006013
    0.392612     0.318534     0.497860     0.009453
    0.434097     0.524588     0.498922     0.020663
    0.468262     0.566641     0.501852     0.018219
    0.452138     0.459081     0.500133     0.016106
    0.336805     0.410662     0.490877     0.010703
    0.490536     0.702220     0.504453     0.016984
    0.315756     0.487087     0.489464     0.009042
    0.400556     0.589362     0.553043     0.010136
    0.486416     0.508185     0.513201     0.027111
    0.511317     0.670570     0.475577     0.018382
EA134  17.873 20.653 20.304 90.00 90.00 90.00 Sym.group:    0
1.0000
   17.873045     0.000000     0.000000
    0.000000    20.652679     0.000000
    0.000000     0.000000    20.303538
   O  Cu
   4   24 
Direct
    0.205536     0.481664     0.536502     0.018913
    0.602769     0.582194     0.559733     0.010136
    0.653849     0.400321     0.557220     0.012533
    0.211772     0.447640     0.478736     0.018976
    0.407680     0.483818     0.471451     0.022107
    0.434717     0.540366     0.478731     0.017269
    0.312717     0.536332     0.549329     0.010801
    0.304896     0.544773     0.436482     0.009967
    0.390487     0.378355     0.520381     0.017287
    0.609081     0.373743     0.516495     0.023473
    0.357051     0.345843     0.476808     0.017969
    0.500364     0.369345     0.496022     0.013053
    0.459615     0.478750     0.473083     0.022148
    0.385637     0.325064     0.519045     0.026434
    0.439397     0.654560     0.455111     0.011738
    0.735156     0.552404     0.454852     0.010949
    0.634263     0.628198     0.479861     0.013475
    0.707207     0.381031     0.476461     0.012329
    0.725960     0.496076     0.581899     0.009966
    0.488697     0.645977     0.583130     0.011136
    0.576737     0.437365     0.504375     0.019486
    0.567558     0.515696     0.505514     0.018307
    0.638725     0.532529     0.445294     0.014916
    0.530098     0.668379     0.473143     0.009522
    0.752219     0.471662     0.471144     0.009978
    0.586753     0.465687     0.457608     0.017052
    0.366180     0.616925     0.483445     0.010937
    0.414880     0.645303     0.558146     0.011340
EA135  19.121 19.733 17.409 90.00 90.00 90.00 Sym.group:    0
1.0000
   19.121236     0.000000     0.000000
    0.000000    19.732707     0.000000
    0.000000     0.000000    17.408516
   O  Cu
   4   24 
Direct
    0.575212     0.536665     0.492971     0.018541
    0.294779     0.495395     0.451548     0.011121
    0.399609     0.373894     0.516173     0.020059
    0.393194     0.505035     0.578925     0.018591
    0.340999     0.403857     0.407131     0.013073
    0.600964     0.633182     0.439562     0.011611
    0.608281     0.631444     0.554298     0.022005
    0.683067     0.483333     0.482431     0.014923
    0.647184     0.541644     0.395146     0.012768
    0.422441     0.611786     0.442634     0.018083
    0.424873     0.448430     0.348229     0.009323
    0.359096     0.581615     0.439279     0.015202
    0.615399     0.399824     0.460457     0.020733
    0.552466     0.505848     0.343235     0.008934
    0.486689     0.639034     0.434285     0.011678
    0.486611     0.496794     0.496439     0.018539
    0.584995     0.398693     0.502931     0.033676
    0.640700     0.542964     0.568505     0.021228
    0.627651     0.588814     0.559235     0.035790
    0.589715     0.410973     0.598975     0.012929
    0.361001     0.402789     0.511630     0.046327
    0.543639     0.371261     0.510579     0.019524
    0.603605     0.337685     0.564650     0.016710
    0.359778     0.579242     0.591695     0.017473
    0.372691     0.451811     0.592777     0.032404
    0.405667     0.607118     0.669183     0.008807
    0.389531     0.549909     0.521491     0.025752
    0.630165     0.470962     0.525608     0.018618
EA136  19.659 20.969 20.681 90.00 90.00 90.00 Sym.group:    0
1.0000
   19.658998     0.000000     0.000000
    0.000000    20.968707     0.000000
    0.000000     0.000000    20.680524
   O  Cu
   4   24 
Direct
    0.766055     0.567731     0.473149     0.007189
    0.536073     0.742837     0.480287     0.007145
    0.477265     0.393445     0.555013     0.011492
    0.323277     0.548019     0.557108     0.018510
    0.714381     0.380442     0.486426     0.008238
    0.595498     0.674596     0.505409     0.013336
    0.680741     0.609692     0.502763     0.012062
    0.518867     0.557868     0.519850     0.019610
    0.557730     0.528277     0.518643     0.019245
    0.686527     0.515820     0.509963     0.013604
    0.487707     0.667201     0.516135     0.010929
    0.668054     0.448860     0.514710     0.011440
    0.582079     0.587153     0.458131     0.011732
    0.533440     0.410862     0.470629     0.014205
    0.346105     0.366014     0.450356     0.008993
    0.475294     0.335933     0.473532     0.011086
    0.263218     0.544469     0.476398     0.012299
    0.327173     0.423343     0.579565     0.008501
    0.609358     0.380783     0.576860     0.013547
    0.404039     0.546125     0.502967     0.019798
    0.460161     0.473977     0.502129     0.017563
    0.409824     0.427351     0.441179     0.014322
    0.283415     0.436884     0.468793     0.008728
    0.364356     0.628414     0.489657     0.012762
    0.410452     0.514765     0.455216     0.015337
    0.582731     0.342237     0.465690     0.011805
    0.612761     0.363300     0.520230     0.017990
    0.323419     0.583602     0.529211     0.042430
EA137  21.507 22.073 17.539 90.00 90.00 90.00 Sym.group:    0
1.0000
   21.506713     0.000000     0.000000
    0.000000    22.072551     0.000000
    0.000000     0.000000    17.539396
   O  Cu
   4   24 
Direct
    0.579043     0.484490     0.489754     0.026418
    0.296560     0.405279     0.517237     0.006362
    0.381374     0.707832     0.532158     0.006547
    0.246933     0.563862     0.520792     0.008324
    0.652788     0.455627     0.521374     0.017917
    0.582739     0.510002     0.534966     0.039902
    0.564886     0.454767     0.534545     0.036906
    0.581627     0.358015     0.446675     0.008531
    0.585288     0.345037     0.568863     0.007260
    0.682611     0.451249     0.451189     0.012583
    0.431142     0.267480     0.509766     0.007401
    0.505335     0.310907     0.483864     0.010970
    0.493991     0.445869     0.487271     0.018078
    0.422788     0.356642     0.483577     0.016375
    0.726715     0.536203     0.521342     0.008352
    0.455270     0.360483     0.531724     0.015901
    0.676982     0.663332     0.513465     0.006618
    0.293877     0.488983     0.479396     0.014805
    0.580314     0.661893     0.487420     0.008849
    0.470746     0.678386     0.494348     0.011332
    0.432504     0.507050     0.471771     0.017716
    0.523657     0.543649     0.472096     0.024324
    0.473703     0.551170     0.475254     0.024986
    0.384026     0.626690     0.488749     0.014264
    0.335960     0.575217     0.484685     0.013596
    0.639581     0.588221     0.472589     0.010539
    0.510816     0.600225     0.544895     0.013844
    0.488743     0.501442     0.480231     0.037523
EA138  17.219 22.338 21.415 90.00 90.00 90.00 Sym.group:    0
1.0000
   17.219178     0.000000     0.000000
    0.000000    22.338115     0.000000
    0.000000     0.000000    21.415336
   O  Cu
   4   24 
Direct
    0.676875     0.330015     0.515256     0.012685
    0.698413     0.660205     0.504179     0.006535
    0.768886     0.373427     0.522761     0.012106
    0.186594     0.468390     0.506848     0.008215
    0.796516     0.492899     0.513704     0.010268
    0.306284     0.314447     0.511335     0.006187
    0.422727     0.333310     0.479795     0.008467
    0.721189     0.554356     0.492975     0.009427
    0.558879     0.339146     0.484567     0.011077
    0.459810     0.457655     0.481225     0.021239
    0.559564     0.510362     0.484017     0.018202
    0.521852     0.460195     0.482789     0.024215
    0.649149     0.405422     0.487402     0.014812
    0.694032     0.463772     0.491213     0.011460
    0.332838     0.392843     0.479162     0.011625
    0.494106     0.409040     0.535765     0.012868
    0.491212     0.505085     0.491579     0.035142
    0.308892     0.473841     0.528490     0.012444
    0.411394     0.508308     0.534035     0.015055
    0.340260     0.596577     0.463106     0.009082
    0.336628     0.601019     0.560913     0.007982
    0.268154     0.469865     0.473931     0.018617
    0.475019     0.736652     0.503633     0.007791
    0.408289     0.668454     0.487798     0.010863
    0.486837     0.546724     0.492033     0.022970
    0.606173     0.630687     0.483812     0.014536
    0.526306     0.658019     0.483616     0.015844
    0.493120     0.639286     0.524060     0.015110
EA139  19.965 23.683 15.396 90.00 90.00 90.00 Sym.group:    0
1.0000
   19.964769     0.000000     0.000000
    0.000000    23.682975     0.000000
    0.000000     0.000000    15.396120
   O  Cu
   4   24 
Direct
    0.441955     0.443439     0.515521     0.031571
    0.767617     0.529503     0.479245     0.044378
    0.764998     0.490608     0.468742     0.044506
    0.193581     0.551009     0.520146     0.006899
    0.408608     0.383948     0.484144     0.020068
    0.472583     0.433503     0.467798     0.044018
    0.536683     0.450895     0.465501     0.016419
    0.412335     0.453434     0.463378     0.038591
    0.552711     0.374516     0.573308     0.010339
    0.547107     0.360346     0.438657     0.009480
    0.292185     0.444677     0.419958     0.008730
    0.671123     0.441248     0.553288     0.014153
    0.398391     0.367249     0.563059     0.013760
    0.572303     0.491658     0.564451     0.019808
    0.691982     0.532097     0.480979     0.020206
    0.702600     0.464591     0.493049     0.022466
    0.597917     0.398976     0.501499     0.012418
    0.619145     0.600218     0.478210     0.016031
    0.390110     0.491451     0.441690     0.018125
    0.411581     0.618432     0.493012     0.010506
    0.336657     0.630166     0.535902     0.015290
    0.343067     0.602254     0.479756     0.016176
    0.273355     0.550678     0.515185     0.015420
    0.659939     0.630940     0.534525     0.013763
    0.515782     0.618504     0.504812     0.008550
    0.539724     0.519075     0.578113     0.019246
    0.253573     0.478736     0.522673     0.010841
    0.632391     0.647850     0.463400     0.015433
EA140  19.338 19.338 19.338 90.00 90.00 90.00 Sym.group:    0
1.0000
   19.338219     0.000000     0.000000
    0.000000    19.338219     0.000000
    0.000000     0.000000    19.338219
   O  Cu
   4   24 
Direct
    0.500000     0.500000     0.326814     0.018966
    0.500000     0.500000     0.673186     0.018966
    0.330450     0.464697     0.500000     0.018966
    0.669550     0.535303     0.500000     0.018966
    0.464697     0.669550     0.500000     0.019707
    0.535303     0.330450     0.500000     0.019707
    0.500000     0.500000     0.380776     0.036739
    0.500000     0.500000     0.619224     0.036739
    0.383279     0.475697     0.500000     0.036739
    0.616721     0.524303     0.500000     0.036739
    0.475697     0.616721     0.500000     0.025295
    0.524303     0.383279     0.500000     0.025295
    0.533075     0.478325     0.527962     0.051312
    0.533075     0.478325     0.472038     0.051312
    0.478325     0.466925     0.527962     0.051312
    0.478325     0.466925     0.472038     0.051312
    0.521675     0.533075     0.527962     0.051312
    0.521675     0.533075     0.472038     0.051312
    0.466925     0.521675     0.527962     0.051312
    0.466925     0.521675     0.472038     0.051312
    0.404031     0.562892     0.418866     0.018897
    0.404031     0.562892     0.581134     0.018897
    0.562892     0.595969     0.418866     0.018897
    0.562892     0.595969     0.581134     0.018897
    0.437108     0.404031     0.418866     0.018897
    0.437108     0.404031     0.581134     0.018897
    0.595969     0.437108     0.418866     0.018897
    0.595969     0.437108     0.581134     0.018897
EA141  22.259 16.653 16.966 90.00 90.00 90.00 Sym.group:    0
1.0000
   22.258975     0.000000     0.000000
    0.000000    16.653087     0.000000
    0.000000     0.000000    16.966414
   O  Cu
   4   24 
Direct
    0.469894     0.526591     0.625782     0.015158
    0.469894     0.402315     0.585494     0.020024
    0.469894     0.375724     0.459712     0.020024
    0.469894     0.473409     0.374218     0.015158
    0.469894     0.597685     0.414506     0.015710
    0.469894     0.624276     0.540288     0.015710
    0.530106     0.526591     0.625782     0.023630
    0.530106     0.402315     0.585494     0.024922
    0.530106     0.375724     0.459712     0.024922
    0.530106     0.473409     0.374218     0.023630
    0.530106     0.597685     0.414506     0.014533
    0.530106     0.624276     0.540288     0.014533
    0.594849     0.500000     0.500000     0.031414
    0.405151     0.500000     0.500000     0.035353
    0.641002     0.522055     0.413446     0.015158
    0.641002     0.587396     0.475472     0.015100
    0.641002     0.565341     0.562025     0.015091
    0.641002     0.477945     0.586554     0.015318
    0.641002     0.412604     0.524528     0.015378
    0.641002     0.434659     0.437975     0.015310
    0.358998     0.522055     0.413446     0.015958
    0.358998     0.587396     0.475472     0.015535
    0.358998     0.565341     0.562025     0.015920
    0.358998     0.477945     0.586554     0.016508
    0.358998     0.412604     0.524528     0.016690
    0.358998     0.434659     0.437975     0.016582
    0.716070     0.500000     0.500000     0.018440
    0.283930     0.500000     0.500000     0.019099
EA142  17.896 17.896 16.429 90.00 90.00 90.00 Sym.group:    0
1.0000
   17.896426     0.000000     0.000000
    0.000000    17.896426     0.000000
    0.000000     0.000000    16.428609
   O  Cu
   4   24 
Direct
    0.498049     0.346565     0.500000     0.039245
    0.353471     0.454441     0.500000     0.039693
    0.411391     0.625279     0.500000     0.039693
    0.591766     0.622986     0.500000     0.039245
    0.645324     0.450730     0.500000     0.039760
    0.500000     0.500000     0.384695     0.025965
    0.500000     0.500000     0.615305     0.025965
    0.543292     0.636806     0.548495     0.027226
    0.643489     0.501103     0.548495     0.017826
    0.545389     0.363874     0.548495     0.026794
    0.384563     0.414767     0.548495     0.027302
    0.383267     0.583448     0.548495     0.027312
    0.451165     0.365073     0.451505     0.027226
    0.613233     0.411860     0.451505     0.017826
    0.618816     0.580454     0.451505     0.026794
    0.460201     0.637863     0.451505     0.027302
    0.356586     0.504751     0.451505     0.027312
    0.543292     0.636806     0.451505     0.027226
    0.643489     0.501103     0.451505     0.017826
    0.545389     0.363874     0.451505     0.026794
    0.384563     0.414767     0.451505     0.027302
    0.383267     0.583448     0.451505     0.027312
    0.451165     0.365073     0.548495     0.027226
    0.613233     0.411860     0.548495     0.017826
    0.618816     0.580454     0.548495     0.026794
    0.460201     0.637863     0.548495     0.027302
    0.356586     0.504751     0.548495     0.027312
    0.500000     0.500000     0.500000     0.051401
EA143  18.278 16.294 16.294 90.00 90.00 90.00 Sym.group:    0
1.0000
   18.278232     0.000000     0.000000
    0.000000    16.294041     0.000000
    0.000000     0.000000    16.294041
   O  Cu
   4   24 
Direct
    0.654234     0.393150     0.467156     0.015581
    0.654234     0.467156     0.606850     0.015581
    0.654234     0.606850     0.532844     0.015581
    0.654234     0.532844     0.393150     0.015581
    0.345766     0.393150     0.467156     0.012380
    0.345766     0.467156     0.606850     0.012380
    0.345766     0.606850     0.532844     0.012380
    0.345766     0.532844     0.393150     0.012380
    0.537835     0.396648     0.454945     0.022248
    0.537835     0.454945     0.603352     0.022248
    0.537835     0.603352     0.545055     0.022248
    0.537835     0.545055     0.396648     0.022248
    0.462165     0.396648     0.454945     0.020816
    0.462165     0.454945     0.603352     0.020816
    0.462165     0.603352     0.545055     0.020816
    0.462165     0.545055     0.396648     0.020816
    0.584864     0.492672     0.568874     0.027222
    0.584864     0.568874     0.507328     0.027222
    0.584864     0.507328     0.431126     0.027222
    0.584864     0.431126     0.492672     0.027222
    0.415136     0.492672     0.568874     0.021025
    0.415136     0.568874     0.507328     0.021025
    0.415136     0.507328     0.431126     0.021025
    0.415136     0.431126     0.492672     0.021025
    0.500000     0.397131     0.533761     0.024418
    0.500000     0.533761     0.602869     0.024418
    0.500000     0.602869     0.466239     0.024418
    0.500000     0.466239     0.397131     0.024418
EA144  19.032 19.032 16.030 90.00 90.00 90.00 Sym.group:    0
1.0000
   19.032499     0.000000     0.000000
    0.000000    19.032499     0.000000
    0.000000     0.000000    16.030205
   O  Cu
   4   24 
Direct
    0.556875     0.632312     0.394256     0.018339
    0.367688     0.556875     0.394256     0.018339
    0.443125     0.367688     0.394256     0.018339
    0.632312     0.443125     0.394256     0.018339
    0.504870     0.643936     0.605744     0.017942
    0.643936     0.495130     0.605744     0.017942
    0.495130     0.356064     0.605744     0.017942
    0.356064     0.504870     0.605744     0.017942
    0.556875     0.632312     0.605744     0.018108
    0.367688     0.556875     0.605744     0.018108
    0.443125     0.367688     0.605744     0.018108
    0.632312     0.443125     0.605744     0.018108
    0.504870     0.643936     0.394256     0.039013
    0.643936     0.495130     0.394256     0.039013
    0.495130     0.356064     0.394256     0.039013
    0.356064     0.504870     0.394256     0.039013
    0.506462     0.667936     0.500000     0.020743
    0.332064     0.506462     0.500000     0.020743
    0.493538     0.332064     0.500000     0.020743
    0.667936     0.493538     0.500000     0.020743
    0.565652     0.654707     0.500000     0.020585
    0.654707     0.434348     0.500000     0.020585
    0.434348     0.345293     0.500000     0.020585
    0.345293     0.565652     0.500000     0.020585
    0.575664     0.380777     0.500000     0.016159
    0.619223     0.575664     0.500000     0.016159
    0.424336     0.619223     0.500000     0.016159
    0.380777     0.424336     0.500000     0.016159
EA145  23.616 19.210 15.028 90.00 90.00 90.00 Sym.group:    0
1.0000
   23.616240     0.000000     0.000000
    0.000000    19.210474     0.000000
    0.000000     0.000000    15.027557
   O  Cu
   4   24 
Direct
    0.549420     0.435801     0.484077     0.028361
    0.284617     0.546450     0.505211     0.036800
    0.285508     0.498158     0.522907     0.037030
    0.749344     0.506332     0.449178     0.004914
    0.574979     0.363303     0.525152     0.021995
    0.524066     0.426494     0.536694     0.044478
    0.597726     0.511345     0.542609     0.023927
    0.472103     0.448469     0.536848     0.015983
    0.574043     0.451463     0.539163     0.040330
    0.665047     0.450617     0.436909     0.011054
    0.456652     0.345740     0.428781     0.011354
    0.460524     0.337147     0.575710     0.010339
    0.673028     0.442545     0.583734     0.008424
    0.361886     0.430788     0.441611     0.012965
    0.582568     0.337813     0.442184     0.013303
    0.614046     0.622057     0.472847     0.017723
    0.429958     0.575858     0.477245     0.019896
    0.444462     0.492640     0.425336     0.013513
    0.451226     0.635289     0.488800     0.018813
    0.389874     0.640668     0.531855     0.017675
    0.399463     0.615575     0.479146     0.024730
    0.346693     0.548766     0.507329     0.023668
    0.643577     0.657714     0.524259     0.017451
    0.532894     0.636140     0.518699     0.010281
    0.558656     0.518625     0.544697     0.024041
    0.336524     0.463838     0.503392     0.025128
    0.620835     0.679169     0.472389     0.021403
    0.420280     0.381196     0.503238     0.013877
EA146  21.628 19.120 19.698 90.00 90.00 90.00 Sym.group:    0
1.0000
   21.627645     0.000000     0.000000
    0.000000    19.120190     0.000000
    0.000000     0.000000    19.698051
   O  Cu
   4   24 
Direct
    0.604116     0.396425     0.631565     0.006397
    0.541910     0.576221     0.499966     0.013212
    0.453188     0.514958     0.563399     0.014522
    0.324385     0.473257     0.461188     0.012366
    0.700048     0.587013     0.540968     0.005993
    0.661680     0.359520     0.460257     0.006519
    0.501309     0.370269     0.551026     0.012760
    0.592179     0.396315     0.362834     0.006463
    0.592736     0.645245     0.592256     0.008581
    0.642595     0.619660     0.436406     0.008125
    0.530358     0.498018     0.667931     0.012317
    0.546758     0.321361     0.494365     0.010438
    0.471378     0.537528     0.651044     0.017740
    0.488694     0.357740     0.488284     0.014754
    0.392446     0.399689     0.613235     0.008234
    0.634178     0.476554     0.525729     0.010497
    0.457362     0.515242     0.452324     0.017465
    0.554876     0.651469     0.491347     0.020521
    0.415286     0.552147     0.609713     0.021585
    0.416995     0.532283     0.390698     0.011673
    0.532407     0.604454     0.326346     0.008525
    0.443451     0.344501     0.391438     0.009308
    0.396226     0.683266     0.472813     0.008162
    0.286948     0.523872     0.500022     0.019891
    0.369398     0.481560     0.508976     0.021380
    0.435766     0.615376     0.490317     0.016324
    0.474100     0.407485     0.429573     0.015227
    0.539226     0.558573     0.395979     0.012773
EA147  22.760 20.718 17.754 90.00 90.00 90.00 Sym.group:    0
1.0000
   22.760381     0.000000     0.000000
    0.000000    20.718382     0.000000
    0.000000     0.000000    17.753730
   O  Cu
   4   24 
Direct
    0.500153     0.498404     0.371308     0.015209
    0.499824     0.501836     0.648086     0.013659
    0.467334     0.481605     0.492380     0.020155
    0.543342     0.472385     0.487881     0.019136
    0.723753     0.509660     0.360324     0.006724
    0.569411     0.593071     0.476949     0.013558
    0.407746     0.589492     0.467701     0.020878
    0.271184     0.484568     0.362687     0.006991
    0.388549     0.565133     0.504523     0.021517
    0.479550     0.704139     0.624328     0.007750
    0.603813     0.612423     0.542216     0.010712
    0.614648     0.437871     0.498324     0.015617
    0.522748     0.303226     0.619541     0.009255
    0.398178     0.391741     0.543656     0.009949
    0.438895     0.326804     0.614566     0.008250
    0.582715     0.344007     0.608580     0.008278
    0.617232     0.514670     0.482008     0.015791
    0.563422     0.679501     0.597411     0.007661
    0.420285     0.660810     0.588449     0.008590
    0.385218     0.488032     0.484875     0.016088
    0.309373     0.554922     0.382639     0.008440
    0.481441     0.591314     0.504298     0.014451
    0.649457     0.579838     0.420943     0.009207
    0.707702     0.435860     0.377574     0.006861
    0.525447     0.314122     0.497027     0.007771
    0.326778     0.407626     0.421670     0.006336
    0.501351     0.502206     0.580547     0.028678
    0.500451     0.454735     0.439508     0.044147
EA148  19.545 19.413 16.791 90.00 90.00 90.00 Sym.group:    0
1.0000
   19.544955     0.000000     0.000000
    0.000000    19.413144     0.000000
    0.000000     0.000000    16.791444
   O  Cu
   4   24 
Direct
    0.521670     0.492112     0.363827     0.016057
    0.375424     0.436654     0.611752     0.017485
    0.378985     0.436987     0.393404     0.018018
    0.347634     0.532280     0.552524     0.023805
    0.674353     0.452600     0.576800     0.009154
    0.624522     0.617310     0.572518     0.009889
    0.461023     0.657093     0.560406     0.011087
    0.544391     0.661455     0.443237     0.010447
    0.674208     0.550996     0.453179     0.010386
    0.647436     0.381807     0.451755     0.009122
    0.681082     0.452403     0.454048     0.009646
    0.631020     0.617055     0.449750     0.010532
    0.467524     0.656929     0.437637     0.011492
    0.537886     0.661699     0.566005     0.009802
    0.667642     0.551205     0.575942     0.009874
    0.640589     0.382063     0.574499     0.008919
    0.518118     0.492268     0.431767     0.032351
    0.364314     0.444681     0.553092     0.039300
    0.378360     0.424615     0.451838     0.041176
    0.445678     0.314153     0.435012     0.016176
    0.370407     0.615610     0.428482     0.013344
    0.494703     0.312842     0.586916     0.010145
    0.327176     0.568381     0.572663     0.044613
    0.391723     0.583095     0.538941     0.029961
    0.497064     0.350869     0.475945     0.018518
    0.372847     0.552472     0.467059     0.025770
    0.471811     0.312143     0.510152     0.021203
    0.492411     0.488225     0.510848     0.019242
EA149  21.904 21.048 14.870 90.00 90.00 90.00 Sym.group:    0
1.0000
   21.903605     0.000000     0.000000
    0.000000    21.048364     0.000000
    0.000000     0.000000    14.869874
   O  Cu
   4   24 
Direct
    0.567423     0.436502     0.487411     0.020939
    0.553001     0.548145     0.481136     0.034504
    0.279901     0.450050     0.513937     0.007385
    0.482197     0.255164     0.521040     0.006894
    0.598204     0.609662     0.517444     0.018736
    0.623728     0.393380     0.534181     0.016403
    0.571099     0.525715     0.534349     0.044921
    0.526187     0.559269     0.534864     0.039274
    0.578324     0.464133     0.538310     0.043228
    0.672897     0.513098     0.428903     0.011236
    0.484310     0.652644     0.433908     0.009739
    0.673581     0.512185     0.573827     0.012164
    0.483749     0.654642     0.578929     0.008771
    0.652832     0.375020     0.455864     0.011391
    0.618157     0.637085     0.433434     0.011393
    0.313522     0.634159     0.514018     0.009893
    0.428484     0.328199     0.479988     0.012932
    0.397189     0.643740     0.480623     0.011523
    0.353207     0.399630     0.479065     0.011552
    0.486777     0.440719     0.480619     0.022003
    0.462336     0.530272     0.479394     0.018137
    0.452320     0.473448     0.479587     0.021979
    0.343005     0.494555     0.480166     0.016877
    0.518811     0.328294     0.481113     0.013709
    0.354951     0.560910     0.479112     0.017874
    0.435924     0.418864     0.548980     0.015666
    0.702826     0.588073     0.514200     0.008217
    0.385060     0.572442     0.535596     0.018675
EA150  20.722 19.709 17.266 90.00 90.00 90.00 Sym.group:    0
1.0000
   20.722311     0.000000     0.000000
    0.000000    19.708601     0.000000
    0.000000     0.000000    17.266315
   O  Cu
   4   24 
Direct
    0.359660     0.581250     0.479152     0.022052
    0.626434     0.502620     0.442572     0.025769
    0.580121     0.413095     0.507999     0.021643
    0.406286     0.456993     0.536287     0.019785
    0.523235     0.643811     0.482542     0.020974
    0.491049     0.629843     0.580649     0.021085
    0.626982     0.532923     0.541998     0.030432
    0.634043     0.487288     0.531706     0.030620
    0.535763     0.622999     0.572352     0.021676
    0.340094     0.539418     0.472410     0.048949
    0.478518     0.650671     0.490833     0.020370
    0.619367     0.548258     0.452869     0.049850
    0.515033     0.698642     0.538421     0.018854
    0.297732     0.579728     0.530254     0.019108
    0.687548     0.530417     0.488853     0.023929
    0.471844     0.514882     0.352051     0.010308
    0.547391     0.340012     0.522618     0.017965
    0.408601     0.375647     0.545679     0.018059
    0.630257     0.428600     0.505202     0.039338
    0.367870     0.494517     0.548184     0.031388
    0.369242     0.458563     0.435753     0.018497
    0.432292     0.438008     0.388627     0.013323
    0.524468     0.413788     0.373749     0.011959
    0.515265     0.349713     0.610264     0.012695
    0.455743     0.364753     0.620147     0.013105
    0.422571     0.419856     0.482481     0.030047
    0.541751     0.388931     0.463129     0.026479
    0.590841     0.594775     0.503220     0.018560
EA151  23.089 21.221 16.693 90.00 90.00 90.00 Sym.group:    0
1.0000
   23.088625     0.000000     0.000000
    0.000000    21.220757     0.000000
    0.000000     0.000000    16.692965
   O  Cu
   4   24 
Direct
    0.296763     0.367110     0.463764     0.004930
    0.695687     0.379619     0.474405     0.008306
    0.453078     0.280888     0.471423     0.006254
    0.378537     0.595498     0.488046     0.009938
    0.525681     0.311386     0.547126     0.010973
    0.348680     0.472838     0.424717     0.009915
    0.613056     0.363108     0.498359     0.012296
    0.504085     0.442881     0.564719     0.023412
    0.461203     0.474904     0.589176     0.020514
    0.543921     0.466488     0.542209     0.022617
    0.399145     0.397769     0.358183     0.007168
    0.648609     0.457547     0.482575     0.012118
    0.444734     0.337316     0.597587     0.009384
    0.523810     0.399984     0.474462     0.012421
    0.502917     0.497754     0.551515     0.028378
    0.583508     0.610268     0.467579     0.012630
    0.680365     0.616169     0.446602     0.008771
    0.440360     0.673393     0.467675     0.011405
    0.701478     0.522251     0.532410     0.009570
    0.528066     0.661604     0.553280     0.009134
    0.301310     0.578656     0.568394     0.010481
    0.662112     0.596187     0.541968     0.008840
    0.447257     0.644091     0.562549     0.011248
    0.719755     0.542246     0.437047     0.009159
    0.521171     0.690863     0.458400     0.008544
    0.271519     0.639155     0.477174     0.006662
    0.488654     0.487164     0.455288     0.012872
    0.314539     0.492861     0.503363     0.010072
EA152  19.446 19.026 19.007 90.00 90.00 90.00 Sym.group:    0
1.0000
   19.445968     0.000000     0.000000
    0.000000    19.026078     0.000000
    0.000000     0.000000    19.007347
   O  Cu
   4   24 
Direct
    0.400513     0.499261     0.496263     0.024950
    0.596349     0.500275     0.499614     0.015110
    0.319165     0.623971     0.422800     0.008506
    0.347787     0.531281     0.535266     0.023025
    0.330515     0.411171     0.603959     0.017674
    0.328941     0.402345     0.553361     0.019676
    0.327518     0.527759     0.421655     0.016003
    0.666585     0.544182     0.492448     0.015477
    0.668037     0.611437     0.606628     0.009305
    0.668832     0.525207     0.574904     0.012742
    0.667935     0.404689     0.441144     0.018688
    0.666440     0.416396     0.390195     0.018118
    0.507006     0.599873     0.605379     0.010680
    0.507573     0.426901     0.627668     0.010244
    0.505637     0.355118     0.470314     0.009512
    0.503670     0.483673     0.350711     0.010308
    0.504635     0.634942     0.434179     0.009718
    0.429428     0.541387     0.533571     0.028910
    0.429798     0.348521     0.669514     0.006695
    0.427665     0.364988     0.565595     0.011200
    0.425738     0.568119     0.365812     0.011230
    0.426952     0.677228     0.346128     0.007804
    0.569947     0.668033     0.669864     0.005916
    0.570896     0.514443     0.593055     0.015806
    0.569252     0.341222     0.386326     0.011933
    0.567095     0.387750     0.335398     0.012079
    0.567639     0.589705     0.510631     0.019795
    0.498450     0.500125     0.497616     0.023900
EA153  24.838 19.691 14.862 90.00 90.00 90.00 Sym.group:    0
1.0000
   24.837631     0.000000     0.000000
    0.000000    19.690915     0.000000
    0.000000     0.000000    14.861950
   O  Cu
   4   24 
Direct
    0.256237     0.548090     0.505631     0.041708
    0.742995     0.450148     0.491578     0.040130
    0.745439     0.496397     0.474840     0.040384
    0.254345     0.500322     0.528526     0.041738
    0.609249     0.621374     0.482550     0.015402
    0.390383     0.378075     0.527748     0.015526
    0.589018     0.424809     0.517792     0.018620
    0.410903     0.575824     0.472523     0.017980
    0.421075     0.490346     0.424978     0.021611
    0.580477     0.513677     0.574475     0.021145
    0.562576     0.363506     0.498805     0.013932
    0.436890     0.636188     0.482188     0.013544
    0.624339     0.352576     0.458451     0.016125
    0.373835     0.644267     0.526731     0.017167
    0.380481     0.616256     0.469985     0.024075
    0.619472     0.384460     0.518202     0.027903
    0.322366     0.550605     0.503407     0.019617
    0.676780     0.448278     0.497224     0.019487
    0.358115     0.344396     0.471127     0.014963
    0.643714     0.656973     0.544589     0.013507
    0.523816     0.639808     0.506447     0.009671
    0.476829     0.362047     0.497545     0.008956
    0.544174     0.520302     0.562687     0.021144
    0.457187     0.483372     0.435399     0.021653
    0.306428     0.464723     0.506639     0.019222
    0.692958     0.534233     0.504566     0.019736
    0.379721     0.320439     0.538533     0.018595
    0.620198     0.678510     0.476833     0.018158
EA154  21.058 21.048 18.671 90.00 90.00 90.00 Sym.group:    0
1.0000
   21.058301     0.000000     0.000000
    0.000000    21.047657     0.000000
    0.000000     0.000000    18.670535
   O  Cu
   4   24 
Direct
    0.674123     0.364928     0.480591     0.010963
    0.412092     0.283491     0.488109     0.008188
    0.326963     0.601295     0.572431     0.006008
    0.292036     0.413364     0.503394     0.008100
    0.690546     0.536658     0.649369     0.006494
    0.491970     0.322863     0.508953     0.012099
    0.664783     0.589770     0.581245     0.007609
    0.593826     0.347662     0.486149     0.015156
    0.493523     0.451245     0.519430     0.017754
    0.557804     0.518111     0.509447     0.014192
    0.539847     0.462876     0.509704     0.020144
    0.647998     0.426136     0.480554     0.023006
    0.410636     0.368473     0.533003     0.014071
    0.663780     0.494796     0.547971     0.009467
    0.536625     0.406228     0.453079     0.013801
    0.431161     0.659750     0.394581     0.006604
    0.479454     0.681666     0.551383     0.007961
    0.369586     0.504300     0.654982     0.007308
    0.598307     0.636410     0.488411     0.007017
    0.427505     0.542934     0.351951     0.008782
    0.555083     0.614082     0.338147     0.007789
    0.325651     0.491091     0.519973     0.015940
    0.515491     0.579505     0.637854     0.008147
    0.382096     0.437616     0.509552     0.017787
    0.468564     0.478078     0.368845     0.009516
    0.589686     0.546501     0.349962     0.007804
    0.413789     0.647467     0.509181     0.011960
    0.447075     0.592703     0.501748     0.011668
EA155  23.532 19.199 15.683 90.00 90.00 90.00 Sym.group:    0
1.0000
   23.531974     0.000000     0.000000
    0.000000    19.199488     0.000000
    0.000000     0.000000    15.683058
   O  Cu
   4   24 
Direct
    0.543975     0.566539     0.487168     0.031626
    0.319604     0.477076     0.531358     0.028220
    0.284188     0.511680     0.488005     0.026628
    0.746933     0.493139     0.448721     0.004192
    0.571291     0.641505     0.530936     0.019723
    0.516557     0.573898     0.535076     0.044534
    0.585854     0.495393     0.546351     0.021838
    0.463395     0.547774     0.527585     0.016977
    0.565249     0.553333     0.542347     0.039500
    0.654902     0.564703     0.441266     0.010207
    0.455593     0.646596     0.427503     0.010983
    0.454892     0.659110     0.569095     0.010916
    0.666035     0.571061     0.581633     0.009537
    0.358327     0.564832     0.435398     0.014238
    0.582074     0.666122     0.453079     0.013839
    0.606097     0.382209     0.474404     0.015365
    0.439655     0.420239     0.449494     0.018215
    0.442686     0.496785     0.411473     0.011982
    0.455610     0.369321     0.419023     0.015664
    0.420010     0.349827     0.542814     0.015784
    0.403321     0.370627     0.486262     0.017884
    0.384371     0.421158     0.605483     0.011909
    0.642635     0.342303     0.519254     0.019077
    0.528855     0.374647     0.535354     0.010528
    0.546312     0.485084     0.542198     0.022912
    0.329403     0.519682     0.500316     0.052464
    0.616720     0.324503     0.474516     0.020787
    0.415457     0.610857     0.493889     0.015400
EA156  20.105 19.861 19.734 90.00 90.00 90.00 Sym.group:    0
1.0000
   20.104791     0.000000     0.000000
    0.000000    19.861004     0.000000
    0.000000     0.000000    19.733503
   O  Cu
   4   24 
Direct
    0.346516     0.535789     0.497603     0.063362
    0.377130     0.569264     0.478598     0.043350
    0.313753     0.529672     0.468881     0.045905
    0.642967     0.748905     0.535726     0.004425
    0.604720     0.449651     0.669954     0.007727
    0.703090     0.451333     0.376418     0.005296
    0.508885     0.651480     0.398527     0.008112
    0.640936     0.349553     0.423743     0.007994
    0.537451     0.490606     0.675669     0.011282
    0.501659     0.383266     0.458609     0.012319
    0.375503     0.580806     0.408873     0.027636
    0.413039     0.509001     0.616531     0.012501
    0.495663     0.357842     0.619516     0.009603
    0.616685     0.661390     0.597017     0.010222
    0.592957     0.470680     0.340756     0.008561
    0.494717     0.606664     0.534468     0.012910
    0.370620     0.396333     0.560349     0.011665
    0.454045     0.476633     0.362713     0.012266
    0.550364     0.607157     0.566503     0.011705
    0.477953     0.494097     0.631781     0.013798
    0.521178     0.474312     0.365791     0.012293
    0.449113     0.592268     0.404506     0.014795
    0.439358     0.375611     0.575573     0.016917
    0.565193     0.365328     0.448780     0.012779
    0.353619     0.452527     0.474446     0.030631
    0.650706     0.459656     0.514073     0.011533
    0.594319     0.479147     0.511318     0.012924
    0.407861     0.481029     0.483280     0.023077
EA157  20.354 20.538 19.422 90.00 90.00 90.00 Sym.group:    0
1.0000
   20.354042     0.000000     0.000000
    0.000000    20.538203     0.000000
    0.000000     0.000000    19.422059
   O  Cu
   4   24 
Direct
    0.502360     0.434926     0.492054     0.031283
    0.461550     0.476395     0.497294     0.048833
    0.461552     0.523613     0.502707     0.048837
    0.502370     0.565073     0.507945     0.031284
    0.647702     0.499989     0.499996     0.013658
    0.613211     0.458118     0.406857     0.010675
    0.452680     0.307723     0.594935     0.008554
    0.343334     0.439572     0.564012     0.013356
    0.419012     0.599865     0.474862     0.020581
    0.617398     0.628311     0.598993     0.008837
    0.617378     0.371672     0.401007     0.008835
    0.613215     0.541862     0.593146     0.010676
    0.452711     0.692285     0.405063     0.008553
    0.343347     0.560450     0.435993     0.013358
    0.418996     0.400146     0.525134     0.020582
    0.722308     0.369530     0.325405     0.003854
    0.494023     0.364132     0.513421     0.019885
    0.355103     0.479352     0.482485     0.019890
    0.380230     0.653072     0.393331     0.009628
    0.552776     0.626056     0.517490     0.019268
    0.552758     0.373937     0.482510     0.019267
    0.722330     0.630439     0.674599     0.003855
    0.494046     0.635868     0.486578     0.019885
    0.355104     0.520669     0.517520     0.019890
    0.380206     0.346950     0.606666     0.009628
    0.508518     0.504794     0.553347     0.040976
    0.508519     0.495204     0.446651     0.040971
    0.507263     0.499999     0.499999     0.077885
EA158  21.691 21.008 16.317 90.00 90.00 90.00 Sym.group:    0
1.0000
   21.691281     0.000000     0.000000
    0.000000    21.007942     0.000000
    0.000000     0.000000    16.316794
   O  Cu
   4   24 
Direct
    0.372984     0.457381     0.445759     0.016163
    0.421494     0.611558     0.387342     0.011114
    0.578496     0.611566     0.612680     0.011112
    0.627020     0.457393     0.554245     0.016165
    0.500006     0.362101     0.499995     0.015027
    0.423687     0.334564     0.543567     0.012040
    0.286552     0.524371     0.567028     0.008415
    0.480130     0.705189     0.520614     0.015962
    0.619541     0.587115     0.544588     0.017317
    0.616336     0.391751     0.535932     0.019954
    0.383673     0.391739     0.464068     0.019954
    0.576326     0.334575     0.456434     0.012042
    0.713452     0.524391     0.432967     0.008416
    0.519851     0.705201     0.479380     0.015968
    0.380444     0.587104     0.455414     0.017329
    0.427255     0.318257     0.446574     0.009859
    0.347602     0.514719     0.470035     0.021970
    0.442821     0.666149     0.423621     0.019937
    0.698688     0.603295     0.447595     0.008140
    0.657388     0.354590     0.438939     0.008170
    0.342626     0.354576     0.561061     0.008172
    0.572764     0.318261     0.553426     0.009860
    0.652392     0.514734     0.529959     0.021972
    0.557164     0.666145     0.576373     0.019940
    0.301309     0.603275     0.552406     0.008139
    0.500000     0.500002     0.563504     0.016078
    0.500000     0.499998     0.436495     0.016079
    0.500000     0.500000     0.499999     0.027749
EA159  23.358 22.300 16.431 90.00 90.00 90.00 Sym.group:    0
1.0000
   23.357715     0.000000     0.000000
    0.000000    22.300312     0.000000
    0.000000     0.000000    16.431172
   O  Cu
   4   24 
Direct
    0.275429     0.559989     0.519716     0.007969
    0.569206     0.264309     0.523456     0.005528
    0.653765     0.674550     0.519881     0.006867
    0.302412     0.363487     0.520893     0.005628
    0.485328     0.703502     0.341134     0.004151
    0.708578     0.397383     0.497546     0.008630
    0.393407     0.349050     0.472342     0.010268
    0.679394     0.478999     0.487370     0.008104
    0.428669     0.673415     0.526365     0.007326
    0.349330     0.603588     0.510255     0.011698
    0.660573     0.585905     0.511298     0.011043
    0.490577     0.313180     0.472422     0.010226
    0.462253     0.462420     0.485620     0.022319
    0.550492     0.485038     0.489192     0.020805
    0.487574     0.553942     0.501025     0.021275
    0.451767     0.521725     0.494520     0.021255
    0.541760     0.533635     0.498650     0.021645
    0.506618     0.446240     0.484769     0.023586
    0.338207     0.504601     0.487624     0.012746
    0.576960     0.351775     0.476516     0.012850
    0.584930     0.644692     0.525681     0.015430
    0.350207     0.435876     0.476871     0.012462
    0.522817     0.669704     0.515208     0.010682
    0.628034     0.396721     0.471904     0.010093
    0.467044     0.405950     0.546879     0.015226
    0.599763     0.528524     0.564298     0.010442
    0.434759     0.589983     0.573981     0.011336
    0.500147     0.501817     0.504585     0.048877
EA160  23.149 23.132 13.889 90.00 90.00 90.00 Sym.group:    0
1.0000
   23.149279     0.000000     0.000000
    0.000000    23.132190     0.000000
    0.000000     0.000000    13.888739
   O  Cu
   4   24 
Direct
    0.493683     0.735949     0.523414     0.006570
    0.707738     0.387776     0.523307     0.007178
    0.299013     0.376618     0.523448     0.006499
    0.670995     0.663086     0.523229     0.007323
    0.273141     0.565745     0.523564     0.006571
    0.556172     0.270343     0.523535     0.006889
    0.665463     0.574712     0.494518     0.011169
    0.481787     0.318964     0.492462     0.009215
    0.352307     0.606279     0.491970     0.009233
    0.434842     0.669669     0.493948     0.011248
    0.385692     0.358873     0.494770     0.010887
    0.679227     0.471501     0.495207     0.010904
    0.543636     0.529740     0.472685     0.022191
    0.503921     0.447337     0.472464     0.022152
    0.452473     0.522979     0.472591     0.022128
    0.490088     0.551893     0.472698     0.022120
    0.460097     0.465497     0.472843     0.022113
    0.549855     0.482682     0.472677     0.022177
    0.529378     0.660750     0.482870     0.012806
    0.624361     0.393872     0.480597     0.013142
    0.346114     0.445266     0.482806     0.012397
    0.592055     0.635086     0.479659     0.013805
    0.337355     0.512466     0.481696     0.010494
    0.570538     0.352744     0.480747     0.010505
    0.605885     0.514048     0.562376     0.013810
    0.459030     0.401483     0.562068     0.012894
    0.435145     0.584616     0.561854     0.012972
    0.500010     0.500024     0.485995     0.066747
EA161  20.035 20.318 17.912 90.00 90.00 90.00 Sym.group:    0
1.0000
   20.034644     0.000000     0.000000
    0.000000    20.318286     0.000000
    0.000000     0.000000    17.911842
   O  Cu
   4   24 
Direct
    0.488497     0.475199     0.356264     0.013886
    0.357056     0.524908     0.617584     0.016673
    0.341619     0.566055     0.406865     0.012492
    0.433608     0.603241     0.575570     0.024778
    0.614396     0.410738     0.616517     0.006607
    0.747888     0.495366     0.508046     0.007512
    0.596696     0.601240     0.543492     0.010301
    0.630318     0.564287     0.404871     0.010374
    0.643191     0.403192     0.434984     0.009373
    0.513855     0.318812     0.555071     0.007889
    0.583094     0.340548     0.512091     0.008826
    0.658130     0.473810     0.400327     0.009005
    0.576940     0.618001     0.425887     0.011449
    0.673864     0.572547     0.517360     0.009719
    0.728356     0.425699     0.542851     0.007471
    0.520321     0.463254     0.650470     0.008692
    0.491984     0.469226     0.421320     0.030348
    0.370214     0.540721     0.562871     0.037318
    0.355180     0.534590     0.461892     0.025262
    0.315467     0.416932     0.401806     0.016386
    0.485636     0.667058     0.453108     0.012745
    0.317508     0.402339     0.561693     0.008887
    0.451231     0.637296     0.602677     0.049904
    0.495810     0.605278     0.548901     0.027722
    0.368127     0.395847     0.455445     0.015792
    0.449457     0.614547     0.486702     0.022023
    0.315496     0.383614     0.475196     0.016232
    0.476061     0.475656     0.500138     0.015294
EA162  21.025 18.768 20.236 90.00 90.00 90.00 Sym.group:    0
1.0000
   21.025113     0.000000     0.000000
    0.000000    18.768336     0.000000
    0.000000     0.000000    20.235611
   O  Cu
   4   24 
Direct
    0.430323     0.428688     0.489238     0.021539
    0.444431     0.553601     0.486223     0.032634
    0.729623     0.442603     0.510193     0.007659
    0.518530     0.226950     0.515959     0.007235
    0.397655     0.623102     0.514809     0.018552
    0.370230     0.380291     0.520670     0.016584
    0.425786     0.529258     0.524984     0.045105
    0.472665     0.567030     0.525750     0.036331
    0.417986     0.460191     0.526651     0.044316
    0.318695     0.512700     0.448402     0.011001
    0.515613     0.671368     0.451621     0.009663
    0.319250     0.514485     0.554934     0.010892
    0.517602     0.674309     0.558176     0.008561
    0.342953     0.358273     0.461155     0.011920
    0.376145     0.652135     0.454062     0.012577
    0.694342     0.650830     0.507603     0.009835
    0.574991     0.307695     0.490098     0.011703
    0.606818     0.661565     0.484554     0.011450
    0.653233     0.387626     0.487961     0.013340
    0.514119     0.434003     0.486186     0.022236
    0.538979     0.534256     0.484418     0.018474
    0.549791     0.470447     0.485212     0.022651
    0.663413     0.494271     0.483705     0.016698
    0.480922     0.307837     0.488689     0.015937
    0.650800     0.568716     0.482779     0.017861
    0.566511     0.407811     0.537793     0.015899
    0.288550     0.598379     0.513418     0.008177
    0.620045     0.581580     0.524753     0.018657
EA163  19.120 19.589 14.712 90.00 90.00 90.00 Sym.group:    0
1.0000
   19.120367     0.000000     0.000000
    0.000000    19.589096     0.000000
    0.000000     0.000000    14.712267
   O  Cu
   4   24 
Direct
    0.497487     0.568227     0.500000     0.032477
    0.540931     0.524749     0.500000     0.049635
    0.540929     0.475243     0.500000     0.049637
    0.497479     0.431774     0.500000     0.032480
    0.342768     0.500009     0.500000     0.021175
    0.321415     0.590348     0.553764     0.010649
    0.528364     0.672022     0.553805     0.013609
    0.660509     0.542506     0.553813     0.015033
    0.606859     0.367406     0.553816     0.015421
    0.409426     0.366653     0.553797     0.012984
    0.409441     0.633357     0.446203     0.012984
    0.321404     0.409672     0.446236     0.010649
    0.528343     0.327974     0.446195     0.013610
    0.660503     0.457479     0.446187     0.015034
    0.606874     0.632580     0.446184     0.015420
    0.321415     0.590348     0.446236     0.010649
    0.528364     0.672022     0.446195     0.013609
    0.660509     0.542506     0.446187     0.015033
    0.606859     0.367406     0.446184     0.015421
    0.409426     0.366653     0.446203     0.012984
    0.409441     0.633357     0.553797     0.012984
    0.321404     0.409672     0.553764     0.010649
    0.528343     0.327974     0.553805     0.013610
    0.660503     0.457479     0.553813     0.015034
    0.606874     0.632580     0.553816     0.015420
    0.490932     0.500001     0.570426     0.046628
    0.490932     0.500001     0.429574     0.046628
    0.492268     0.500001     0.500000     0.079577
EA164  22.420 23.500 13.780 90.00 90.00 90.00 Sym.group:    0
1.0000
   22.419918     0.000000     0.000000
    0.000000    23.499742     0.000000
    0.000000     0.000000    13.780188
   O  Cu
   4   24 
Direct
    0.463159     0.269601     0.523156     0.005954
    0.727563     0.584760     0.523156     0.005829
    0.309279     0.645639     0.523156     0.005774
    0.652150     0.317659     0.523156     0.005951
    0.258408     0.465460     0.523156     0.005959
    0.589443     0.716882     0.523156     0.005959
    0.659427     0.405937     0.484905     0.010221
    0.505671     0.678754     0.484905     0.008151
    0.334902     0.415309     0.484905     0.008168
    0.410794     0.342713     0.484905     0.010098
    0.401828     0.652348     0.484905     0.010043
    0.687378     0.504939     0.484905     0.010182
    0.540700     0.465335     0.480388     0.022345
    0.511117     0.550960     0.480388     0.022305
    0.448184     0.483705     0.480388     0.022311
    0.482784     0.450607     0.480388     0.022346
    0.463772     0.538920     0.480388     0.022334
    0.553443     0.510472     0.480388     0.022353
    0.508686     0.339390     0.480793     0.013272
    0.641449     0.587482     0.480793     0.012883
    0.349865     0.573129     0.480793     0.012860
    0.576254     0.356571     0.480793     0.013292
    0.331677     0.508711     0.480793     0.010468
    0.592069     0.634719     0.480793     0.010472
    0.602634     0.473624     0.563129     0.014692
    0.472625     0.597988     0.563129     0.014048
    0.424740     0.428389     0.563129     0.014115
    0.500000     0.500000     0.495158     0.066565
EA165  18.637 18.584 19.135 90.00 90.00 90.00 Sym.group:    0
1.0000
   18.637057     0.000000     0.000000
    0.000000    18.583771     0.000000
    0.000000     0.000000    19.134692
   O  Cu
   4   24 
Direct
    0.347188     0.414519     0.482272     0.020327
    0.640601     0.497201     0.449688     0.025908
    0.588646     0.591483     0.507860     0.021901
    0.396745     0.545175     0.532678     0.020593
    0.527361     0.350627     0.482827     0.024275
    0.484431     0.360841     0.567463     0.022963
    0.639188     0.464920     0.539432     0.030069
    0.647545     0.513399     0.530232     0.030517
    0.534305     0.366825     0.563371     0.023580
    0.324721     0.459299     0.475601     0.044070
    0.477487     0.344643     0.486918     0.023409
    0.632244     0.448722     0.458887     0.049019
    0.515983     0.289067     0.536490     0.026698
    0.278047     0.416669     0.528005     0.019293
    0.707507     0.468199     0.492775     0.024193
    0.471041     0.484525     0.366961     0.010638
    0.552673     0.668598     0.520276     0.017702
    0.398278     0.631341     0.540243     0.018133
    0.644275     0.575641     0.506165     0.039803
    0.354459     0.505705     0.543645     0.034556
    0.355989     0.544994     0.441777     0.018519
    0.425937     0.566321     0.399285     0.013562
    0.528173     0.590992     0.386063     0.012258
    0.516286     0.657690     0.599144     0.013221
    0.450073     0.641712     0.607707     0.013481
    0.414592     0.584932     0.483777     0.030659
    0.546821     0.616841     0.466676     0.026565
    0.599404     0.399121     0.503782     0.017470
EA166  19.221 17.914 18.024 90.00 90.00 90.00 Sym.group:    0
1.0000
   19.221384     0.000000     0.000000
    0.000000    17.913563     0.000000
    0.000000     0.000000    18.024131
   O  Cu
   4   24 
Direct
    0.400920     0.500000     0.500000     0.020988
    0.599080     0.500000     0.500000     0.019352
    0.328800     0.582894     0.440306     0.012811
    0.328800     0.582739     0.559906     0.012811
    0.328800     0.468242     0.596718     0.012898
    0.328800     0.397633     0.499868     0.013511
    0.328800     0.468493     0.403200     0.012898
    0.671200     0.582894     0.440306     0.012380
    0.671200     0.582739     0.559906     0.012380
    0.671200     0.468242     0.596718     0.012365
    0.671200     0.397633     0.499868     0.012392
    0.671200     0.468493     0.403200     0.012364
    0.500000     0.608384     0.613185     0.018916
    0.500000     0.425183     0.637423     0.018501
    0.500000     0.345377     0.471747     0.018470
    0.500000     0.479254     0.345116     0.018532
    0.500000     0.641802     0.432529     0.018935
    0.428658     0.613481     0.609537     0.013696
    0.428658     0.430249     0.641113     0.011528
    0.428658     0.343411     0.477677     0.011352
    0.428658     0.472974     0.345091     0.011743
    0.428658     0.639886     0.426584     0.013903
    0.571342     0.613481     0.609537     0.011251
    0.571342     0.430249     0.641113     0.011223
    0.571342     0.343411     0.477677     0.011243
    0.571342     0.472974     0.345091     0.011245
    0.571342     0.639886     0.426584     0.011269
    0.500000     0.500000     0.500000     0.028692
EA167  19.437 19.365 17.549 90.00 90.00 90.00 Sym.group:    0
1.0000
   19.437341     0.000000     0.000000
    0.000000    19.365114     0.000000
    0.000000     0.000000    17.548834
   O  Cu
   4   24 
Direct
    0.500000     0.500000     0.360138     0.018273
    0.500000     0.500000     0.639862     0.019118
    0.553515     0.669117     0.438307     0.010072
    0.380842     0.631077     0.438307     0.010073
    0.327327     0.461960     0.438307     0.010105
    0.446485     0.330883     0.438307     0.010053
    0.619158     0.368923     0.438307     0.010054
    0.672673     0.538040     0.438307     0.010105
    0.671372     0.456433     0.561693     0.010099
    0.548096     0.329251     0.561693     0.010055
    0.376724     0.372818     0.561693     0.010080
    0.328628     0.543567     0.561693     0.010916
    0.451904     0.670749     0.561693     0.012054
    0.623276     0.627182     0.561693     0.011349
    0.553515     0.669117     0.561693     0.011994
    0.380842     0.631077     0.561693     0.011994
    0.327327     0.461960     0.561693     0.010132
    0.446485     0.330883     0.561693     0.010042
    0.619158     0.368923     0.561693     0.010042
    0.672673     0.538040     0.561693     0.010132
    0.671372     0.456433     0.438307     0.010131
    0.548096     0.329251     0.438307     0.010075
    0.376724     0.372818     0.438307     0.010205
    0.328628     0.543567     0.438307     0.013620
    0.451904     0.670749     0.438307     0.019125
    0.623276     0.627182     0.438307     0.016900
    0.500000     0.500000     0.571583     0.028174
    0.500000     0.500000     0.428417     0.027936
EA168  24.838 19.702 14.862 90.00 90.00 90.00 Sym.group:    0
1.0000
   24.837772     0.000000     0.000000
    0.000000    19.702004     0.000000
    0.000000     0.000000    14.861947
   O  Cu
   4   24 
Direct
    0.256621     0.548935     0.507016     0.037677
    0.743379     0.451065     0.492984     0.037677
    0.745546     0.498047     0.473169     0.037759
    0.254454     0.501953     0.526831     0.037759
    0.609430     0.621585     0.477410     0.016168
    0.390570     0.378415     0.522590     0.016168
    0.589058     0.424538     0.522637     0.018945
    0.410942     0.575462     0.477363     0.018945
    0.420301     0.488340     0.425247     0.021469
    0.579699     0.511660     0.574753     0.021469
    0.562845     0.363738     0.508308     0.013379
    0.437155     0.636262     0.491692     0.013379
    0.625255     0.354241     0.465862     0.015625
    0.374745     0.645759     0.534138     0.015625
    0.380503     0.615829     0.475889     0.027640
    0.619497     0.384171     0.524111     0.027640
    0.322793     0.551129     0.503084     0.019837
    0.677207     0.448871     0.496916     0.019837
    0.357205     0.343795     0.463257     0.014622
    0.642795     0.656205     0.536743     0.014622
    0.523490     0.638803     0.504456     0.009316
    0.476510     0.361197     0.495544     0.009316
    0.543492     0.518455     0.563647     0.021437
    0.456508     0.481545     0.436353     0.021437
    0.306737     0.465258     0.501026     0.018770
    0.693263     0.534742     0.498974     0.018770
    0.379765     0.321061     0.530839     0.018467
    0.620235     0.678939     0.469161     0.018467
EA169  20.250 20.573 14.712 90.00 90.00 90.00 Sym.group:    0
1.0000
   20.250490     0.000000     0.000000
    0.000000    20.572781     0.000000
    0.000000     0.000000    14.712377
   O  Cu
   4   24 
Direct
    0.618679     0.578627     0.500000     0.020996
    0.612642     0.413195     0.500000     0.021732
    0.450938     0.367725     0.500000     0.021732
    0.357035     0.505055     0.500000     0.020996
    0.460706     0.635399     0.500000     0.021814
    0.527305     0.692027     0.553785     0.011663
    0.693972     0.533777     0.553785     0.015056
    0.592577     0.328849     0.553785     0.015103
    0.363243     0.360445     0.553785     0.015079
    0.322903     0.584902     0.553785     0.014588
    0.604813     0.664172     0.446215     0.014588
    0.373767     0.648853     0.446215     0.011664
    0.317171     0.427824     0.446215     0.015056
    0.513238     0.306539     0.446215     0.015103
    0.691011     0.452611     0.446215     0.015080
    0.527305     0.692027     0.446215     0.011663
    0.693972     0.533777     0.446215     0.015056
    0.592577     0.328849     0.446215     0.015103
    0.363243     0.360445     0.446215     0.015079
    0.322903     0.584902     0.446215     0.014588
    0.604813     0.664172     0.553785     0.014588
    0.373767     0.648853     0.553785     0.011664
    0.317171     0.427824     0.553785     0.015056
    0.513238     0.306539     0.553785     0.015103
    0.691011     0.452611     0.553785     0.015080
    0.500000     0.500000     0.570430     0.024392
    0.500000     0.500000     0.429570     0.024392
    0.500000     0.500000     0.500000     0.035041
