EA54   21.025 18.768 20.236 90.00 90.00 90.00 Sym.group:    0
1.0000
   21.025113     0.000000     0.000000
    0.000000    18.768336     0.000000
    0.000000     0.000000    20.235611
   O  Cu
   4   24 
Direct
    0.430323     0.428688     0.489238
    0.444431     0.553601     0.486223
    0.729623     0.442603     0.510193
    0.518530     0.226950     0.515959
    0.397655     0.623102     0.514809
    0.370230     0.380291     0.520670
    0.425786     0.529258     0.524984
    0.472665     0.567030     0.525750
    0.417986     0.460191     0.526651
    0.318695     0.512700     0.448402
    0.515613     0.671368     0.451621
    0.319250     0.514485     0.554934
    0.517602     0.674309     0.558176
    0.342953     0.358273     0.461155
    0.376145     0.652135     0.454062
    0.694342     0.650830     0.507603
    0.574991     0.307695     0.490098
    0.606818     0.661565     0.484554
    0.653233     0.387626     0.487961
    0.514119     0.434003     0.486186
    0.538979     0.534256     0.484418
    0.549791     0.470447     0.485212
    0.663413     0.494271     0.483705
    0.480922     0.307837     0.488689
    0.650800     0.568716     0.482779
    0.566511     0.407811     0.537793
    0.288550     0.598379     0.513418
    0.620045     0.581580     0.524753
EA113  17.547 21.534 20.655 90.00 90.00 90.00 Sym.group:    0
1.0000
   17.546780     0.000000     0.000000
    0.000000    21.533667     0.000000
    0.000000     0.000000    20.655202
   O  Cu
   4   24 
Direct
    0.192290     0.446963     0.523255
    0.656785     0.326825     0.517819
    0.548676     0.633709     0.421458
    0.690176     0.461412     0.431269
    0.344961     0.673052     0.528760
    0.702983     0.629558     0.537485
    0.560574     0.685635     0.506299
    0.756553     0.452185     0.519675
    0.545109     0.559621     0.481468
    0.612200     0.590321     0.546839
    0.432560     0.705126     0.510405
    0.759651     0.552059     0.523025
    0.325878     0.574597     0.496480
    0.590190     0.512971     0.535030
    0.286360     0.620870     0.498363
    0.429950     0.265663     0.525755
    0.371498     0.334356     0.505760
    0.283769     0.402259     0.498178
    0.671793     0.417872     0.485100
    0.443621     0.538921     0.485045
    0.549755     0.516694     0.483124
    0.462347     0.450036     0.490702
    0.422380     0.481074     0.488105
    0.532347     0.469447     0.486592
    0.284259     0.497667     0.485367
    0.569997     0.361118     0.492916
    0.488433     0.337881     0.500015
    0.484902     0.502109     0.495710
EA124  20.055 19.083 20.452 90.00 90.00 90.00 Sym.group:    0
1.0000
   20.055052     0.000000     0.000000
    0.000000    19.083224     0.000000
    0.000000     0.000000    20.451807
   O  Cu
   4   24 
Direct
    0.453487     0.461249     0.509092
    0.623889     0.331644     0.517295
    0.342391     0.342590     0.505219
    0.553559     0.500679     0.515703
    0.390696     0.633958     0.500441
    0.438952     0.723257     0.543606
    0.338763     0.480033     0.541659
    0.311254     0.577573     0.454185
    0.402281     0.354064     0.466082
    0.444080     0.719246     0.460922
    0.488592     0.324491     0.473225
    0.343895     0.476019     0.458925
    0.306126     0.581585     0.536869
    0.397149     0.358079     0.548828
    0.502221     0.517167     0.457008
    0.522626     0.599153     0.514780
    0.622961     0.634737     0.449872
    0.618515     0.637970     0.549400
    0.729877     0.493710     0.514630
    0.677629     0.563327     0.486995
    0.538195     0.350118     0.490502
    0.551028     0.528722     0.480627
    0.518550     0.479059     0.481444
    0.612253     0.412658     0.488426
    0.650147     0.470599     0.487473
    0.487172     0.427232     0.530984
    0.633873     0.502316     0.524551
    0.499838     0.518765     0.511259
EA66   19.088 19.170 20.456 90.00 90.00 90.00 Sym.group:    0
1.0000
   19.087558     0.000000     0.000000
    0.000000    19.170117     0.000000
    0.000000     0.000000    20.455920
   O  Cu
   4   24 
Direct
    0.397517     0.589349     0.442243
    0.356933     0.390639     0.442171
    0.594218     0.556629     0.443967
    0.771125     0.464580     0.525043
    0.551810     0.672261     0.551374
    0.279733     0.544624     0.549228
    0.369880     0.633308     0.524893
    0.311435     0.363047     0.524767
    0.284880     0.490351     0.417851
    0.500494     0.665841     0.419448
    0.429801     0.432721     0.497281
    0.435314     0.517535     0.497210
    0.370906     0.528631     0.559117
    0.465843     0.682471     0.532708
    0.266188     0.457529     0.531315
    0.607968     0.583903     0.517598
    0.583276     0.401406     0.486840
    0.571486     0.482797     0.452486
    0.551615     0.345749     0.493413
    0.627582     0.334777     0.526350
    0.619392     0.361918     0.486973
    0.690028     0.420656     0.510914
    0.645987     0.616934     0.478201
    0.445603     0.348217     0.511879
    0.421428     0.460457     0.545723
    0.709480     0.500763     0.511096
    0.620332     0.637487     0.521978
    0.519746     0.515420     0.497934
EA138  17.219 22.338 21.415 90.00 90.00 90.00 Sym.group:    0
1.0000
   17.219178     0.000000     0.000000
    0.000000    22.338115     0.000000
    0.000000     0.000000    21.415336
   O  Cu
   4   24 
Direct
    0.676875     0.330015     0.515256
    0.698413     0.660205     0.504179
    0.768886     0.373427     0.522761
    0.186594     0.468390     0.506848
    0.796516     0.492899     0.513704
    0.306284     0.314447     0.511335
    0.422727     0.333310     0.479795
    0.721189     0.554356     0.492975
    0.558879     0.339146     0.484567
    0.459810     0.457655     0.481225
    0.559564     0.510362     0.484017
    0.521852     0.460195     0.482789
    0.649149     0.405422     0.487402
    0.694032     0.463772     0.491213
    0.332838     0.392843     0.479162
    0.494106     0.409040     0.535765
    0.491212     0.505085     0.491579
    0.308892     0.473841     0.528490
    0.411394     0.508308     0.534035
    0.340260     0.596577     0.463106
    0.336628     0.601019     0.560913
    0.268154     0.469865     0.473931
    0.475019     0.736652     0.503633
    0.408289     0.668454     0.487798
    0.486837     0.546724     0.492033
    0.606173     0.630687     0.483812
    0.526306     0.658019     0.483616
    0.493120     0.639286     0.524060
EA145  23.616 19.210 15.028 90.00 90.00 90.00 Sym.group:    0
1.0000
   23.616240     0.000000     0.000000
    0.000000    19.210474     0.000000
    0.000000     0.000000    15.027557
   O  Cu
   4   24 
Direct
    0.549420     0.435801     0.484077
    0.284617     0.546450     0.505211
    0.285508     0.498158     0.522907
    0.749344     0.506332     0.449178
    0.574979     0.363303     0.525152
    0.524066     0.426494     0.536694
    0.597726     0.511345     0.542609
    0.472103     0.448469     0.536848
    0.574043     0.451463     0.539163
    0.665047     0.450617     0.436909
    0.456652     0.345740     0.428781
    0.460524     0.337147     0.575710
    0.673028     0.442545     0.583734
    0.361886     0.430788     0.441611
    0.582568     0.337813     0.442184
    0.614046     0.622057     0.472847
    0.429958     0.575858     0.477245
    0.444462     0.492640     0.425336
    0.451226     0.635289     0.488800
    0.389874     0.640668     0.531855
    0.399463     0.615575     0.479146
    0.346693     0.548766     0.507329
    0.643577     0.657714     0.524259
    0.532894     0.636140     0.518699
    0.558656     0.518625     0.544697
    0.336524     0.463838     0.503392
    0.620835     0.679169     0.472389
    0.420280     0.381196     0.503238
EA67   19.900 19.083 20.622 90.00 90.00 90.00 Sym.group:    0
1.0000
   19.900273     0.000000     0.000000
    0.000000    19.082996     0.000000
    0.000000     0.000000    20.621840
   O  Cu
   4   24 
Direct
    0.558329     0.565313     0.488102
    0.244484     0.453016     0.506958
    0.245626     0.501219     0.518348
    0.797422     0.494437     0.463437
    0.588524     0.638134     0.517819
    0.527955     0.574386     0.526168
    0.615276     0.488968     0.532079
    0.466222     0.552046     0.526034
    0.587202     0.549313     0.528571
    0.697427     0.550088     0.457294
    0.448554     0.655409     0.447201
    0.452806     0.664019     0.554289
    0.703492     0.557931     0.564456
    0.335632     0.569544     0.456599
    0.598293     0.664595     0.457171
    0.637976     0.376151     0.480446
    0.416293     0.423651     0.482351
    0.433521     0.507400     0.444643
    0.441710     0.363645     0.491321
    0.369815     0.357300     0.524678
    0.380147     0.383553     0.485443
    0.318122     0.450240     0.506038
    0.670064     0.341524     0.519224
    0.539690     0.362317     0.506874
    0.568921     0.481735     0.532064
    0.305521     0.535906     0.501844
    0.645902     0.318654     0.479208
    0.405072     0.619505     0.501339
EA101  19.120 19.589 14.712 90.00 90.00 90.00 Sym.group:    0
1.0000
   19.120367     0.000000     0.000000
    0.000000    19.589096     0.000000
    0.000000     0.000000    14.712267
   O  Cu
   4   24 
Direct
    0.497487     0.568227     0.500000
    0.540931     0.524749     0.500000
    0.540929     0.475243     0.500000
    0.497479     0.431774     0.500000
    0.342768     0.500009     0.500000
    0.321415     0.590348     0.553764
    0.528364     0.672022     0.553805
    0.660509     0.542506     0.553813
    0.606859     0.367406     0.553816
    0.409426     0.366653     0.553797
    0.409441     0.633357     0.446203
    0.321404     0.409672     0.446236
    0.528343     0.327974     0.446195
    0.660503     0.457479     0.446187
    0.606874     0.632580     0.446184
    0.321415     0.590348     0.446236
    0.528364     0.672022     0.446195
    0.660509     0.542506     0.446187
    0.606859     0.367406     0.446184
    0.409426     0.366653     0.446203
    0.409441     0.633357     0.553797
    0.321404     0.409672     0.553764
    0.528343     0.327974     0.553805
    0.660503     0.457479     0.553813
    0.606874     0.632580     0.553816
    0.490932     0.500001     0.570426
    0.490932     0.500001     0.429574
    0.492268     0.500001     0.500000
EA160  23.149 23.132 13.889 90.00 90.00 90.00 Sym.group:    0
1.0000
   23.149279     0.000000     0.000000
    0.000000    23.132190     0.000000
    0.000000     0.000000    13.888739
   O  Cu
   4   24 
Direct
    0.493683     0.735949     0.523414
    0.707738     0.387776     0.523307
    0.299013     0.376618     0.523448
    0.670995     0.663086     0.523229
    0.273141     0.565745     0.523564
    0.556172     0.270343     0.523535
    0.665463     0.574712     0.494518
    0.481787     0.318964     0.492462
    0.352307     0.606279     0.491970
    0.434842     0.669669     0.493948
    0.385692     0.358873     0.494770
    0.679227     0.471501     0.495207
    0.543636     0.529740     0.472685
    0.503921     0.447337     0.472464
    0.452473     0.522979     0.472591
    0.490088     0.551893     0.472698
    0.460097     0.465497     0.472843
    0.549855     0.482682     0.472677
    0.529378     0.660750     0.482870
    0.624361     0.393872     0.480597
    0.346114     0.445266     0.482806
    0.592055     0.635086     0.479659
    0.337355     0.512466     0.481696
    0.570538     0.352744     0.480747
    0.605885     0.514048     0.562376
    0.459030     0.401483     0.562068
    0.435145     0.584616     0.561854
    0.500010     0.500024     0.485995
EA127  20.056 18.959 18.524 90.00 90.00 90.00 Sym.group:    0
1.0000
   20.055925     0.000000     0.000000
    0.000000    18.959017     0.000000
    0.000000     0.000000    18.523628
   O  Cu
   4   24 
Direct
    0.603481     0.414550     0.566599
    0.457776     0.526979     0.487577
    0.500608     0.574229     0.495062
    0.274645     0.524824     0.505115
    0.478279     0.334861     0.441386
    0.709215     0.477547     0.456443
    0.633898     0.381549     0.471310
    0.516399     0.330040     0.581915
    0.569391     0.489449     0.519433
    0.629220     0.489006     0.450306
    0.553002     0.327876     0.457857
    0.715659     0.562801     0.488128
    0.423004     0.415469     0.491745
    0.389605     0.376167     0.529740
    0.580901     0.552138     0.475812
    0.415197     0.362057     0.479425
    0.380292     0.641626     0.450686
    0.587281     0.652371     0.463951
    0.685428     0.599831     0.552967
    0.463291     0.674060     0.547817
    0.332841     0.533155     0.525343
    0.338177     0.445024     0.516371
    0.383435     0.629224     0.538427
    0.590423     0.639973     0.551662
    0.460149     0.686459     0.460093
    0.329698     0.545557     0.437606
    0.513817     0.495727     0.545710
    0.484888     0.317451     0.511514
EA11   22.420 23.500 13.780 90.00 90.00 90.00 Sym.group:    0
1.0000
   22.419918     0.000000     0.000000
    0.000000    23.499742     0.000000
    0.000000     0.000000    13.780188
   O  Cu
   4   24 
Direct
    0.463159     0.269601     0.523156
    0.727563     0.584760     0.523156
    0.309279     0.645639     0.523156
    0.652150     0.317659     0.523156
    0.258408     0.465460     0.523156
    0.589443     0.716882     0.523156
    0.659427     0.405937     0.484905
    0.505671     0.678754     0.484905
    0.334902     0.415309     0.484905
    0.410794     0.342713     0.484905
    0.401828     0.652348     0.484905
    0.687378     0.504939     0.484905
    0.540700     0.465335     0.480388
    0.511117     0.550960     0.480388
    0.448184     0.483705     0.480388
    0.482784     0.450607     0.480388
    0.463772     0.538920     0.480388
    0.553443     0.510472     0.480388
    0.508686     0.339390     0.480793
    0.641449     0.587482     0.480793
    0.349865     0.573129     0.480793
    0.576254     0.356571     0.480793
    0.331677     0.508711     0.480793
    0.592069     0.634719     0.480793
    0.602634     0.473624     0.563129
    0.472625     0.597988     0.563129
    0.424740     0.428389     0.563129
    0.500000     0.500000     0.495158
EA97   23.077 23.201 13.943 90.00 90.00 90.00 Sym.group:    0
1.0000
   23.076807     0.000000     0.000000
    0.000000    23.200529     0.000000
    0.000000     0.000000    13.942856
   O  Cu
   4   24 
Direct
    0.735031     0.542389     0.522081
    0.346372     0.678014     0.523693
    0.422158     0.277040     0.522885
    0.625907     0.700846     0.522574
    0.609877     0.293079     0.521522
    0.261457     0.510537     0.524555
    0.539259     0.676890     0.486375
    0.325859     0.445296     0.475377
    0.633908     0.377984     0.493474
    0.679922     0.471211     0.483439
    0.384807     0.359575     0.479742
    0.435151     0.669039     0.492049
    0.520417     0.548700     0.479863
    0.447411     0.493038     0.479393
    0.532266     0.458282     0.482579
    0.553186     0.500816     0.479344
    0.474205     0.453908     0.480468
    0.472950     0.545091     0.482027
    0.651875     0.561805     0.470897
    0.370503     0.599591     0.488687
    0.477545     0.338884     0.483483
    0.613588     0.617625     0.476028
    0.545344     0.343299     0.489476
    0.341272     0.538595     0.477615
    0.491000     0.603083     0.564333
    0.416121     0.442383     0.559091
    0.592534     0.453056     0.563741
    0.500078     0.499945     0.495210
EA123  20.471 17.594 19.172 90.00 90.00 90.00 Sym.group:    0
1.0000
   20.470503     0.000000     0.000000
    0.000000    17.594123     0.000000
    0.000000     0.000000    19.171843
   O  Cu
   4   24 
Direct
    0.274381     0.520167     0.487894
    0.276374     0.471143     0.478457
    0.653531     0.545863     0.591071
    0.441881     0.627503     0.585170
    0.584096     0.330812     0.467642
    0.529376     0.395987     0.458506
    0.474003     0.418896     0.460829
    0.457783     0.312934     0.551640
    0.356088     0.400778     0.543054
    0.426555     0.549476     0.502797
    0.442188     0.463770     0.546756
    0.448579     0.610640     0.488401
    0.385204     0.617561     0.456552
    0.393823     0.590448     0.499240
    0.339983     0.522815     0.484594
    0.329874     0.435514     0.494654
    0.419833     0.350087     0.494391
    0.641647     0.536639     0.405912
    0.650468     0.557076     0.541836
    0.649254     0.526524     0.455302
    0.547786     0.709775     0.434950
    0.655322     0.377594     0.435109
    0.611421     0.698053     0.560908
    0.617601     0.341429     0.557620
    0.549422     0.667511     0.526362
    0.625477     0.411271     0.526267
    0.581743     0.650021     0.467726
    0.636306     0.359712     0.496361
EA121  20.475 21.936 17.687 90.00 90.00 90.00 Sym.group:    0
1.0000
   20.475310     0.000000     0.000000
    0.000000    21.935594     0.000000
    0.000000     0.000000    17.687030
   O  Cu
   4   24 
Direct
    0.207035     0.525665     0.496250
    0.204894     0.480751     0.471791
    0.586086     0.424486     0.489135
    0.566707     0.531691     0.481690
    0.619670     0.602461     0.515336
    0.387296     0.552833     0.519013
    0.403821     0.478139     0.561150
    0.414436     0.607438     0.507120
    0.340487     0.611411     0.472725
    0.349105     0.587308     0.520835
    0.285188     0.526220     0.498653
    0.655332     0.633780     0.465925
    0.516793     0.612836     0.490020
    0.546862     0.506128     0.444467
    0.266711     0.449835     0.486214
    0.628817     0.653947     0.520834
    0.651196     0.386808     0.525806
    0.587051     0.512435     0.526979
    0.597765     0.453159     0.531096
    0.701464     0.503295     0.436393
    0.700110     0.506666     0.559710
    0.681239     0.368375     0.457012
    0.437333     0.310956     0.497615
    0.497249     0.423924     0.487353
    0.458206     0.453276     0.485799
    0.536873     0.316789     0.493808
    0.442409     0.398960     0.549220
    0.729865     0.580427     0.508051
EA126  20.103 19.178 21.817 90.00 90.00 90.00 Sym.group:    0
1.0000
   20.102663     0.000000     0.000000
    0.000000    19.177577     0.000000
    0.000000     0.000000    21.816741
   O  Cu
   4   24 
Direct
    0.718775     0.625666     0.473439
    0.325651     0.712306     0.516624
    0.723490     0.560795     0.488485
    0.472416     0.247177     0.525689
    0.738187     0.424559     0.491179
    0.509933     0.694708     0.505547
    0.644648     0.385385     0.525842
    0.546140     0.319637     0.538633
    0.619109     0.649955     0.502503
    0.478017     0.558941     0.523445
    0.533741     0.476908     0.527493
    0.488829     0.446933     0.533325
    0.527793     0.538536     0.522057
    0.660407     0.557104     0.511195
    0.667348     0.485204     0.517537
    0.527763     0.597968     0.462967
    0.546036     0.408671     0.479665
    0.479489     0.501643     0.519225
    0.244049     0.498574     0.526568
    0.307268     0.421159     0.501170
    0.414621     0.702340     0.488088
    0.429733     0.485015     0.488046
    0.454739     0.550511     0.484999
    0.349548     0.613605     0.492277
    0.320374     0.537190     0.495832
    0.471451     0.262624     0.464792
    0.368645     0.353025     0.507979
    0.431800     0.383861     0.385399
EA136  19.659 20.969 20.681 90.00 90.00 90.00 Sym.group:    0
1.0000
   19.658998     0.000000     0.000000
    0.000000    20.968707     0.000000
    0.000000     0.000000    20.680524
   O  Cu
   4   24 
Direct
    0.766055     0.567731     0.473149
    0.536073     0.742837     0.480287
    0.477265     0.393445     0.555013
    0.323277     0.548019     0.557108
    0.714381     0.380442     0.486426
    0.595498     0.674596     0.505409
    0.680741     0.609692     0.502763
    0.518867     0.557868     0.519850
    0.557730     0.528277     0.518643
    0.686527     0.515820     0.509963
    0.487707     0.667201     0.516135
    0.668054     0.448860     0.514710
    0.582079     0.587153     0.458131
    0.533440     0.410862     0.470629
    0.346105     0.366014     0.450356
    0.475294     0.335933     0.473532
    0.263218     0.544469     0.476398
    0.327173     0.423343     0.579565
    0.609358     0.380783     0.576860
    0.404039     0.546125     0.502967
    0.460161     0.473977     0.502129
    0.409824     0.427351     0.441179
    0.283415     0.436884     0.468793
    0.364356     0.628414     0.489657
    0.410452     0.514765     0.455216
    0.582731     0.342237     0.465690
    0.612761     0.363300     0.520230
    0.323419     0.583602     0.529211
EA137  21.507 22.073 17.539 90.00 90.00 90.00 Sym.group:    0
1.0000
   21.506713     0.000000     0.000000
    0.000000    22.072551     0.000000
    0.000000     0.000000    17.539396
   O  Cu
   4   24 
Direct
    0.579043     0.484490     0.489754
    0.296560     0.405279     0.517237
    0.381374     0.707832     0.532158
    0.246933     0.563862     0.520792
    0.652788     0.455627     0.521374
    0.582739     0.510002     0.534966
    0.564886     0.454767     0.534545
    0.581627     0.358015     0.446675
    0.585288     0.345037     0.568863
    0.682611     0.451249     0.451189
    0.431142     0.267480     0.509766
    0.505335     0.310907     0.483864
    0.493991     0.445869     0.487271
    0.422788     0.356642     0.483577
    0.726715     0.536203     0.521342
    0.455270     0.360483     0.531724
    0.676982     0.663332     0.513465
    0.293877     0.488983     0.479396
    0.580314     0.661893     0.487420
    0.470746     0.678386     0.494348
    0.432504     0.507050     0.471771
    0.523657     0.543649     0.472096
    0.473703     0.551170     0.475254
    0.384026     0.626690     0.488749
    0.335960     0.575217     0.484685
    0.639581     0.588221     0.472589
    0.510816     0.600225     0.544895
    0.488743     0.501442     0.480231
EA69   18.637 18.584 19.135 90.00 90.00 90.00 Sym.group:    0
1.0000
   18.637057     0.000000     0.000000
    0.000000    18.583771     0.000000
    0.000000     0.000000    19.134692
   O  Cu
   4   24 
Direct
    0.347188     0.414519     0.482272
    0.640601     0.497201     0.449688
    0.588646     0.591483     0.507860
    0.396745     0.545175     0.532678
    0.527361     0.350627     0.482827
    0.484431     0.360841     0.567463
    0.639188     0.464920     0.539432
    0.647545     0.513399     0.530232
    0.534305     0.366825     0.563371
    0.324721     0.459299     0.475601
    0.477487     0.344643     0.486918
    0.632244     0.448722     0.458887
    0.515983     0.289067     0.536490
    0.278047     0.416669     0.528005
    0.707507     0.468199     0.492775
    0.471041     0.484525     0.366961
    0.552673     0.668598     0.520276
    0.398278     0.631341     0.540243
    0.644275     0.575641     0.506165
    0.354459     0.505705     0.543645
    0.355989     0.544994     0.441777
    0.425937     0.566321     0.399285
    0.528173     0.590992     0.386063
    0.516286     0.657690     0.599144
    0.450073     0.641712     0.607707
    0.414592     0.584932     0.483777
    0.546821     0.616841     0.466676
    0.599404     0.399121     0.503782
EA133  22.191 20.791 21.302 90.00 90.00 90.00 Sym.group:    0
1.0000
   22.190846     0.000000     0.000000
    0.000000    20.790598     0.000000
    0.000000     0.000000    21.301818
   O  Cu
   4   24 
Direct
    0.609838     0.271794     0.509135
    0.657018     0.698433     0.517993
    0.735475     0.416857     0.525974
    0.294185     0.320580     0.516052
    0.696314     0.499648     0.510383
    0.525449     0.309483     0.475102
    0.664261     0.604487     0.495077
    0.564587     0.489593     0.475996
    0.524212     0.445840     0.467683
    0.550647     0.537593     0.470734
    0.608648     0.359011     0.485822
    0.580110     0.655452     0.466561
    0.654897     0.410428     0.503697
    0.615261     0.526000     0.536579
    0.490034     0.391773     0.513984
    0.235311     0.534346     0.512100
    0.315161     0.599757     0.492660
    0.390096     0.691995     0.499086
    0.392612     0.318534     0.497860
    0.434097     0.524588     0.498922
    0.468262     0.566641     0.501852
    0.452138     0.459081     0.500133
    0.336805     0.410662     0.490877
    0.490536     0.702220     0.504453
    0.315756     0.487087     0.489464
    0.400556     0.589362     0.553043
    0.486416     0.508185     0.513201
    0.511317     0.670570     0.475577
EA150  20.722 19.709 17.266 90.00 90.00 90.00 Sym.group:    0
1.0000
   20.722311     0.000000     0.000000
    0.000000    19.708601     0.000000
    0.000000     0.000000    17.266315
   O  Cu
   4   24 
Direct
    0.359660     0.581250     0.479152
    0.626434     0.502620     0.442572
    0.580121     0.413095     0.507999
    0.406286     0.456993     0.536287
    0.523235     0.643811     0.482542
    0.491049     0.629843     0.580649
    0.626982     0.532923     0.541998
    0.634043     0.487288     0.531706
    0.535763     0.622999     0.572352
    0.340094     0.539418     0.472410
    0.478518     0.650671     0.490833
    0.619367     0.548258     0.452869
    0.515033     0.698642     0.538421
    0.297732     0.579728     0.530254
    0.687548     0.530417     0.488853
    0.471844     0.514882     0.352051
    0.547391     0.340012     0.522618
    0.408601     0.375647     0.545679
    0.630257     0.428600     0.505202
    0.367870     0.494517     0.548184
    0.369242     0.458563     0.435753
    0.432292     0.438008     0.388627
    0.524468     0.413788     0.373749
    0.515265     0.349713     0.610264
    0.455743     0.364753     0.620147
    0.422571     0.419856     0.482481
    0.541751     0.388931     0.463129
    0.590841     0.594775     0.503220
EA120  20.288 19.216 22.118 90.00 90.00 90.00 Sym.group:    0
1.0000
   20.288418     0.000000     0.000000
    0.000000    19.215777     0.000000
    0.000000     0.000000    22.118134
   O  Cu
   4   24 
Direct
    0.452786     0.584671     0.496462
    0.214334     0.516065     0.469061
    0.767578     0.537560     0.524998
    0.759333     0.453345     0.520304
    0.481942     0.593891     0.532959
    0.392370     0.504881     0.537242
    0.422324     0.568905     0.534241
    0.315471     0.572576     0.464882
    0.306233     0.582549     0.566032
    0.417535     0.692598     0.466190
    0.367773     0.383467     0.488391
    0.333556     0.347721     0.524573
    0.463822     0.365577     0.515187
    0.438052     0.495527     0.538087
    0.358030     0.321775     0.487261
    0.623069     0.699062     0.518574
    0.524383     0.679630     0.483660
    0.714496     0.467161     0.492113
    0.519018     0.551453     0.473632
    0.464332     0.549840     0.467936
    0.563302     0.501961     0.475600
    0.669867     0.559250     0.489769
    0.618202     0.616991     0.487472
    0.502012     0.503185     0.478555
    0.595014     0.365224     0.505476
    0.627546     0.325577     0.467521
    0.493519     0.357717     0.483517
    0.594099     0.301842     0.510303
EA134  17.873 20.653 20.304 90.00 90.00 90.00 Sym.group:    0
1.0000
   17.873045     0.000000     0.000000
    0.000000    20.652679     0.000000
    0.000000     0.000000    20.303538
   O  Cu
   4   24 
Direct
    0.205536     0.481664     0.536502
    0.602769     0.582194     0.559733
    0.653849     0.400321     0.557220
    0.211772     0.447640     0.478736
    0.407680     0.483818     0.471451
    0.434717     0.540366     0.478731
    0.312717     0.536332     0.549329
    0.304896     0.544773     0.436482
    0.390487     0.378355     0.520381
    0.609081     0.373743     0.516495
    0.357051     0.345843     0.476808
    0.500364     0.369345     0.496022
    0.459615     0.478750     0.473083
    0.385637     0.325064     0.519045
    0.439397     0.654560     0.455111
    0.735156     0.552404     0.454852
    0.634263     0.628198     0.479861
    0.707207     0.381031     0.476461
    0.725960     0.496076     0.581899
    0.488697     0.645977     0.583130
    0.576737     0.437365     0.504375
    0.567558     0.515696     0.505514
    0.638725     0.532529     0.445294
    0.530098     0.668379     0.473143
    0.752219     0.471662     0.471144
    0.586753     0.465687     0.457608
    0.366180     0.616925     0.483445
    0.414880     0.645303     0.558146
EA118  19.626 19.097 22.001 90.00 90.00 90.00 Sym.group:    0
1.0000
   19.626273     0.000000     0.000000
    0.000000    19.097072     0.000000
    0.000000     0.000000    22.000965
   O  Cu
   4   24 
Direct
    0.221348     0.431337     0.490750
    0.220733     0.477894     0.480758
    0.557044     0.563161     0.507028
    0.813390     0.503681     0.532524
    0.381597     0.610761     0.483559
    0.412497     0.411202     0.519831
    0.422278     0.501610     0.551096
    0.446950     0.351137     0.517992
    0.368387     0.336266     0.481343
    0.378068     0.367070     0.518894
    0.301818     0.428648     0.488371
    0.340500     0.645920     0.520245
    0.555072     0.356090     0.496308
    0.485385     0.633891     0.504879
    0.574302     0.476584     0.464443
    0.282993     0.517426     0.495889
    0.366485     0.668976     0.476448
    0.586433     0.636416     0.476824
    0.622661     0.487858     0.466106
    0.589778     0.547115     0.468242
    0.704358     0.555123     0.537246
    0.434804     0.649774     0.544650
    0.713877     0.559749     0.433456
    0.593519     0.665311     0.534942
    0.650655     0.377645     0.518365
    0.687667     0.343155     0.481598
    0.661871     0.320496     0.520745
    0.625531     0.575706     0.487466
EA65   17.951 19.888 19.812 90.00 90.00 90.00 Sym.group:    0
1.0000
   17.951154     0.000000     0.000000
    0.000000    19.888300     0.000000
    0.000000     0.000000    19.811638
   O  Cu
   4   24 
Direct
    0.337627     0.465406     0.550089
    0.425106     0.620285     0.547272
    0.620269     0.590258     0.557204
    0.721424     0.501529     0.543524
    0.470128     0.633018     0.462570
    0.332445     0.510900     0.461751
    0.333085     0.464426     0.463786
    0.420563     0.619305     0.460969
    0.615727     0.589278     0.470901
    0.474670     0.633998     0.548873
    0.336988     0.511880     0.548054
    0.651541     0.552260     0.560229
    0.263892     0.489079     0.502732
    0.424804     0.687035     0.501305
    0.690678     0.607163     0.516517
    0.508186     0.487600     0.654522
    0.673484     0.409610     0.410806
    0.619946     0.345749     0.559378
    0.491676     0.330768     0.526777
    0.624887     0.518290     0.376123
    0.356145     0.400848     0.522519
    0.541254     0.389906     0.389189
    0.531185     0.406522     0.636155
    0.400268     0.453477     0.400075
    0.554714     0.552229     0.394221
    0.475105     0.430021     0.406658
    0.433106     0.379924     0.523212
    0.671095     0.419236     0.504590
EA159  23.358 22.300 16.431 90.00 90.00 90.00 Sym.group:    0
1.0000
   23.357715     0.000000     0.000000
    0.000000    22.300312     0.000000
    0.000000     0.000000    16.431172
   O  Cu
   4   24 
Direct
    0.275429     0.559989     0.519716
    0.569206     0.264309     0.523456
    0.653765     0.674550     0.519881
    0.302412     0.363487     0.520893
    0.485328     0.703502     0.341134
    0.708578     0.397383     0.497546
    0.393407     0.349050     0.472342
    0.679394     0.478999     0.487370
    0.428669     0.673415     0.526365
    0.349330     0.603588     0.510255
    0.660573     0.585905     0.511298
    0.490577     0.313180     0.472422
    0.462253     0.462420     0.485620
    0.550492     0.485038     0.489192
    0.487574     0.553942     0.501025
    0.451767     0.521725     0.494520
    0.541760     0.533635     0.498650
    0.506618     0.446240     0.484769
    0.338207     0.504601     0.487624
    0.576960     0.351775     0.476516
    0.584930     0.644692     0.525681
    0.350207     0.435876     0.476871
    0.522817     0.669704     0.515208
    0.628034     0.396721     0.471904
    0.467044     0.405950     0.546879
    0.599763     0.528524     0.564298
    0.434759     0.589983     0.573981
    0.500147     0.501817     0.504585
EA23   19.221 17.914 18.024 90.00 90.00 90.00 Sym.group:    0
1.0000
   19.221384     0.000000     0.000000
    0.000000    17.913563     0.000000
    0.000000     0.000000    18.024131
   O  Cu
   4   24 
Direct
    0.400920     0.500000     0.500000
    0.599080     0.500000     0.500000
    0.328800     0.582894     0.440306
    0.328800     0.582739     0.559906
    0.328800     0.468242     0.596718
    0.328800     0.397633     0.499868
    0.328800     0.468493     0.403200
    0.671200     0.582894     0.440306
    0.671200     0.582739     0.559906
    0.671200     0.468242     0.596718
    0.671200     0.397633     0.499868
    0.671200     0.468493     0.403200
    0.500000     0.608384     0.613185
    0.500000     0.425183     0.637423
    0.500000     0.345377     0.471747
    0.500000     0.479254     0.345116
    0.500000     0.641802     0.432529
    0.428658     0.613481     0.609537
    0.428658     0.430249     0.641113
    0.428658     0.343411     0.477677
    0.428658     0.472974     0.345091
    0.428658     0.639886     0.426584
    0.571342     0.613481     0.609537
    0.571342     0.430249     0.641113
    0.571342     0.343411     0.477677
    0.571342     0.472974     0.345091
    0.571342     0.639886     0.426584
    0.500000     0.500000     0.500000
EA139  19.965 23.683 15.396 90.00 90.00 90.00 Sym.group:    0
1.0000
   19.964769     0.000000     0.000000
    0.000000    23.682975     0.000000
    0.000000     0.000000    15.396120
   O  Cu
   4   24 
Direct
    0.441955     0.443439     0.515521
    0.767617     0.529503     0.479245
    0.764998     0.490608     0.468742
    0.193581     0.551009     0.520146
    0.408608     0.383948     0.484144
    0.472583     0.433503     0.467798
    0.536683     0.450895     0.465501
    0.412335     0.453434     0.463378
    0.552711     0.374516     0.573308
    0.547107     0.360346     0.438657
    0.292185     0.444677     0.419958
    0.671123     0.441248     0.553288
    0.398391     0.367249     0.563059
    0.572303     0.491658     0.564451
    0.691982     0.532097     0.480979
    0.702600     0.464591     0.493049
    0.597917     0.398976     0.501499
    0.619145     0.600218     0.478210
    0.390110     0.491451     0.441690
    0.411581     0.618432     0.493012
    0.336657     0.630166     0.535902
    0.343067     0.602254     0.479756
    0.273355     0.550678     0.515185
    0.659939     0.630940     0.534525
    0.515782     0.618504     0.504812
    0.539724     0.519075     0.578113
    0.253573     0.478736     0.522673
    0.632391     0.647850     0.463400
EA93   18.909 18.445 17.872 90.00 90.00 90.00 Sym.group:    0
1.0000
   18.909082     0.000000     0.000000
    0.000000    18.445066     0.000000
    0.000000     0.000000    17.871623
   O  Cu
   4   24 
Direct
    0.335867     0.575471     0.436953
    0.334285     0.511575     0.601261
    0.337660     0.405521     0.462231
    0.664136     0.409674     0.562988
    0.665759     0.594511     0.546003
    0.662296     0.488518     0.390507
    0.573647     0.344397     0.522572
    0.566455     0.558756     0.348637
    0.570314     0.597691     0.627306
    0.426366     0.565795     0.355264
    0.433591     0.345829     0.514303
    0.430092     0.589199     0.631654
    0.573486     0.656929     0.488602
    0.566671     0.431766     0.646360
    0.569804     0.412140     0.366126
    0.426466     0.444021     0.648480
    0.433318     0.653179     0.475784
    0.429788     0.403630     0.374925
    0.496864     0.445005     0.632527
    0.500191     0.583961     0.616115
    0.499808     0.417616     0.383891
    0.503304     0.361834     0.516161
    0.503117     0.639729     0.483791
    0.496715     0.556555     0.367532
    0.336476     0.502330     0.500166
    0.663523     0.502300     0.499852
    0.604022     0.501075     0.499904
    0.395978     0.500995     0.500104
EA131  20.137 17.373 19.758 90.00 90.00 90.00 Sym.group:    0
1.0000
   20.136868     0.000000     0.000000
    0.000000    17.373308     0.000000
    0.000000     0.000000    19.758194
   O  Cu
   4   24 
Direct
    0.247208     0.496318     0.488987
    0.497130     0.500085     0.594616
    0.617660     0.640268     0.539631
    0.662476     0.444444     0.528037
    0.459292     0.295090     0.436670
    0.626591     0.353129     0.457595
    0.509483     0.297228     0.573433
    0.539800     0.291090     0.451226
    0.403974     0.382665     0.480786
    0.434572     0.490793     0.553919
    0.320614     0.550756     0.502450
    0.371165     0.340249     0.522181
    0.306279     0.462177     0.498186
    0.394889     0.323796     0.473413
    0.482973     0.463965     0.501269
    0.449048     0.699623     0.546475
    0.371854     0.667344     0.438798
    0.658157     0.544324     0.425798
    0.542847     0.699426     0.436737
    0.610958     0.647837     0.432523
    0.655498     0.452463     0.420960
    0.442631     0.707603     0.439386
    0.378234     0.659461     0.545893
    0.664169     0.536379     0.532898
    0.549241     0.691299     0.543819
    0.493319     0.504375     0.535355
    0.608797     0.349639     0.523911
    0.701141     0.508176     0.575049
EA19   18.845 18.253 18.241 90.00 90.00 90.00 Sym.group:    0
1.0000
   18.844557     0.000000     0.000000
    0.000000    18.252618     0.000000
    0.000000     0.000000    18.241022
   O  Cu
   4   24 
Direct
    0.664625     0.592937     0.546638
    0.664625     0.413167     0.557218
    0.664625     0.493895     0.396144
    0.335375     0.407063     0.453362
    0.335375     0.506105     0.603856
    0.335375     0.586833     0.442782
    0.429697     0.408902     0.371218
    0.429697     0.657006     0.485448
    0.429697     0.434091     0.643334
    0.570303     0.657629     0.496034
    0.570303     0.417753     0.365386
    0.570303     0.424618     0.638580
    0.429697     0.582247     0.634614
    0.429697     0.342371     0.503966
    0.429697     0.575382     0.361420
    0.570303     0.342994     0.514552
    0.570303     0.591098     0.628782
    0.570303     0.565909     0.356666
    0.500000     0.358973     0.508301
    0.500000     0.436669     0.626361
    0.500000     0.563331     0.373639
    0.500000     0.422302     0.381939
    0.500000     0.577698     0.618061
    0.500000     0.641027     0.491699
    0.664083     0.500000     0.500000
    0.335917     0.500000     0.500000
    0.395622     0.500000     0.500000
    0.604378     0.500000     0.500000
EA155  23.532 19.199 15.683 90.00 90.00 90.00 Sym.group:    0
1.0000
   23.531974     0.000000     0.000000
    0.000000    19.199488     0.000000
    0.000000     0.000000    15.683058
   O  Cu
   4   24 
Direct
    0.543975     0.566539     0.487168
    0.319604     0.477076     0.531358
    0.284188     0.511680     0.488005
    0.746933     0.493139     0.448721
    0.571291     0.641505     0.530936
    0.516557     0.573898     0.535076
    0.585854     0.495393     0.546351
    0.463395     0.547774     0.527585
    0.565249     0.553333     0.542347
    0.654902     0.564703     0.441266
    0.455593     0.646596     0.427503
    0.454892     0.659110     0.569095
    0.666035     0.571061     0.581633
    0.358327     0.564832     0.435398
    0.582074     0.666122     0.453079
    0.606097     0.382209     0.474404
    0.439655     0.420239     0.449494
    0.442686     0.496785     0.411473
    0.455610     0.369321     0.419023
    0.420010     0.349827     0.542814
    0.403321     0.370627     0.486262
    0.384371     0.421158     0.605483
    0.642635     0.342303     0.519254
    0.528855     0.374647     0.535354
    0.546312     0.485084     0.542198
    0.329403     0.519682     0.500316
    0.616720     0.324503     0.474516
    0.415457     0.610857     0.493889
EA117  20.725 21.775 16.392 90.00 90.00 90.00 Sym.group:    0
1.0000
   20.725484     0.000000     0.000000
    0.000000    21.775007     0.000000
    0.000000     0.000000    16.392068
   O  Cu
   4   24 
Direct
    0.486207     0.381147     0.529313
    0.656244     0.506107     0.532545
    0.275260     0.401221     0.485313
    0.480074     0.724951     0.545801
    0.417549     0.373333     0.513221
    0.329625     0.375913     0.563566
    0.509724     0.482524     0.571199
    0.558170     0.332531     0.542040
    0.694973     0.433068     0.544641
    0.680305     0.558418     0.537787
    0.471692     0.358989     0.427170
    0.693690     0.522134     0.431391
    0.632681     0.472013     0.394843
    0.542093     0.405440     0.393120
    0.591851     0.359855     0.621427
    0.655365     0.463485     0.484291
    0.644789     0.642114     0.521211
    0.255149     0.579135     0.524447
    0.334396     0.614069     0.483337
    0.417057     0.667481     0.495775
    0.428500     0.527549     0.465455
    0.517317     0.526822     0.465132
    0.434054     0.472485     0.456063
    0.322842     0.462083     0.463973
    0.508261     0.651520     0.492661
    0.568390     0.622631     0.490002
    0.419419     0.581230     0.551195
    0.474322     0.501752     0.473084
EA62   16.532 19.305 19.311 90.00 90.00 90.00 Sym.group:    0
1.0000
   16.532252     0.000000     0.000000
    0.000000    19.304914     0.000000
    0.000000     0.000000    19.310604
   O  Cu
   4   24 
Direct
    0.473920     0.507731     0.381889
    0.656440     0.564900     0.596969
    0.643750     0.562057     0.407081
    0.679757     0.466046     0.545460
    0.294001     0.548975     0.567041
    0.351595     0.382986     0.563440
    0.544473     0.341522     0.552649
    0.445636     0.337750     0.450938
    0.293241     0.449909     0.459660
    0.326550     0.619805     0.458233
    0.286068     0.549110     0.460302
    0.343662     0.383121     0.456701
    0.536540     0.341657     0.445910
    0.453569     0.337615     0.557677
    0.301174     0.449774     0.566399
    0.334483     0.619669     0.564972
    0.478310     0.507656     0.440956
    0.660984     0.554282     0.545893
    0.644213     0.574517     0.457887
    0.565224     0.685847     0.442789
    0.651737     0.382376     0.437711
    0.505457     0.691975     0.574059
    0.703638     0.429586     0.562953
    0.627112     0.415308     0.533788
    0.504645     0.649685     0.479355
    0.649551     0.445907     0.471220
    0.535306     0.688674     0.508425
    0.508967     0.511560     0.509643
EA144  19.032 19.032 16.030 90.00 90.00 90.00 Sym.group:    0
1.0000
   19.032499     0.000000     0.000000
    0.000000    19.032499     0.000000
    0.000000     0.000000    16.030205
   O  Cu
   4   24 
Direct
    0.556875     0.632312     0.394256
    0.367688     0.556875     0.394256
    0.443125     0.367688     0.394256
    0.632312     0.443125     0.394256
    0.504870     0.643936     0.605744
    0.643936     0.495130     0.605744
    0.495130     0.356064     0.605744
    0.356064     0.504870     0.605744
    0.556875     0.632312     0.605744
    0.367688     0.556875     0.605744
    0.443125     0.367688     0.605744
    0.632312     0.443125     0.605744
    0.504870     0.643936     0.394256
    0.643936     0.495130     0.394256
    0.495130     0.356064     0.394256
    0.356064     0.504870     0.394256
    0.506462     0.667936     0.500000
    0.332064     0.506462     0.500000
    0.493538     0.332064     0.500000
    0.667936     0.493538     0.500000
    0.565652     0.654707     0.500000
    0.654707     0.434348     0.500000
    0.434348     0.345293     0.500000
    0.345293     0.565652     0.500000
    0.575664     0.380777     0.500000
    0.619223     0.575664     0.500000
    0.424336     0.619223     0.500000
    0.380777     0.424336     0.500000
EA128  19.389 19.373 17.358 90.00 90.00 90.00 Sym.group:    0
1.0000
   19.388818     0.000000     0.000000
    0.000000    19.373323     0.000000
    0.000000     0.000000    17.358470
   O  Cu
   4   24 
Direct
    0.585292     0.510743     0.485892
    0.305926     0.548982     0.467662
    0.643249     0.570284     0.612725
    0.671726     0.484744     0.530763
    0.321718     0.450931     0.416001
    0.632669     0.602520     0.436458
    0.672066     0.430672     0.463763
    0.648461     0.504468     0.384797
    0.476490     0.493646     0.348154
    0.458060     0.629175     0.453730
    0.409510     0.476889     0.353686
    0.389630     0.616959     0.454429
    0.583727     0.369087     0.444107
    0.525789     0.639269     0.441426
    0.333959     0.492723     0.612457
    0.406981     0.340594     0.574139
    0.575865     0.336605     0.533291
    0.335575     0.410574     0.464773
    0.314930     0.506684     0.482898
    0.499718     0.315443     0.548556
    0.354604     0.396613     0.594331
    0.357727     0.569902     0.617385
    0.642810     0.567987     0.548048
    0.493503     0.670901     0.622185
    0.699416     0.450762     0.543482
    0.633096     0.426926     0.513684
    0.511831     0.682501     0.538221
    0.515674     0.503418     0.512958
EA157  20.354 20.538 19.422 90.00 90.00 90.00 Sym.group:    0
1.0000
   20.354042     0.000000     0.000000
    0.000000    20.538203     0.000000
    0.000000     0.000000    19.422059
   O  Cu
   4   24 
Direct
    0.502360     0.434926     0.492054
    0.461550     0.476395     0.497294
    0.461552     0.523613     0.502707
    0.502370     0.565073     0.507945
    0.647702     0.499989     0.499996
    0.613211     0.458118     0.406857
    0.452680     0.307723     0.594935
    0.343334     0.439572     0.564012
    0.419012     0.599865     0.474862
    0.617398     0.628311     0.598993
    0.617378     0.371672     0.401007
    0.613215     0.541862     0.593146
    0.452711     0.692285     0.405063
    0.343347     0.560450     0.435993
    0.418996     0.400146     0.525134
    0.722308     0.369530     0.325405
    0.494023     0.364132     0.513421
    0.355103     0.479352     0.482485
    0.380230     0.653072     0.393331
    0.552776     0.626056     0.517490
    0.552758     0.373937     0.482510
    0.722330     0.630439     0.674599
    0.494046     0.635868     0.486578
    0.355104     0.520669     0.517520
    0.380206     0.346950     0.606666
    0.508518     0.504794     0.553347
    0.508519     0.495204     0.446651
    0.507263     0.499999     0.499999
EA48   19.437 19.365 17.549 90.00 90.00 90.00 Sym.group:    0
1.0000
   19.437341     0.000000     0.000000
    0.000000    19.365114     0.000000
    0.000000     0.000000    17.548834
   O  Cu
   4   24 
Direct
    0.500000     0.500000     0.360138
    0.500000     0.500000     0.639862
    0.553515     0.669117     0.438307
    0.380842     0.631077     0.438307
    0.327327     0.461960     0.438307
    0.446485     0.330883     0.438307
    0.619158     0.368923     0.438307
    0.672673     0.538040     0.438307
    0.671372     0.456433     0.561693
    0.548096     0.329251     0.561693
    0.376724     0.372818     0.561693
    0.328628     0.543567     0.561693
    0.451904     0.670749     0.561693
    0.623276     0.627182     0.561693
    0.553515     0.669117     0.561693
    0.380842     0.631077     0.561693
    0.327327     0.461960     0.561693
    0.446485     0.330883     0.561693
    0.619158     0.368923     0.561693
    0.672673     0.538040     0.561693
    0.671372     0.456433     0.438307
    0.548096     0.329251     0.438307
    0.376724     0.372818     0.438307
    0.328628     0.543567     0.438307
    0.451904     0.670749     0.438307
    0.623276     0.627182     0.438307
    0.500000     0.500000     0.571583
    0.500000     0.500000     0.428417
EA90   19.353 19.255 17.549 90.00 90.00 90.00 Sym.group:    0
1.0000
   19.353010     0.000000     0.000000
    0.000000    19.255358     0.000000
    0.000000     0.000000    17.548797
   O  Cu
   4   24 
Direct
    0.499999     0.500000     0.368192
    0.500001     0.500000     0.647915
    0.363159     0.385655     0.436905
    0.332809     0.561962     0.436837
    0.469922     0.675660     0.437050
    0.636560     0.614114     0.436946
    0.666671     0.438267     0.436920
    0.530091     0.324274     0.437031
    0.605245     0.356260     0.560370
    0.676479     0.519739     0.560293
    0.571224     0.663476     0.560389
    0.394742     0.643731     0.560395
    0.323514     0.480256     0.560348
    0.428762     0.336521     0.560408
    0.363482     0.385849     0.560294
    0.333378     0.561741     0.560226
    0.469892     0.675877     0.560437
    0.636501     0.614143     0.560333
    0.666603     0.438255     0.560307
    0.530093     0.324116     0.560418
    0.605273     0.356329     0.436984
    0.676559     0.519743     0.436906
    0.571247     0.663389     0.437003
    0.394799     0.643465     0.437008
    0.323922     0.480361     0.436961
    0.428796     0.336808     0.437021
    0.500002     0.499999     0.579635
    0.500274     0.500011     0.436470
EA72   19.044 22.357 21.088 90.00 90.00 90.00 Sym.group:    0
1.0000
   19.044487     0.000000     0.000000
    0.000000    22.356839     0.000000
    0.000000     0.000000    21.088045
   O  Cu
   4   24 
Direct
    0.174703     0.536160     0.525126
    0.683615     0.661906     0.498422
    0.783295     0.463390     0.503215
    0.774526     0.512552     0.487754
    0.335425     0.681015     0.524376
    0.441643     0.659992     0.490140
    0.570700     0.652909     0.480520
    0.230201     0.469424     0.491127
    0.443439     0.541225     0.478358
    0.502280     0.537996     0.473972
    0.394187     0.496835     0.478587
    0.281230     0.553231     0.490942
    0.639703     0.588500     0.468237
    0.338691     0.605020     0.490674
    0.485388     0.590554     0.533532
    0.460014     0.495985     0.483616
    0.354929     0.371182     0.507945
    0.597032     0.427129     0.518990
    0.570546     0.510855     0.552720
    0.575508     0.365470     0.511432
    0.653556     0.362181     0.481303
    0.642510     0.387702     0.520936
    0.701196     0.458009     0.499003
    0.319562     0.335682     0.466250
    0.464253     0.361055     0.487670
    0.523649     0.516181     0.543877
    0.704495     0.545391     0.498820
    0.353722     0.312470     0.512455
EA87   24.838 19.702 14.862 90.00 90.00 90.00 Sym.group:    0
1.0000
   24.837772     0.000000     0.000000
    0.000000    19.702004     0.000000
    0.000000     0.000000    14.861947
   O  Cu
   4   24 
Direct
    0.256621     0.548935     0.507016
    0.743379     0.451065     0.492984
    0.745546     0.498047     0.473169
    0.254454     0.501953     0.526831
    0.609430     0.621585     0.477410
    0.390570     0.378415     0.522590
    0.589058     0.424538     0.522637
    0.410942     0.575462     0.477363
    0.420301     0.488340     0.425247
    0.579699     0.511660     0.574753
    0.562845     0.363738     0.508308
    0.437155     0.636262     0.491692
    0.625255     0.354241     0.465862
    0.374745     0.645759     0.534138
    0.380503     0.615829     0.475889
    0.619497     0.384171     0.524111
    0.322793     0.551129     0.503084
    0.677207     0.448871     0.496916
    0.357205     0.343795     0.463257
    0.642795     0.656205     0.536743
    0.523490     0.638803     0.504456
    0.476510     0.361197     0.495544
    0.543492     0.518455     0.563647
    0.456508     0.481545     0.436353
    0.306737     0.465258     0.501026
    0.693263     0.534742     0.498974
    0.379765     0.321061     0.530839
    0.620235     0.678939     0.469161
EA129  19.906 21.178 19.796 90.00 90.00 90.00 Sym.group:    0
1.0000
   19.906481     0.000000     0.000000
    0.000000    21.178235     0.000000
    0.000000     0.000000    19.796141
   O  Cu
   4   24 
Direct
    0.403373     0.580555     0.429417
    0.365900     0.391042     0.437126
    0.800264     0.540040     0.506898
    0.802567     0.498167     0.523432
    0.283120     0.539476     0.551482
    0.319552     0.366112     0.530086
    0.289907     0.485333     0.408544
    0.439659     0.432448     0.494704
    0.443532     0.513289     0.491571
    0.377015     0.524768     0.560842
    0.271100     0.456096     0.535070
    0.597883     0.403000     0.480779
    0.566538     0.349964     0.490663
    0.644656     0.340412     0.525582
    0.635786     0.365511     0.481464
    0.457618     0.352254     0.513338
    0.430346     0.459748     0.547290
    0.378966     0.595099     0.486321
    0.616569     0.559245     0.483977
    0.604258     0.481179     0.450244
    0.585435     0.612593     0.489787
    0.661047     0.623066     0.523112
    0.651879     0.596125     0.482670
    0.722272     0.540377     0.508443
    0.342717     0.628257     0.527170
    0.481892     0.612368     0.510430
    0.459695     0.507640     0.549070
    0.366452     0.645837     0.480488
EA153  24.838 19.691 14.862 90.00 90.00 90.00 Sym.group:    0
1.0000
   24.837631     0.000000     0.000000
    0.000000    19.690915     0.000000
    0.000000     0.000000    14.861950
   O  Cu
   4   24 
Direct
    0.256237     0.548090     0.505631
    0.742995     0.450148     0.491578
    0.745439     0.496397     0.474840
    0.254345     0.500322     0.528526
    0.609249     0.621374     0.482550
    0.390383     0.378075     0.527748
    0.589018     0.424809     0.517792
    0.410903     0.575824     0.472523
    0.421075     0.490346     0.424978
    0.580477     0.513677     0.574475
    0.562576     0.363506     0.498805
    0.436890     0.636188     0.482188
    0.624339     0.352576     0.458451
    0.373835     0.644267     0.526731
    0.380481     0.616256     0.469985
    0.619472     0.384460     0.518202
    0.322366     0.550605     0.503407
    0.676780     0.448278     0.497224
    0.358115     0.344396     0.471127
    0.643714     0.656973     0.544589
    0.523816     0.639808     0.506447
    0.476829     0.362047     0.497545
    0.544174     0.520302     0.562687
    0.457187     0.483372     0.435399
    0.306428     0.464723     0.506639
    0.692958     0.534233     0.504566
    0.379721     0.320439     0.538533
    0.620198     0.678510     0.476833
EA63   19.801 19.664 21.218 90.00 90.00 90.00 Sym.group:    0
1.0000
   19.801385     0.000000     0.000000
    0.000000    19.664078     0.000000
    0.000000     0.000000    21.217608
   O  Cu
   4   24 
Direct
    0.696190     0.648030     0.482676
    0.411596     0.733472     0.492254
    0.323063     0.393623     0.560318
    0.274924     0.595389     0.508496
    0.751499     0.452309     0.492456
    0.498169     0.690682     0.513256
    0.676415     0.401526     0.522572
    0.603653     0.659013     0.509705
    0.495573     0.553255     0.525021
    0.560614     0.478839     0.526399
    0.543665     0.538816     0.523402
    0.657991     0.572139     0.514916
    0.411957     0.646004     0.523197
    0.677765     0.502163     0.518413
    0.531037     0.600818     0.470675
    0.404643     0.330789     0.411454
    0.488715     0.301928     0.566621
    0.385749     0.491119     0.635347
    0.606388     0.354420     0.518500
    0.392010     0.456716     0.369610
    0.528532     0.381147     0.374805
    0.316462     0.514906     0.507467
    0.539155     0.406204     0.641184
    0.373102     0.574570     0.499162
    0.437100     0.525278     0.382381
    0.567053     0.453344     0.387327
    0.405796     0.342641     0.512769
    0.441185     0.400859     0.509617
EA132  20.235 20.632 17.032 90.00 90.00 90.00 Sym.group:    0
1.0000
   20.235208     0.000000     0.000000
    0.000000    20.631638     0.000000
    0.000000     0.000000    17.031992
   O  Cu
   4   24 
Direct
    0.676101     0.644916     0.520228
    0.412863     0.702674     0.503948
    0.379931     0.428692     0.501579
    0.377929     0.593424     0.524157
    0.590926     0.366045     0.572999
    0.732342     0.474168     0.522739
    0.495072     0.673045     0.479493
    0.666631     0.427005     0.488832
    0.592641     0.651637     0.485527
    0.496789     0.550828     0.475375
    0.558508     0.488742     0.478896
    0.541274     0.541066     0.478127
    0.645082     0.578078     0.485224
    0.665190     0.517033     0.486122
    0.524357     0.589195     0.541095
    0.640940     0.487775     0.535745
    0.544250     0.369764     0.503560
    0.479658     0.313636     0.534833
    0.301436     0.473797     0.545947
    0.397635     0.343960     0.448012
    0.299052     0.556032     0.471177
    0.478256     0.315048     0.448984
    0.300036     0.475209     0.460098
    0.399037     0.342548     0.533860
    0.300453     0.554620     0.557025
    0.497385     0.505253     0.519352
    0.604516     0.392912     0.429783
    0.401708     0.642898     0.467285
EA115  19.347 21.079 19.040 90.00 90.00 90.00 Sym.group:    0
1.0000
   19.347100     0.000000     0.000000
    0.000000    21.079266     0.000000
    0.000000     0.000000    19.040424
   O  Cu
   4   24 
Direct
    0.233438     0.582980     0.531912
    0.699900     0.635487     0.494976
    0.753736     0.470091     0.480894
    0.383329     0.431998     0.404171
    0.398677     0.706248     0.529129
    0.488744     0.670901     0.490812
    0.600392     0.644673     0.478153
    0.470159     0.550320     0.477470
    0.521063     0.538362     0.471698
    0.419523     0.512546     0.478322
    0.330351     0.586417     0.493924
    0.649835     0.569315     0.463404
    0.389427     0.630488     0.492929
    0.513593     0.590605     0.535286
    0.476645     0.501332     0.482375
    0.697981     0.513499     0.494147
    0.627934     0.464705     0.608923
    0.385515     0.433332     0.598161
    0.373834     0.439300     0.456103
    0.391113     0.423362     0.545884
    0.634018     0.475211     0.558284
    0.494666     0.342320     0.562870
    0.555310     0.352157     0.435539
    0.496629     0.382012     0.469776
    0.539002     0.387398     0.534075
    0.524947     0.347453     0.499220
    0.623267     0.457065     0.466028
    0.326971     0.360419     0.465534
EA44   20.250 20.573 14.712 90.00 90.00 90.00 Sym.group:    0
1.0000
   20.250490     0.000000     0.000000
    0.000000    20.572781     0.000000
    0.000000     0.000000    14.712377
   O  Cu
   4   24 
Direct
    0.618679     0.578627     0.500000
    0.612642     0.413195     0.500000
    0.450938     0.367725     0.500000
    0.357035     0.505055     0.500000
    0.460706     0.635399     0.500000
    0.527305     0.692027     0.553785
    0.693972     0.533777     0.553785
    0.592577     0.328849     0.553785
    0.363243     0.360445     0.553785
    0.322903     0.584902     0.553785
    0.604813     0.664172     0.446215
    0.373767     0.648853     0.446215
    0.317171     0.427824     0.446215
    0.513238     0.306539     0.446215
    0.691011     0.452611     0.446215
    0.527305     0.692027     0.446215
    0.693972     0.533777     0.446215
    0.592577     0.328849     0.446215
    0.363243     0.360445     0.446215
    0.322903     0.584902     0.446215
    0.604813     0.664172     0.553785
    0.373767     0.648853     0.553785
    0.317171     0.427824     0.553785
    0.513238     0.306539     0.553785
    0.691011     0.452611     0.553785
    0.500000     0.500000     0.570430
    0.500000     0.500000     0.429570
    0.500000     0.500000     0.500000
EA116  19.708 20.385 20.063 90.00 90.00 90.00 Sym.group:    0
1.0000
   19.707527     0.000000     0.000000
    0.000000    20.384975     0.000000
    0.000000     0.000000    20.063493
   O  Cu
   4   24 
Direct
    0.406598     0.705282     0.518802
    0.687649     0.636038     0.494931
    0.415125     0.374453     0.456416
    0.475221     0.419294     0.461023
    0.266201     0.575447     0.514377
    0.592513     0.645575     0.478306
    0.303638     0.500433     0.481332
    0.488342     0.671240     0.487155
    0.528702     0.534606     0.468373
    0.438184     0.506520     0.471051
    0.481207     0.546307     0.472408
    0.400717     0.628218     0.485665
    0.643688     0.568357     0.465027
    0.350522     0.581800     0.484083
    0.525009     0.585666     0.524123
    0.361459     0.546472     0.520536
    0.615098     0.374623     0.437199
    0.384662     0.402008     0.550399
    0.575016     0.342851     0.526294
    0.692114     0.498851     0.530314
    0.422258     0.365935     0.543248
    0.683698     0.549296     0.536065
    0.622231     0.366106     0.524031
    0.377529     0.410526     0.463566
    0.627949     0.296889     0.472524
    0.349001     0.339046     0.503484
    0.755560     0.539294     0.483997
    0.530109     0.488866     0.645270
EA50   24.933 19.630 14.877 90.00 90.00 90.00 Sym.group:    0
1.0000
   24.932591     0.000000     0.000000
    0.000000    19.629797     0.000000
    0.000000     0.000000    14.877380
   O  Cu
   4   24 
Direct
    0.745037     0.548795     0.505708
    0.254963     0.451205     0.494292
    0.253483     0.498985     0.472259
    0.746517     0.501015     0.527741
    0.389245     0.620433     0.479056
    0.610755     0.379567     0.520944
    0.409872     0.424890     0.525638
    0.590128     0.575110     0.474362
    0.579971     0.488634     0.424806
    0.420029     0.511366     0.575194
    0.436083     0.364356     0.515921
    0.563917     0.635644     0.484079
    0.372660     0.355325     0.468950
    0.627340     0.644675     0.531050
    0.620178     0.615941     0.473510
    0.379822     0.384059     0.526490
    0.679036     0.550772     0.508014
    0.320964     0.449228     0.491986
    0.641992     0.342885     0.462582
    0.358008     0.657115     0.537418
    0.475965     0.636861     0.513232
    0.524035     0.363139     0.486768
    0.456064     0.518043     0.564575
    0.543936     0.481957     0.435425
    0.695136     0.464604     0.508700
    0.304864     0.535396     0.491300
    0.621022     0.321960     0.527682
    0.378978     0.678040     0.472318
EA114  20.604 17.318 19.526 90.00 90.00 90.00 Sym.group:    0
1.0000
   20.603597     0.000000     0.000000
    0.000000    17.318432     0.000000
    0.000000     0.000000    19.525598
   O  Cu
   4   24 
Direct
    0.480708     0.483877     0.401367
    0.630153     0.356662     0.469443
    0.724137     0.488521     0.518305
    0.721691     0.539873     0.529568
    0.328986     0.613396     0.455357
    0.318692     0.408532     0.463144
    0.469125     0.280438     0.470291
    0.316441     0.410822     0.572696
    0.466820     0.282557     0.579849
    0.389811     0.315349     0.467799
    0.299469     0.502734     0.459209
    0.389111     0.672519     0.453943
    0.658864     0.467690     0.465580
    0.569649     0.298029     0.470987
    0.479146     0.485155     0.461985
    0.408174     0.642807     0.519801
    0.464484     0.583288     0.531064
    0.520870     0.567183     0.532536
    0.411559     0.549756     0.532929
    0.535153     0.674314     0.446806
    0.529690     0.688514     0.560931
    0.305756     0.546635     0.568822
    0.639350     0.597849     0.460616
    0.613136     0.373194     0.536524
    0.657663     0.476610     0.515933
    0.429811     0.480809     0.538249
    0.666859     0.568363     0.510138
    0.574692     0.644525     0.506128
EA92   24.958 19.630 14.877 90.00 90.00 90.00 Sym.group:    0
1.0000
   24.957752     0.000000     0.000000
    0.000000    19.629783     0.000000
    0.000000     0.000000    14.877380
   O  Cu
   4   24 
Direct
    0.253387     0.454339     0.509867
    0.742968     0.551928     0.498524
    0.746934     0.501985     0.467858
    0.254394     0.499957     0.523265
    0.611987     0.380217     0.478342
    0.390698     0.621084     0.520190
    0.589623     0.574516     0.525154
    0.409551     0.424295     0.473855
    0.420595     0.510976     0.423151
    0.580368     0.488245     0.573564
    0.563537     0.635420     0.512174
    0.435834     0.364131     0.480319
    0.625274     0.643953     0.471548
    0.370847     0.354605     0.533616
    0.379863     0.383102     0.475632
    0.619974     0.614984     0.528643
    0.319294     0.447714     0.516748
    0.677006     0.549257     0.500773
    0.358208     0.656412     0.461365
    0.641901     0.342182     0.536252
    0.524638     0.364060     0.517384
    0.476618     0.637782     0.490906
    0.544312     0.481230     0.562018
    0.456536     0.517314     0.432853
    0.306782     0.534887     0.501144
    0.696661     0.464094     0.483805
    0.380203     0.678707     0.528185
    0.622006     0.322626     0.472867
