EA6    19.130 19.130 19.130 90.00 90.00 90.00 Sym.group:    0
1.0000
   19.129890     0.000000     0.000000
    0.000000    19.129890     0.000000
    0.000000     0.000000    19.129890
   O  Cu
   4   24 
Direct
    0.330373     0.500000     0.500000
    0.669627     0.500000     0.500000
    0.500000     0.652580     0.574113
    0.500000     0.347420     0.425887
    0.500000     0.574113     0.347420
    0.500000     0.425887     0.652580
    0.560409     0.500000     0.500000
    0.439591     0.500000     0.500000
    0.500000     0.445662     0.473606
    0.500000     0.554338     0.526394
    0.500000     0.473606     0.554338
    0.500000     0.526394     0.445662
    0.608154     0.355461     0.550030
    0.391846     0.355461     0.550030
    0.608154     0.550030     0.644539
    0.391846     0.550030     0.644539
    0.608154     0.449970     0.355461
    0.391846     0.449970     0.355461
    0.608154     0.644539     0.449970
    0.391846     0.644539     0.449970
    0.551157     0.431633     0.523664
    0.448843     0.431633     0.523664
    0.551157     0.523664     0.568367
    0.448843     0.523664     0.568367
    0.551157     0.476336     0.431633
    0.448843     0.476336     0.431633
    0.551157     0.568367     0.476336
    0.448843     0.568367     0.476336
