EA1    17.801 17.801 17.801 90.00 90.00 90.00 Sym.group:    0
1.0000
   17.800920     0.000000     0.000000
    0.000000    17.800920     0.000000
    0.000000     0.000000    17.800920
   O  Cu
  24   24 
Direct
    0.574256     0.570589     0.673588
    0.425744     0.429411     0.673588
    0.593719     0.541394     0.326412
    0.406281     0.458606     0.326412
    0.700425     0.512302     0.482456
    0.581692     0.345835     0.600940
    0.411557     0.319724     0.517544
    0.389113     0.634702     0.399060
    0.299575     0.487698     0.482456
    0.610887     0.365298     0.399060
    0.588443     0.680276     0.517544
    0.418308     0.654165     0.600940
    0.402204     0.604709     0.367148
    0.597796     0.395291     0.367148
    0.559040     0.369454     0.632852
    0.440960     0.630546     0.632852
    0.376542     0.445685     0.358629
    0.308680     0.532121     0.476710
    0.597621     0.593071     0.641371
    0.456066     0.311042     0.523290
    0.623458     0.554315     0.358629
    0.543934     0.688958     0.523290
    0.402379     0.406929     0.641371
    0.691320     0.467879     0.476710
    0.690518     0.442069     0.609814
    0.309482     0.557931     0.609814
    0.519801     0.698144     0.390186
    0.480199     0.301856     0.390186
    0.661477     0.455754     0.653882
    0.688951     0.493987     0.626386
    0.478736     0.333926     0.346118
    0.567123     0.676729     0.373614
    0.338523     0.544246     0.653882
    0.432877     0.323271     0.373614
    0.521264     0.666074     0.346118
    0.311049     0.506013     0.626386
    0.565943     0.520443     0.286740
    0.434057     0.479557     0.286740
    0.544233     0.553007     0.713260
    0.455767     0.446993     0.713260
    0.359282     0.326616     0.519569
    0.397987     0.688298     0.566208
    0.714169     0.563207     0.480431
    0.634578     0.333411     0.433792
    0.640718     0.673384     0.519569
    0.365422     0.666589     0.433792
    0.285831     0.436793     0.480431
    0.602013     0.311702     0.566208
EA2    18.168 18.212 15.226 90.00 90.00 90.00 Sym.group:    0
1.0000
   18.167576     0.000000     0.000000
    0.000000    18.211855     0.000000
    0.000000     0.000000    15.226170
   O  Cu
  24   24 
Direct
    0.606820     0.299423     0.453829
    0.341784     0.336674     0.453829
    0.295398     0.599636     0.453829
    0.531765     0.724904     0.453829
    0.724234     0.539363     0.453829
    0.606820     0.299423     0.546171
    0.341784     0.336674     0.546171
    0.295398     0.599636     0.546171
    0.531765     0.724904     0.546171
    0.724234     0.539363     0.546171
    0.341367     0.478705     0.591281
    0.430678     0.643922     0.591281
    0.615790     0.610243     0.591281
    0.640884     0.424212     0.591281
    0.471281     0.342917     0.591281
    0.341367     0.478705     0.408719
    0.430678     0.643922     0.408719
    0.615790     0.610243     0.408719
    0.640884     0.424212     0.408719
    0.471281     0.342917     0.408719
    0.439513     0.468579     0.538692
    0.451353     0.547677     0.538692
    0.530421     0.560887     0.538692
    0.567448     0.489953     0.538692
    0.511264     0.432904     0.538692
    0.439513     0.468579     0.461308
    0.451353     0.547677     0.461308
    0.530421     0.560887     0.461308
    0.567448     0.489953     0.461308
    0.511264     0.432904     0.461308
    0.648110     0.518175     0.500000
    0.563096     0.365098     0.500000
    0.390886     0.398451     0.500000
    0.369468     0.572141     0.500000
    0.528441     0.646134     0.500000
    0.588291     0.661463     0.598889
    0.681218     0.466129     0.598889
    0.523708     0.317604     0.598889
    0.333435     0.421144     0.598889
    0.373349     0.633660     0.598889
    0.588291     0.661463     0.401111
    0.681218     0.466129     0.401111
    0.523708     0.317604     0.401111
    0.333435     0.421144     0.401111
    0.373349     0.633660     0.401111
    0.500000     0.500000     0.670961
    0.500000     0.500000     0.329039
    0.500000     0.500000     0.500000
EA3    15.821 14.933 15.073 90.00 90.00 90.00 Sym.group:    0
1.0000
   15.821328     0.000000     0.000000
    0.000000    14.932675     0.000000
    0.000000     0.000000    15.072667
   O  Cu
  24   24 
Direct
    0.533213     0.589283     0.383787
    0.533213     0.443055     0.365291
    0.533213     0.353772     0.481503
    0.533213     0.410717     0.616213
    0.533213     0.556945     0.634709
    0.533213     0.646228     0.518497
    0.466787     0.589283     0.383787
    0.466787     0.443055     0.365291
    0.466787     0.353772     0.481503
    0.466787     0.410717     0.616213
    0.466787     0.556945     0.634709
    0.466787     0.646228     0.518497
    0.528656     0.335506     0.552954
    0.528656     0.464043     0.667610
    0.528656     0.628537     0.614656
    0.528656     0.664494     0.447046
    0.528656     0.535957     0.332390
    0.528656     0.371463     0.385344
    0.471344     0.335506     0.552954
    0.471344     0.464043     0.667610
    0.471344     0.628537     0.614656
    0.471344     0.664494     0.447046
    0.471344     0.535957     0.332390
    0.471344     0.371463     0.385344
    0.578445     0.464504     0.626696
    0.578445     0.593003     0.593803
    0.578445     0.628499     0.467107
    0.578445     0.535496     0.373304
    0.578445     0.406997     0.406197
    0.578445     0.371501     0.532893
    0.421555     0.464504     0.626696
    0.421555     0.593003     0.593803
    0.421555     0.628499     0.467107
    0.421555     0.535496     0.373304
    0.421555     0.406997     0.406197
    0.421555     0.371501     0.532893
    0.683339     0.436992     0.488076
    0.683339     0.458073     0.548098
    0.683339     0.521080     0.560022
    0.683339     0.563008     0.511924
    0.683339     0.541927     0.451902
    0.683339     0.478920     0.439978
    0.316661     0.436992     0.488076
    0.316661     0.458073     0.548098
    0.316661     0.521080     0.560022
    0.316661     0.563008     0.511924
    0.316661     0.541927     0.451902
    0.316661     0.478920     0.439978
EA4    30.096 14.883 15.210 90.00 90.00 90.00 Sym.group:    0
1.0000
   30.095955     0.000000     0.000000
    0.000000    14.882893     0.000000
    0.000000     0.000000    15.210459
   O  Cu
  24   24 
Direct
    0.509699     0.508751     0.607671
    0.509699     0.590923     0.438749
    0.509699     0.400327     0.453580
    0.482775     0.395263     0.465883
    0.482775     0.582565     0.428307
    0.482775     0.522172     0.605810
    0.509699     0.417435     0.571693
    0.509699     0.604737     0.534117
    0.509699     0.477828     0.394190
    0.482775     0.409077     0.561251
    0.482775     0.491249     0.392329
    0.482775     0.599673     0.546420
    0.638551     0.546114     0.387945
    0.638551     0.377765     0.516951
    0.638551     0.576121     0.595103
    0.353923     0.622235     0.483049
    0.353923     0.453886     0.612055
    0.353923     0.423879     0.404897
    0.372975     0.367952     0.518312
    0.372975     0.582232     0.602738
    0.372975     0.549816     0.378949
    0.619498     0.450184     0.621051
    0.619498     0.417768     0.397262
    0.619498     0.632048     0.481688
    0.262765     0.519333     0.453023
    0.262765     0.448755     0.507107
    0.262765     0.531912     0.539870
    0.729708     0.551245     0.492893
    0.729708     0.480667     0.546977
    0.729708     0.468088     0.460130
    0.166468     0.472434     0.566983
    0.166468     0.573068     0.489867
    0.166468     0.454497     0.443150
    0.826006     0.426932     0.510133
    0.826006     0.527566     0.433017
    0.826006     0.545503     0.556850
    0.676875     0.500000     0.500000
    0.496237     0.524715     0.670621
    0.496237     0.361343     0.606253
    0.496237     0.638657     0.393747
    0.496237     0.663372     0.564368
    0.496237     0.336628     0.435632
    0.496237     0.475285     0.329379
    0.439914     0.500000     0.500000
    0.552560     0.500000     0.500000
    0.627538     0.500000     0.500000
    0.364935     0.500000     0.500000
    0.496237     0.500000     0.500000
EA5    16.142 16.157 15.860 90.00 90.00 90.00 Sym.group:    0
1.0000
   16.141897     0.000000     0.000000
    0.000000    16.156637     0.000000
    0.000000     0.000000    15.860140
   O  Cu
  24   24 
Direct
    0.510234     0.637526     0.568095
    0.372248     0.552222     0.568095
    0.410811     0.394749     0.568095
    0.572630     0.382730     0.568095
    0.634077     0.532774     0.568095
    0.465165     0.366559     0.431905
    0.362209     0.491865     0.431905
    0.449676     0.628413     0.431905
    0.606689     0.587499     0.431905
    0.616261     0.425664     0.431905
    0.510234     0.637526     0.431905
    0.372248     0.552222     0.431905
    0.410811     0.394749     0.431905
    0.572630     0.382730     0.431905
    0.634077     0.532774     0.431905
    0.465165     0.366559     0.568095
    0.362209     0.491865     0.568095
    0.449676     0.628413     0.568095
    0.606689     0.587499     0.568095
    0.616261     0.425664     0.568095
    0.475004     0.312996     0.377878
    0.670290     0.418462     0.377878
    0.630241     0.636611     0.377878
    0.410203     0.665969     0.377878
    0.314262     0.465963     0.377878
    0.536884     0.685031     0.622122
    0.687533     0.522131     0.622122
    0.579018     0.328647     0.622122
    0.361303     0.371967     0.622122
    0.335262     0.592224     0.622122
    0.475004     0.312996     0.622122
    0.670290     0.418462     0.622122
    0.630241     0.636611     0.622122
    0.410203     0.665969     0.622122
    0.314262     0.465963     0.622122
    0.536884     0.685031     0.377878
    0.687533     0.522131     0.377878
    0.579018     0.328647     0.377878
    0.361303     0.371967     0.377878
    0.335262     0.592224     0.377878
    0.671934     0.585889     0.500000
    0.471371     0.689911     0.500000
    0.310372     0.531483     0.500000
    0.411433     0.329547     0.500000
    0.634890     0.363171     0.500000
    0.500000     0.500000     0.315886
    0.500000     0.500000     0.684114
    0.500000     0.500000     0.500000
EA6    18.907 16.349 14.720 90.00 90.00 90.00 Sym.group:    0
1.0000
   18.907449     0.000000     0.000000
    0.000000    16.349188     0.000000
    0.000000     0.000000    14.720102
   O  Cu
  24   24 
Direct
    0.530464     0.511842     0.582814
    0.530464     0.488158     0.417186
    0.474409     0.488158     0.582814
    0.474409     0.511842     0.417186
    0.586741     0.440388     0.546082
    0.586741     0.559612     0.453918
    0.418132     0.559612     0.546082
    0.418132     0.440388     0.453918
    0.735025     0.441062     0.462980
    0.735025     0.558938     0.537020
    0.269848     0.558938     0.462980
    0.269848     0.441062     0.537020
    0.507371     0.417172     0.659649
    0.507371     0.582828     0.340351
    0.497502     0.582828     0.659649
    0.497502     0.417172     0.340351
    0.572244     0.406396     0.463879
    0.572244     0.593604     0.536121
    0.432629     0.593604     0.463879
    0.432629     0.406396     0.536121
    0.376309     0.407583     0.598244
    0.376309     0.592417     0.401756
    0.628565     0.592417     0.598244
    0.628565     0.407583     0.401756
    0.385479     0.500000     0.500000
    0.616515     0.371768     0.451253
    0.616515     0.628232     0.548747
    0.388358     0.628232     0.451253
    0.388358     0.371768     0.548747
    0.595367     0.693563     0.596773
    0.595367     0.306437     0.403227
    0.409507     0.306437     0.596773
    0.409507     0.693563     0.403227
    0.393750     0.504204     0.366804
    0.393750     0.495796     0.633196
    0.611123     0.495796     0.366804
    0.611123     0.504204     0.633196
    0.701308     0.449277     0.564134
    0.701308     0.550723     0.435866
    0.303565     0.550723     0.564134
    0.303565     0.449277     0.435866
    0.635832     0.598714     0.411115
    0.635832     0.401286     0.588885
    0.369042     0.401286     0.411115
    0.369042     0.598714     0.588885
    0.502437     0.329652     0.500000
    0.502437     0.670348     0.500000
    0.502437     0.500000     0.500000
EA7    17.801 17.801 17.801 90.00 90.00 90.00 Sym.group:    0
1.0000
   17.800920     0.000000     0.000000
    0.000000    17.800920     0.000000
    0.000000     0.000000    17.800920
   O  Cu
  24   24 
Direct
    0.448415     0.713733     0.605484
    0.448415     0.605484     0.286267
    0.448415     0.286267     0.394516
    0.448415     0.394516     0.713733
    0.605484     0.713733     0.551585
    0.551585     0.713733     0.394516
    0.394516     0.713733     0.448415
    0.286267     0.448415     0.605484
    0.551585     0.286267     0.605484
    0.713733     0.551585     0.605484
    0.551585     0.605484     0.713733
    0.551585     0.394516     0.286267
    0.394516     0.286267     0.551585
    0.605484     0.286267     0.448415
    0.286267     0.551585     0.394516
    0.713733     0.448415     0.394516
    0.394516     0.551585     0.713733
    0.286267     0.605484     0.551585
    0.605484     0.448415     0.713733
    0.713733     0.605484     0.448415
    0.394516     0.448415     0.286267
    0.713733     0.394516     0.551585
    0.605484     0.551585     0.286267
    0.286267     0.394516     0.448415
    0.551585     0.286267     0.394516
    0.551585     0.394516     0.713733
    0.551585     0.713733     0.605484
    0.551585     0.605484     0.286267
    0.394516     0.286267     0.448415
    0.448415     0.286267     0.605484
    0.605484     0.286267     0.551585
    0.713733     0.551585     0.394516
    0.448415     0.713733     0.394516
    0.286267     0.448415     0.394516
    0.448415     0.394516     0.286267
    0.448415     0.605484     0.713733
    0.605484     0.713733     0.448415
    0.394516     0.713733     0.551585
    0.713733     0.448415     0.605484
    0.286267     0.551585     0.605484
    0.605484     0.448415     0.286267
    0.713733     0.394516     0.448415
    0.394516     0.551585     0.286267
    0.286267     0.394516     0.551585
    0.605484     0.551585     0.713733
    0.286267     0.605484     0.448415
    0.394516     0.448415     0.713733
    0.713733     0.605484     0.551585
EA8    16.948 17.008 15.311 90.00 90.00 90.00 Sym.group:    0
1.0000
   16.948356     0.000000     0.000000
    0.000000    17.008456     0.000000
    0.000000     0.000000    15.310648
   O  Cu
  24   24 
Direct
    0.626780     0.337756     0.601848
    0.295604     0.471715     0.601848
    0.577616     0.690529     0.601848
    0.325861     0.610330     0.398152
    0.491182     0.294559     0.398152
    0.682957     0.595111     0.398152
    0.508818     0.705441     0.601848
    0.674139     0.389670     0.601848
    0.317043     0.404889     0.601848
    0.704396     0.528285     0.398152
    0.373220     0.662244     0.398152
    0.422384     0.309471     0.398152
    0.338231     0.481129     0.327223
    0.564484     0.649037     0.327223
    0.597286     0.369834     0.327223
    0.496532     0.337738     0.672777
    0.642755     0.578138     0.672777
    0.360713     0.584123     0.672777
    0.357245     0.421862     0.327223
    0.503468     0.662262     0.327223
    0.639287     0.415877     0.327223
    0.435516     0.350963     0.672777
    0.661769     0.518871     0.672777
    0.402714     0.630166     0.672777
    0.550147     0.601398     0.646287
    0.563051     0.406026     0.646287
    0.386802     0.492576     0.646287
    0.596527     0.559387     0.353713
    0.400124     0.553606     0.353713
    0.503349     0.387007     0.353713
    0.599876     0.446394     0.646287
    0.403473     0.440613     0.646287
    0.496651     0.612993     0.646287
    0.436949     0.593974     0.353713
    0.449853     0.398602     0.353713
    0.613198     0.507424     0.353713
    0.473965     0.670970     0.432055
    0.661607     0.436982     0.432055
    0.364428     0.392048     0.432055
    0.673274     0.490434     0.567945
    0.421676     0.654313     0.567945
    0.405049     0.355253     0.567945
    0.578324     0.345687     0.432055
    0.326726     0.509566     0.432055
    0.594951     0.644747     0.432055
    0.338393     0.563018     0.567945
    0.526035     0.329030     0.567945
    0.635572     0.607952     0.567945
EA9    19.174 15.921 15.841 90.00 90.00 90.00 Sym.group:    0
1.0000
   19.174099     0.000000     0.000000
    0.000000    15.920672     0.000000
    0.000000     0.000000    15.840848
   O  Cu
  24   24 
Direct
    0.387943     0.464628     0.366150
    0.387943     0.362409     0.492449
    0.387943     0.450336     0.629183
    0.387943     0.606897     0.587391
    0.387943     0.615730     0.424828
    0.680165     0.360474     0.499801
    0.680165     0.456696     0.633304
    0.680165     0.612763     0.582586
    0.680165     0.612996     0.417736
    0.680165     0.457072     0.366572
    0.708642     0.508878     0.612609
    0.708642     0.609304     0.526312
    0.708642     0.558676     0.403653
    0.708642     0.426960     0.414142
    0.708642     0.396183     0.543284
    0.480262     0.604544     0.530989
    0.480262     0.561631     0.409648
    0.480262     0.433546     0.413170
    0.480262     0.397299     0.536688
    0.480262     0.502981     0.609504
    0.529091     0.582501     0.341764
    0.529091     0.375758     0.372244
    0.529091     0.340713     0.579278
    0.529091     0.525797     0.676753
    0.529091     0.675231     0.529961
    0.523720     0.482382     0.553777
    0.523720     0.545444     0.533458
    0.523720     0.545704     0.466901
    0.523720     0.482802     0.446086
    0.523720     0.443667     0.499778
    0.261290     0.500000     0.500000
    0.354212     0.572402     0.339316
    0.354212     0.370320     0.381140
    0.354212     0.347451     0.587225
    0.354212     0.535400     0.672768
    0.354212     0.674427     0.519551
    0.649612     0.500000     0.500000
    0.368975     0.504323     0.557941
    0.368975     0.556164     0.513772
    0.368975     0.530388     0.450571
    0.368975     0.462617     0.455679
    0.368975     0.446507     0.522037
    0.476581     0.314685     0.521345
    0.476581     0.462933     0.683729
    0.476581     0.662406     0.592205
    0.476581     0.637439     0.373257
    0.476581     0.422536     0.329463
    0.541147     0.500000     0.500000
EA10   22.429 22.899 12.412 90.00 90.00 90.00 Sym.group:    0
1.0000
   22.429308     0.000000     0.000000
    0.000000    22.899117     0.000000
    0.000000     0.000000    12.411979
   O  Cu
  24   24 
Direct
    0.640437     0.579515     0.537349
    0.620605     0.393748     0.537349
    0.434101     0.354818     0.537349
    0.338667     0.516524     0.537349
    0.466190     0.655395     0.537349
    0.353480     0.568177     0.462651
    0.388524     0.384579     0.462651
    0.577624     0.360488     0.462651
    0.659450     0.529199     0.462651
    0.520922     0.657557     0.462651
    0.640437     0.579515     0.462651
    0.620605     0.393748     0.462651
    0.434101     0.354818     0.462651
    0.338667     0.516524     0.462651
    0.466190     0.655395     0.462651
    0.353480     0.568177     0.537349
    0.388524     0.384579     0.537349
    0.577624     0.360488     0.537349
    0.659450     0.529199     0.537349
    0.520922     0.657557     0.537349
    0.474484     0.362437     0.440253
    0.358545     0.481260     0.440253
    0.438092     0.625981     0.440253
    0.603194     0.596600     0.440253
    0.625686     0.433721     0.440253
    0.536745     0.364897     0.559747
    0.642537     0.492481     0.559747
    0.551347     0.630456     0.559747
    0.389198     0.588145     0.559747
    0.380173     0.424021     0.559747
    0.474484     0.362437     0.559747
    0.358545     0.481260     0.559747
    0.438092     0.625981     0.559747
    0.603194     0.596600     0.559747
    0.625686     0.433721     0.559747
    0.536745     0.364897     0.440253
    0.642537     0.492481     0.440253
    0.551347     0.630456     0.440253
    0.389198     0.588145     0.440253
    0.380173     0.424021     0.440253
    0.659387     0.734175     0.500000
    0.776632     0.423888     0.500000
    0.511581     0.218786     0.500000
    0.230526     0.402312     0.500000
    0.321875     0.720840     0.500000
    0.500000     0.500000     0.403642
    0.500000     0.500000     0.596358
    0.500000     0.500000     0.500000
EA11   19.345 15.085 14.885 90.00 90.00 90.00 Sym.group:    0
1.0000
   19.345105     0.000000     0.000000
    0.000000    15.085139     0.000000
    0.000000     0.000000    14.884679
   O  Cu
  24   24 
Direct
    0.500000     0.562343     0.356441
    0.500000     0.653983     0.515728
    0.500000     0.532824     0.653279
    0.500000     0.366303     0.579004
    0.500000     0.384547     0.395548
    0.368034     0.546193     0.539249
    0.368034     0.477442     0.556652
    0.368034     0.439866     0.495764
    0.368034     0.485393     0.440730
    0.368034     0.551107     0.467605
    0.631966     0.546193     0.539249
    0.631966     0.477442     0.556652
    0.631966     0.439866     0.495764
    0.631966     0.485393     0.440730
    0.631966     0.551107     0.467605
    0.310102     0.430952     0.394324
    0.310102     0.577832     0.400791
    0.310102     0.617151     0.544362
    0.310102     0.494571     0.626626
    0.310102     0.379494     0.533897
    0.689898     0.430952     0.394324
    0.689898     0.577832     0.400791
    0.689898     0.617151     0.544362
    0.689898     0.494571     0.626626
    0.689898     0.379494     0.533897
    0.258980     0.459274     0.396069
    0.258980     0.584946     0.428629
    0.258980     0.593226     0.559822
    0.258980     0.472670     0.608343
    0.258980     0.389884     0.507138
    0.741020     0.459274     0.396069
    0.741020     0.584946     0.428629
    0.741020     0.593226     0.559822
    0.741020     0.472670     0.608343
    0.741020     0.389884     0.507138
    0.344334     0.452961     0.336588
    0.344334     0.638813     0.404163
    0.344334     0.632831     0.604182
    0.344334     0.443281     0.660225
    0.344334     0.332115     0.494842
    0.655666     0.452961     0.336588
    0.655666     0.638813     0.404163
    0.655666     0.632831     0.604182
    0.655666     0.443281     0.660225
    0.655666     0.332115     0.494842
    0.396598     0.500000     0.500000
    0.603402     0.500000     0.500000
    0.500000     0.500000     0.500000
EA12   17.800 16.887 17.188 90.00 90.00 90.00 Sym.group:    0
1.0000
   17.800416     0.000000     0.000000
    0.000000    16.886522     0.000000
    0.000000     0.000000    17.188038
   O  Cu
  24   24 
Direct
    0.421622     0.691560     0.579946
    0.421622     0.474691     0.297041
    0.421622     0.333749     0.623013
    0.578378     0.691560     0.579946
    0.578378     0.474691     0.297041
    0.578378     0.333749     0.623013
    0.339163     0.534012     0.610932
    0.339163     0.580779     0.415595
    0.339163     0.385209     0.473473
    0.660837     0.534012     0.610932
    0.660837     0.580779     0.415595
    0.660837     0.385209     0.473473
    0.419932     0.397495     0.355913
    0.419932     0.424241     0.659258
    0.419932     0.678264     0.484829
    0.580068     0.397495     0.355913
    0.580068     0.424241     0.659258
    0.580068     0.678264     0.484829
    0.594899     0.593978     0.392945
    0.594899     0.358643     0.473568
    0.594899     0.547379     0.633488
    0.405101     0.593978     0.392945
    0.405101     0.358643     0.473568
    0.405101     0.547379     0.633488
    0.718546     0.500000     0.500000
    0.281454     0.500000     0.500000
    0.605181     0.618989     0.624116
    0.605181     0.549913     0.336702
    0.605181     0.331099     0.539181
    0.394819     0.618989     0.624116
    0.394819     0.549913     0.336702
    0.394819     0.331099     0.539181
    0.373572     0.459358     0.338663
    0.373572     0.378104     0.615249
    0.373572     0.662538     0.546089
    0.626428     0.459358     0.338663
    0.626428     0.378104     0.615249
    0.626428     0.662538     0.546089
    0.500000     0.296686     0.571064
    0.500000     0.664299     0.637454
    0.500000     0.539015     0.291482
    0.359464     0.640220     0.498583
    0.359464     0.428641     0.381404
    0.359464     0.431138     0.620013
    0.640536     0.640220     0.498583
    0.640536     0.428641     0.381404
    0.640536     0.431138     0.620013
    0.500000     0.500000     0.500000
EA13   15.224 15.519 15.410 90.00 90.00 90.00 Sym.group:    0
1.0000
   15.224292     0.000000     0.000000
    0.000000    15.518774     0.000000
    0.000000     0.000000    15.409579
   O  Cu
  24   24 
Direct
    0.642109     0.603978     0.447129
    0.642109     0.506524     0.382879
    0.642109     0.402546     0.435750
    0.642109     0.396022     0.552871
    0.642109     0.493476     0.617121
    0.642109     0.597454     0.564250
    0.357891     0.453294     0.392538
    0.357891     0.569057     0.405534
    0.357891     0.615763     0.512996
    0.357891     0.546706     0.607462
    0.357891     0.430943     0.594466
    0.357891     0.384237     0.487004
    0.514301     0.583104     0.342298
    0.514301     0.405939     0.348668
    0.514301     0.322835     0.506371
    0.514301     0.416896     0.657702
    0.514301     0.594061     0.651332
    0.514301     0.677165     0.493629
    0.485699     0.535696     0.325122
    0.485699     0.668231     0.443694
    0.485699     0.632535     0.618572
    0.485699     0.464304     0.674878
    0.485699     0.331769     0.556306
    0.485699     0.367465     0.381428
    0.329079     0.591984     0.577983
    0.329079     0.613052     0.458766
    0.329079     0.521068     0.380783
    0.329079     0.408016     0.422017
    0.329079     0.386948     0.541234
    0.329079     0.478932     0.619217
    0.670921     0.379767     0.501099
    0.670921     0.438939     0.395687
    0.670921     0.559172     0.394588
    0.670921     0.620233     0.498901
    0.670921     0.561061     0.604313
    0.670921     0.440828     0.605412
    0.571677     0.562388     0.650269
    0.571677     0.660415     0.520722
    0.571677     0.598027     0.370453
    0.571677     0.437612     0.349731
    0.571677     0.339585     0.479278
    0.571677     0.401973     0.629547
    0.428323     0.356856     0.575807
    0.428323     0.363239     0.413058
    0.428323     0.506383     0.337251
    0.428323     0.643144     0.424193
    0.428323     0.636761     0.586942
    0.428323     0.493617     0.662749
EA14   19.039 16.174 16.703 90.00 90.00 90.00 Sym.group:    0
1.0000
   19.039266     0.000000     0.000000
    0.000000    16.173912     0.000000
    0.000000     0.000000    16.702645
   O  Cu
  24   24 
Direct
    0.579692     0.626410     0.492060
    0.579692     0.429694     0.397961
    0.579692     0.443896     0.609979
    0.420308     0.570306     0.397961
    0.420308     0.556104     0.609979
    0.420308     0.373590     0.492060
    0.420308     0.626410     0.492060
    0.420308     0.429694     0.397961
    0.420308     0.443896     0.609979
    0.579692     0.570306     0.397961
    0.579692     0.556104     0.609979
    0.579692     0.373590     0.492060
    0.652188     0.418943     0.583340
    0.652188     0.615063     0.526305
    0.652188     0.465994     0.390354
    0.347812     0.384937     0.526305
    0.347812     0.534006     0.390354
    0.347812     0.581057     0.583340
    0.347812     0.418943     0.583340
    0.347812     0.615063     0.526305
    0.347812     0.465994     0.390354
    0.652188     0.384937     0.526305
    0.652188     0.534006     0.390354
    0.652188     0.581057     0.583340
    0.736860     0.500000     0.500000
    0.263140     0.500000     0.500000
    0.431341     0.586990     0.662876
    0.431341     0.602171     0.345611
    0.431341     0.310839     0.491512
    0.568659     0.397829     0.345611
    0.568659     0.689161     0.491512
    0.568659     0.413010     0.662876
    0.568659     0.586990     0.662876
    0.568659     0.602171     0.345611
    0.568659     0.310839     0.491512
    0.431341     0.397829     0.345611
    0.431341     0.689161     0.491512
    0.431341     0.413010     0.662876
    0.500000     0.645139     0.631575
    0.500000     0.545103     0.312498
    0.500000     0.309758     0.555927
    0.500000     0.454897     0.312498
    0.500000     0.690242     0.555927
    0.500000     0.354861     0.631575
    0.500000     0.500000     0.700048
    0.500000     0.678910     0.399976
    0.500000     0.321090     0.399976
    0.500000     0.500000     0.500000
EA15   29.307 20.001 11.069 90.00 90.00 90.00 Sym.group:    0
1.0000
   29.307450     0.000000     0.000000
    0.000000    20.001483     0.000000
    0.000000     0.000000    11.068557
   O  Cu
  24   24 
Direct
    0.727087     0.407986     0.463497
    0.727087     0.592014     0.536503
    0.272913     0.407986     0.463497
    0.272913     0.592014     0.536503
    0.304304     0.585560     0.540432
    0.304304     0.414440     0.459568
    0.695696     0.585560     0.540432
    0.695696     0.414440     0.459568
    0.605873     0.265143     0.490658
    0.605873     0.734857     0.509342
    0.394127     0.265143     0.490658
    0.394127     0.734857     0.509342
    0.449782     0.657163     0.523798
    0.449782     0.342837     0.476202
    0.550218     0.657163     0.523798
    0.550218     0.342837     0.476202
    0.253738     0.621526     0.477967
    0.253738     0.378474     0.522033
    0.746262     0.621526     0.477967
    0.746262     0.378474     0.522033
    0.325184     0.500000     0.500000
    0.674816     0.500000     0.500000
    0.467738     0.377469     0.505379
    0.467738     0.622531     0.494621
    0.532262     0.377469     0.505379
    0.532262     0.622531     0.494621
    0.180463     0.613966     0.533114
    0.180463     0.386034     0.466886
    0.819537     0.613966     0.533114
    0.819537     0.386034     0.466886
    0.677394     0.437459     0.523663
    0.677394     0.562541     0.476337
    0.322606     0.437459     0.523663
    0.322606     0.562541     0.476337
    0.421395     0.304890     0.535914
    0.421395     0.695110     0.464086
    0.578605     0.304890     0.535914
    0.578605     0.695110     0.464086
    0.605734     0.500000     0.500000
    0.394266     0.500000     0.500000
    0.829054     0.500000     0.500000
    0.170946     0.500000     0.500000
    0.543455     0.539022     0.530930
    0.543455     0.460978     0.469070
    0.456545     0.539022     0.530930
    0.456545     0.460978     0.469070
    0.500000     0.250481     0.547366
    0.500000     0.749519     0.452634
EA16   17.801 17.801 17.801 90.00 90.00 90.00 Sym.group:    0
1.0000
   17.800920     0.000000     0.000000
    0.000000    17.800920     0.000000
    0.000000     0.000000    17.800920
   O  Cu
  24   24 
Direct
    0.676850     0.287238     0.364939
    0.676850     0.712762     0.635061
    0.323150     0.712762     0.364939
    0.323150     0.287238     0.635061
    0.287238     0.364939     0.676850
    0.364939     0.676850     0.287238
    0.712762     0.364939     0.323150
    0.635061     0.323150     0.287238
    0.287238     0.635061     0.323150
    0.635061     0.676850     0.712762
    0.712762     0.635061     0.676850
    0.364939     0.323150     0.712762
    0.323150     0.712762     0.635061
    0.323150     0.287238     0.364939
    0.676850     0.287238     0.635061
    0.676850     0.712762     0.364939
    0.712762     0.635061     0.323150
    0.635061     0.323150     0.712762
    0.287238     0.635061     0.676850
    0.364939     0.676850     0.712762
    0.712762     0.364939     0.676850
    0.364939     0.323150     0.287238
    0.287238     0.364939     0.323150
    0.635061     0.676850     0.287238
    0.653351     0.378626     0.536088
    0.653351     0.621374     0.463912
    0.346649     0.621374     0.536088
    0.346649     0.378626     0.463912
    0.378626     0.536088     0.653351
    0.536088     0.653351     0.378626
    0.621374     0.536088     0.346649
    0.463912     0.346649     0.378626
    0.378626     0.463912     0.346649
    0.463912     0.653351     0.621374
    0.621374     0.463912     0.653351
    0.536088     0.346649     0.621374
    0.346649     0.621374     0.463912
    0.346649     0.378626     0.536088
    0.653351     0.378626     0.463912
    0.653351     0.621374     0.536088
    0.621374     0.463912     0.346649
    0.463912     0.346649     0.621374
    0.378626     0.463912     0.653351
    0.536088     0.653351     0.621374
    0.621374     0.536088     0.653351
    0.536088     0.346649     0.378626
    0.378626     0.536088     0.346649
    0.463912     0.653351     0.378626
EA17   18.591 18.591 12.153 90.00 90.00 90.00 Sym.group:    0
1.0000
   18.591147     0.000000     0.000000
    0.000000    18.591147     0.000000
    0.000000     0.000000    12.152619
   O  Cu
  24   24 
Direct
    0.612956     0.566376     0.507697
    0.387044     0.433624     0.507697
    0.433624     0.612956     0.492303
    0.566376     0.387044     0.492303
    0.315748     0.338770     0.566770
    0.684252     0.661230     0.566770
    0.582498     0.269483     0.433230
    0.417502     0.730517     0.433230
    0.269483     0.417502     0.566770
    0.730517     0.582498     0.566770
    0.661230     0.315748     0.433230
    0.338770     0.684252     0.433230
    0.407530     0.491486     0.587054
    0.592470     0.508514     0.587054
    0.576637     0.447561     0.412946
    0.423363     0.552439     0.412946
    0.447561     0.423363     0.587054
    0.552439     0.576637     0.587054
    0.508514     0.407530     0.412946
    0.491486     0.592470     0.412946
    0.602426     0.620780     0.587743
    0.397574     0.379220     0.587743
    0.469300     0.655359     0.412257
    0.530700     0.344641     0.412257
    0.655359     0.530700     0.587743
    0.344641     0.469300     0.587743
    0.379220     0.602426     0.412257
    0.620780     0.397574     0.412257
    0.449714     0.307468     0.575399
    0.550286     0.692532     0.575399
    0.450233     0.307333     0.424601
    0.549767     0.692667     0.424601
    0.307333     0.549767     0.575399
    0.692667     0.450233     0.575399
    0.692532     0.449714     0.424601
    0.307468     0.550286     0.424601
    0.538018     0.633236     0.576017
    0.461982     0.366764     0.576017
    0.531628     0.634896     0.423983
    0.468372     0.365104     0.423983
    0.634896     0.468372     0.576017
    0.365104     0.531628     0.576017
    0.366764     0.538018     0.423983
    0.633236     0.461982     0.423983
    0.328616     0.544516     0.500000
    0.455484     0.328616     0.500000
    0.671384     0.455484     0.500000
    0.544516     0.671384     0.500000
EA18   16.629 15.143 15.055 90.00 90.00 90.00 Sym.group:    0
1.0000
   16.629260     0.000000     0.000000
    0.000000    15.142548     0.000000
    0.000000     0.000000    15.055141
   O  Cu
  24   24 
Direct
    0.472923     0.500000     0.500000
    0.527077     0.500000     0.500000
    0.500000     0.428141     0.541729
    0.500000     0.428141     0.458271
    0.500000     0.500000     0.416543
    0.500000     0.571859     0.458271
    0.500000     0.571859     0.541729
    0.500000     0.500000     0.583457
    0.698724     0.500000     0.500000
    0.301276     0.500000     0.500000
    0.500000     0.550321     0.667223
    0.500000     0.381177     0.627444
    0.500000     0.330856     0.460221
    0.500000     0.449679     0.332777
    0.500000     0.618823     0.372556
    0.500000     0.669144     0.539779
    0.500000     0.618823     0.627444
    0.500000     0.669144     0.460221
    0.500000     0.550321     0.332777
    0.500000     0.381177     0.372556
    0.500000     0.330856     0.539779
    0.500000     0.449679     0.667223
    0.324649     0.595051     0.592295
    0.324649     0.468057     0.628942
    0.324649     0.373006     0.536647
    0.324649     0.404949     0.407705
    0.324649     0.531943     0.371058
    0.324649     0.626994     0.463353
    0.675351     0.531943     0.628942
    0.675351     0.626994     0.536647
    0.675351     0.595051     0.407705
    0.675351     0.468057     0.371058
    0.675351     0.373006     0.463353
    0.675351     0.404949     0.592295
    0.675351     0.595051     0.592295
    0.675351     0.468057     0.628942
    0.675351     0.373006     0.536647
    0.675351     0.404949     0.407705
    0.675351     0.531943     0.371058
    0.675351     0.626994     0.463353
    0.324649     0.531943     0.628942
    0.324649     0.626994     0.536647
    0.324649     0.595051     0.407705
    0.324649     0.468057     0.371058
    0.324649     0.373006     0.463353
    0.324649     0.404949     0.592295
    0.594916     0.500000     0.500000
    0.405084     0.500000     0.500000
EA19   16.148 14.353 14.463 90.00 90.00 90.00 Sym.group:    0
1.0000
   16.147664     0.000000     0.000000
    0.000000    14.352551     0.000000
    0.000000     0.000000    14.462566
   O  Cu
  24   24 
Direct
    0.500000     0.642802     0.438281
    0.500000     0.517541     0.346412
    0.500000     0.374739     0.408130
    0.500000     0.357198     0.561719
    0.500000     0.482459     0.653588
    0.500000     0.625261     0.591870
    0.331463     0.349067     0.503920
    0.331463     0.427955     0.631678
    0.331463     0.578888     0.627757
    0.331463     0.650933     0.496080
    0.331463     0.572045     0.368322
    0.331463     0.421112     0.372243
    0.668537     0.349067     0.503920
    0.668537     0.427955     0.631678
    0.668537     0.578888     0.627757
    0.668537     0.650933     0.496080
    0.668537     0.572045     0.368322
    0.668537     0.421112     0.372243
    0.438646     0.433895     0.630813
    0.438646     0.581103     0.622220
    0.438646     0.647208     0.491407
    0.438646     0.566105     0.369187
    0.438646     0.418897     0.377780
    0.438646     0.352792     0.508593
    0.561354     0.433895     0.630813
    0.561354     0.581103     0.622220
    0.561354     0.647208     0.491407
    0.561354     0.566105     0.369187
    0.561354     0.418897     0.377780
    0.561354     0.352792     0.508593
    0.500000     0.471016     0.591205
    0.500000     0.565099     0.570513
    0.500000     0.594084     0.479308
    0.500000     0.528984     0.408795
    0.500000     0.434901     0.429487
    0.500000     0.405916     0.520692
    0.689738     0.502819     0.404077
    0.689738     0.417701     0.449616
    0.689738     0.414882     0.545539
    0.689738     0.497181     0.595923
    0.689738     0.582299     0.550384
    0.689738     0.585118     0.454461
    0.310262     0.502819     0.404077
    0.310262     0.417701     0.449616
    0.310262     0.414882     0.545539
    0.310262     0.497181     0.595923
    0.310262     0.582299     0.550384
    0.310262     0.585118     0.454461
EA20   18.688 17.641 15.075 90.00 90.00 90.00 Sym.group:    0
1.0000
   18.687949     0.000000     0.000000
    0.000000    17.641348     0.000000
    0.000000     0.000000    15.074657
   O  Cu
  24   24 
Direct
    0.587975     0.672325     0.621494
    0.684867     0.505454     0.378506
    0.596892     0.333129     0.621494
    0.412025     0.327675     0.378506
    0.315133     0.494546     0.621494
    0.403108     0.666871     0.378506
    0.477839     0.483182     0.443661
    0.475171     0.511922     0.556339
    0.497332     0.528739     0.443661
    0.522161     0.516818     0.556339
    0.524829     0.488078     0.443661
    0.502668     0.471261     0.556339
    0.558574     0.432052     0.599881
    0.473737     0.412290     0.400119
    0.415164     0.480238     0.599881
    0.441426     0.567948     0.400119
    0.526263     0.587710     0.599881
    0.584836     0.519762     0.400119
    0.576128     0.460231     0.491269
    0.505551     0.410276     0.508731
    0.429424     0.450045     0.491269
    0.423872     0.539769     0.508731
    0.494449     0.589724     0.491269
    0.570576     0.549955     0.508731
    0.710361     0.494966     0.584803
    0.601065     0.304497     0.415197
    0.390704     0.309531     0.584803
    0.289639     0.505034     0.415197
    0.398935     0.695503     0.584803
    0.609296     0.690469     0.415197
    0.621271     0.709507     0.474432
    0.731913     0.493499     0.525568
    0.610642     0.283992     0.474432
    0.378729     0.290493     0.525568
    0.268087     0.506501     0.474432
    0.389358     0.716008     0.525568
    0.420021     0.577066     0.332346
    0.523014     0.611906     0.667654
    0.602993     0.534840     0.332346
    0.579979     0.422934     0.667654
    0.476986     0.388094     0.332346
    0.397007     0.465160     0.667654
    0.542402     0.379399     0.539461
    0.422607     0.400800     0.460539
    0.380205     0.521401     0.539461
    0.457598     0.620601     0.460539
    0.577393     0.599200     0.539461
    0.619795     0.478599     0.460539
EA21   17.801 17.801 17.801 90.00 90.00 90.00 Sym.group:    0
1.0000
   17.800920     0.000000     0.000000
    0.000000    17.800920     0.000000
    0.000000     0.000000    17.800920
   O  Cu
  24   24 
Direct
    0.427836     0.568062     0.639669
    0.639669     0.568062     0.572164
    0.572164     0.568062     0.360331
    0.360331     0.568062     0.427836
    0.472465     0.384450     0.623441
    0.645023     0.431938     0.560693
    0.600394     0.615550     0.576921
    0.368147     0.606599     0.475524
    0.354977     0.431938     0.439307
    0.414666     0.393401     0.603453
    0.439307     0.431938     0.645023
    0.560693     0.431938     0.354977
    0.399606     0.615550     0.423079
    0.527535     0.384450     0.376559
    0.631853     0.606599     0.524476
    0.585334     0.393401     0.396547
    0.423079     0.615550     0.600394
    0.475524     0.606599     0.631853
    0.376559     0.384450     0.472465
    0.603453     0.393401     0.585334
    0.576921     0.615550     0.399606
    0.396547     0.393401     0.414666
    0.623441     0.384450     0.527535
    0.524476     0.606599     0.368147
    0.619115     0.449076     0.311417
    0.311417     0.449076     0.380885
    0.380885     0.449076     0.688583
    0.688583     0.449076     0.619115
    0.501203     0.676391     0.354294
    0.287574     0.550924     0.431978
    0.405486     0.323609     0.389100
    0.683174     0.363478     0.487578
    0.712426     0.550924     0.568022
    0.648368     0.636522     0.391861
    0.568022     0.550924     0.287574
    0.431978     0.550924     0.712426
    0.594514     0.323609     0.610900
    0.498797     0.676391     0.645706
    0.316826     0.363478     0.512422
    0.351632     0.636522     0.608139
    0.610900     0.323609     0.405486
    0.487578     0.363478     0.316826
    0.645706     0.676391     0.501203
    0.391861     0.636522     0.351632
    0.389100     0.323609     0.594514
    0.608139     0.636522     0.648368
    0.354294     0.676391     0.498797
    0.512422     0.363478     0.683174
EA22   17.002 16.916 16.916 90.00 90.00 90.00 Sym.group:    0
1.0000
   17.002382     0.000000     0.000000
    0.000000    16.915846     0.000000
    0.000000     0.000000    16.915846
   O  Cu
  24   24 
Direct
    0.613586     0.354476     0.481316
    0.613586     0.481316     0.645524
    0.613586     0.645524     0.518684
    0.613586     0.518684     0.354476
    0.527505     0.322043     0.542907
    0.527505     0.542907     0.677957
    0.527505     0.677957     0.457093
    0.527505     0.457093     0.322043
    0.478077     0.387615     0.434559
    0.478077     0.434559     0.612385
    0.478077     0.612385     0.565441
    0.478077     0.565441     0.387615
    0.619017     0.417667     0.553273
    0.619017     0.553273     0.582333
    0.619017     0.582333     0.446727
    0.619017     0.446727     0.417667
    0.294665     0.546916     0.568119
    0.294665     0.568119     0.453084
    0.294665     0.453084     0.431881
    0.294665     0.431881     0.546916
    0.608895     0.497800     0.563664
    0.608895     0.563664     0.502200
    0.608895     0.502200     0.436336
    0.608895     0.436336     0.497800
    0.446499     0.418469     0.296172
    0.446499     0.296172     0.581531
    0.446499     0.581531     0.703828
    0.446499     0.703828     0.418469
    0.520445     0.356463     0.392374
    0.520445     0.392374     0.643537
    0.520445     0.643537     0.607626
    0.520445     0.607626     0.356463
    0.336218     0.468479     0.556837
    0.336218     0.556837     0.531521
    0.336218     0.531521     0.443163
    0.336218     0.443163     0.468479
    0.581812     0.593262     0.608303
    0.581812     0.608303     0.406738
    0.581812     0.406738     0.391697
    0.581812     0.391697     0.593262
    0.388723     0.611466     0.578007
    0.388723     0.578007     0.388534
    0.388723     0.388534     0.421993
    0.388723     0.421993     0.611466
    0.584559     0.468847     0.345457
    0.584559     0.345457     0.531153
    0.584559     0.531153     0.654543
    0.584559     0.654543     0.468847
EA23   16.322 16.110 15.721 90.00 90.00 90.00 Sym.group:    0
1.0000
   16.321978     0.000000     0.000000
    0.000000    16.109923     0.000000
    0.000000     0.000000    15.720778
   O  Cu
  24   24 
Direct
    0.433015     0.456965     0.663775
    0.496707     0.580291     0.663775
    0.570277     0.462743     0.663775
    0.483780     0.421338     0.663775
    0.575348     0.525100     0.663775
    0.440871     0.553563     0.663775
    0.693052     0.516785     0.470039
    0.417821     0.322219     0.470039
    0.389127     0.660996     0.470039
    0.447651     0.689012     0.470039
    0.364612     0.359562     0.470039
    0.687736     0.451426     0.470039
    0.563268     0.649220     0.484267
    0.595915     0.369877     0.484267
    0.340817     0.480903     0.484267
    0.615644     0.612462     0.484267
    0.346049     0.545238     0.484267
    0.538307     0.342300     0.484267
    0.503938     0.600060     0.478792
    0.583559     0.446515     0.478792
    0.412503     0.453425     0.478792
    0.591073     0.538906     0.478792
    0.421207     0.560457     0.478792
    0.487719     0.400637     0.478792
    0.406159     0.578704     0.412095
    0.614195     0.542986     0.412095
    0.479646     0.378310     0.412095
    0.605710     0.438656     0.412095
    0.499580     0.623424     0.412095
    0.394710     0.437920     0.412095
    0.547015     0.399184     0.318687
    0.390317     0.509157     0.318687
    0.562668     0.591660     0.318687
    0.522854     0.450992     0.434513
    0.446682     0.504451     0.434513
    0.530464     0.544557     0.434513
    0.388589     0.400134     0.496513
    0.470343     0.647688     0.496513
    0.641068     0.452178     0.496513
    0.446883     0.359223     0.496513
    0.646891     0.523783     0.496513
    0.406225     0.616995     0.496513
    0.635818     0.423511     0.617920
    0.366711     0.419074     0.617920
    0.497472     0.657414     0.617920
    0.381582     0.601939     0.617920
    0.472074     0.345128     0.617920
    0.646343     0.552933     0.617920
EA24   17.801 17.801 17.801 90.00 90.00 90.00 Sym.group:    0
1.0000
   17.800920     0.000000     0.000000
    0.000000    17.800920     0.000000
    0.000000     0.000000    17.800920
   O  Cu
  24   24 
Direct
    0.549998     0.349470     0.347209
    0.549998     0.650530     0.652791
    0.450002     0.366843     0.331852
    0.450002     0.633157     0.668148
    0.511593     0.693583     0.395618
    0.285827     0.470217     0.541800
    0.488407     0.627356     0.320695
    0.714173     0.545140     0.475573
    0.511593     0.306417     0.604382
    0.714173     0.454860     0.524427
    0.488407     0.372644     0.679305
    0.285827     0.529783     0.458200
    0.549998     0.331852     0.633157
    0.549998     0.668148     0.366843
    0.450002     0.347209     0.650530
    0.450002     0.652791     0.349470
    0.511593     0.679305     0.627356
    0.285827     0.475573     0.454860
    0.488407     0.604382     0.693583
    0.714173     0.541800     0.529783
    0.511593     0.320695     0.372644
    0.714173     0.458200     0.470217
    0.488407     0.395618     0.306417
    0.285827     0.524427     0.545140
    0.501730     0.473644     0.375837
    0.501730     0.526356     0.624163
    0.498270     0.380011     0.458601
    0.498270     0.619989     0.541399
    0.437516     0.583927     0.428124
    0.389515     0.457321     0.454330
    0.562484     0.581635     0.425531
    0.610485     0.459914     0.452038
    0.437516     0.416073     0.571876
    0.610485     0.540086     0.547962
    0.562484     0.418365     0.574469
    0.389515     0.542679     0.545670
    0.501730     0.458601     0.619989
    0.501730     0.541399     0.380011
    0.498270     0.375837     0.526356
    0.498270     0.624163     0.473644
    0.437516     0.574469     0.581635
    0.389515     0.452038     0.540086
    0.562484     0.571876     0.583927
    0.610485     0.454330     0.542679
    0.437516     0.425531     0.418365
    0.610485     0.545670     0.457321
    0.562484     0.428124     0.416073
    0.389515     0.547962     0.459914
EA25   17.801 17.801 17.801 90.00 90.00 90.00 Sym.group:    0
1.0000
   17.800920     0.000000     0.000000
    0.000000    17.800920     0.000000
    0.000000     0.000000    17.800920
   O  Cu
  24   24 
Direct
    0.468770     0.566156     0.345341
    0.468770     0.433844     0.654659
    0.531230     0.599903     0.635333
    0.531230     0.400097     0.364667
    0.645975     0.540684     0.579420
    0.416410     0.358614     0.547895
    0.354025     0.478641     0.586640
    0.583590     0.351394     0.485853
    0.645975     0.459316     0.420580
    0.583590     0.648606     0.514147
    0.354025     0.521359     0.413360
    0.416410     0.641386     0.452105
    0.531230     0.433844     0.654659
    0.531230     0.566156     0.345341
    0.468770     0.400097     0.364667
    0.468770     0.599903     0.635333
    0.354025     0.459316     0.420580
    0.583590     0.641386     0.452105
    0.645975     0.521359     0.413360
    0.416410     0.648606     0.514147
    0.354025     0.540684     0.579420
    0.416410     0.351394     0.485853
    0.645975     0.478641     0.586640
    0.583590     0.358614     0.547895
    0.346976     0.548930     0.693250
    0.346976     0.451070     0.306750
    0.653024     0.503244     0.300678
    0.653024     0.496756     0.699322
    0.302389     0.655034     0.508398
    0.473737     0.713975     0.629156
    0.697611     0.351037     0.543776
    0.526263     0.678597     0.325159
    0.302389     0.344966     0.491602
    0.526263     0.321403     0.674841
    0.697611     0.648963     0.456224
    0.473737     0.286025     0.370844
    0.653024     0.451070     0.306750
    0.653024     0.548930     0.693250
    0.346976     0.496756     0.699322
    0.346976     0.503244     0.300678
    0.697611     0.344966     0.491602
    0.526263     0.286025     0.370844
    0.302389     0.648963     0.456224
    0.473737     0.321403     0.674841
    0.697611     0.655034     0.508398
    0.473737     0.678597     0.325159
    0.302389     0.351037     0.543776
    0.526263     0.713975     0.629156
EA26   23.032 16.193 16.193 90.00 90.00 90.00 Sym.group:    0
1.0000
   23.031511     0.000000     0.000000
    0.000000    16.193381     0.000000
    0.000000     0.000000    16.193381
   O  Cu
  24   24 
Direct
    0.757466     0.538131     0.571005
    0.757466     0.461869     0.428995
    0.242534     0.507888     0.419791
    0.242534     0.492112     0.580209
    0.757466     0.419791     0.492112
    0.757466     0.580209     0.507888
    0.242534     0.428995     0.538131
    0.242534     0.571005     0.461869
    0.782472     0.466875     0.549688
    0.782472     0.533125     0.450312
    0.217528     0.450312     0.466875
    0.217528     0.549688     0.533125
    0.540724     0.628768     0.397697
    0.540724     0.371232     0.602303
    0.459276     0.658211     0.544908
    0.459276     0.341789     0.455092
    0.540724     0.544908     0.341789
    0.540724     0.455092     0.658211
    0.459276     0.602303     0.628768
    0.459276     0.397697     0.371232
    0.324716     0.561293     0.408060
    0.324716     0.438707     0.591940
    0.675284     0.591940     0.561293
    0.675284     0.408060     0.438707
    0.609251     0.561577     0.407635
    0.609251     0.438423     0.592365
    0.390749     0.592365     0.561577
    0.390749     0.407635     0.438423
    0.700029     0.403745     0.478276
    0.700029     0.596255     0.521724
    0.299971     0.419505     0.557074
    0.299971     0.580495     0.442926
    0.700029     0.557074     0.580495
    0.700029     0.442926     0.419505
    0.299971     0.521724     0.403745
    0.299971     0.478276     0.596255
    0.576446     0.551784     0.534523
    0.576446     0.448216     0.465477
    0.423554     0.534523     0.448216
    0.423554     0.465477     0.551784
    0.521976     0.554722     0.417916
    0.521976     0.445278     0.582084
    0.478024     0.582084     0.554722
    0.478024     0.417916     0.445278
    0.500000     0.538123     0.690614
    0.500000     0.309386     0.538123
    0.500000     0.461877     0.309386
    0.500000     0.690614     0.461877
EA27   16.698 17.134 17.134 90.00 90.00 90.00 Sym.group:    0
1.0000
   16.698095     0.000000     0.000000
    0.000000    17.134196     0.000000
    0.000000     0.000000    17.134196
   O  Cu
  24   24 
Direct
    0.300034     0.582931     0.484642
    0.300034     0.417069     0.515358
    0.699966     0.515358     0.582931
    0.699966     0.484642     0.417069
    0.636619     0.511893     0.564221
    0.636619     0.488107     0.435779
    0.363381     0.564221     0.488107
    0.363381     0.435779     0.511893
    0.394745     0.399583     0.346323
    0.394745     0.600417     0.653677
    0.605255     0.320556     0.461272
    0.605255     0.679444     0.538728
    0.394745     0.461272     0.679444
    0.394745     0.538728     0.320556
    0.605255     0.653677     0.399583
    0.605255     0.346323     0.600417
    0.632179     0.418318     0.648736
    0.632179     0.581682     0.351264
    0.367821     0.609623     0.370473
    0.367821     0.390377     0.629527
    0.632179     0.370473     0.390377
    0.632179     0.629527     0.609623
    0.367821     0.351264     0.418318
    0.367821     0.648736     0.581682
    0.519750     0.441425     0.510847
    0.519750     0.558575     0.489153
    0.480250     0.489153     0.441425
    0.480250     0.510847     0.558575
    0.407677     0.407945     0.404675
    0.407677     0.592055     0.595325
    0.592323     0.378033     0.448184
    0.592323     0.621967     0.551816
    0.407677     0.448184     0.621967
    0.407677     0.551816     0.378033
    0.592323     0.595325     0.407945
    0.592323     0.404675     0.592055
    0.694992     0.433047     0.584961
    0.694992     0.566953     0.415039
    0.305008     0.555352     0.407063
    0.305008     0.444648     0.592937
    0.694992     0.407063     0.444648
    0.694992     0.592937     0.555352
    0.305008     0.415039     0.433047
    0.305008     0.584961     0.566953
    0.500000     0.357273     0.707602
    0.500000     0.292398     0.357273
    0.500000     0.642727     0.292398
    0.500000     0.707602     0.642727
EA28   25.878 25.807 11.625 90.00 90.00 90.00 Sym.group:    0
1.0000
   25.878015     0.000000     0.000000
    0.000000    25.806505     0.000000
    0.000000     0.000000    11.625306
   O  Cu
  24   24 
Direct
    0.568624     0.338071     0.521977
    0.325841     0.521370     0.521977
    0.605536     0.640559     0.521977
    0.657235     0.357220     0.525420
    0.298073     0.434843     0.525420
    0.544692     0.707937     0.525420
    0.368736     0.715935     0.532514
    0.752121     0.506026     0.532514
    0.379144     0.278039     0.532514
    0.494390     0.291259     0.508894
    0.322530     0.609242     0.508894
    0.683080     0.599498     0.508894
    0.468679     0.444975     0.449620
    0.468139     0.554712     0.449620
    0.563182     0.500313     0.449620
    0.380311     0.785486     0.517934
    0.806399     0.461198     0.517934
    0.313289     0.253316     0.517934
    0.560520     0.232407     0.461308
    0.238638     0.581239     0.461308
    0.700842     0.686354     0.461308
    0.605018     0.560603     0.537454
    0.499830     0.378498     0.537454
    0.395152     0.560899     0.537454
    0.777936     0.628993     0.491780
    0.472434     0.194137     0.491780
    0.249630     0.676870     0.491780
    0.434381     0.344010     0.504575
    0.398092     0.634980     0.504575
    0.667527     0.521010     0.504575
    0.509949     0.534726     0.521604
    0.525016     0.473998     0.521604
    0.465036     0.491277     0.521604
    0.436380     0.706441     0.497744
    0.710099     0.452028     0.497744
    0.353520     0.341530     0.497744
    0.434280     0.379863     0.526635
    0.429106     0.617142     0.526635
    0.636614     0.502995     0.526635
    0.279670     0.600045     0.520148
    0.696567     0.641317     0.520148
    0.523762     0.258637     0.520148
    0.671817     0.424520     0.451437
    0.348904     0.388530     0.451437
    0.479279     0.686951     0.451437
    0.419235     0.544005     0.430956
    0.578386     0.548136     0.430956
    0.502379     0.407859     0.430956
EA29   18.992 17.002 14.821 90.00 90.00 90.00 Sym.group:    0
1.0000
   18.992216     0.000000     0.000000
    0.000000    17.001896     0.000000
    0.000000     0.000000    14.820503
   O  Cu
  24   24 
Direct
    0.513458     0.705327     0.512527
    0.486542     0.294673     0.487473
    0.679075     0.491978     0.437523
    0.320925     0.508022     0.562477
    0.346434     0.511869     0.628044
    0.653566     0.488131     0.371956
    0.556104     0.332645     0.506172
    0.443896     0.667355     0.493828
    0.434082     0.628452     0.613203
    0.565918     0.371548     0.386797
    0.564486     0.319807     0.584023
    0.435514     0.680193     0.415977
    0.683404     0.426084     0.589092
    0.316596     0.573916     0.410908
    0.582856     0.603811     0.377955
    0.417144     0.396189     0.622045
    0.363259     0.394526     0.387365
    0.636741     0.605474     0.612635
    0.474300     0.668670     0.556286
    0.525700     0.331330     0.443714
    0.572103     0.444397     0.421737
    0.427897     0.555603     0.578263
    0.637578     0.347469     0.580461
    0.362422     0.652531     0.419539
    0.478882     0.560363     0.588681
    0.521118     0.439637     0.411319
    0.673410     0.560439     0.642496
    0.326590     0.439561     0.357504
    0.736208     0.448876     0.505241
    0.263792     0.551124     0.494759
    0.646388     0.549130     0.494120
    0.353612     0.450870     0.505880
    0.682654     0.641906     0.450157
    0.317346     0.358094     0.549843
    0.354178     0.555352     0.561878
    0.645822     0.444648     0.438122
    0.531482     0.512607     0.391840
    0.468518     0.487393     0.608160
    0.406912     0.497773     0.661955
    0.593088     0.502227     0.338045
    0.294536     0.463708     0.416531
    0.705464     0.536292     0.583469
    0.419428     0.446921     0.525110
    0.580572     0.553079     0.474890
    0.418115     0.513384     0.374478
    0.581885     0.486616     0.625522
    0.628510     0.627787     0.459218
    0.371490     0.372213     0.540782
EA30   17.801 17.801 17.801 90.00 90.00 90.00 Sym.group:    0
1.0000
   17.800920     0.000000     0.000000
    0.000000    17.800920     0.000000
    0.000000     0.000000    17.800920
   O  Cu
  24   24 
Direct
    0.285594     0.511259     0.550103
    0.714406     0.511259     0.449897
    0.285594     0.488741     0.449897
    0.714406     0.488741     0.550103
    0.511259     0.550103     0.285594
    0.550103     0.285594     0.511259
    0.488741     0.449897     0.285594
    0.550103     0.714406     0.488741
    0.488741     0.550103     0.714406
    0.449897     0.714406     0.511259
    0.511259     0.449897     0.714406
    0.449897     0.285594     0.488741
    0.356319     0.349069     0.401977
    0.643681     0.349069     0.598023
    0.356319     0.650931     0.598023
    0.643681     0.650931     0.401977
    0.349069     0.401977     0.356319
    0.401977     0.356319     0.349069
    0.650931     0.598023     0.356319
    0.401977     0.643681     0.650931
    0.650931     0.401977     0.643681
    0.598023     0.643681     0.349069
    0.349069     0.598023     0.643681
    0.598023     0.356319     0.650931
    0.663652     0.486715     0.373398
    0.336348     0.486715     0.626602
    0.663652     0.513285     0.626602
    0.336348     0.513285     0.373398
    0.486715     0.373398     0.663652
    0.373398     0.663652     0.486715
    0.513285     0.626602     0.663652
    0.373398     0.336348     0.513285
    0.513285     0.373398     0.336348
    0.626602     0.336348     0.486715
    0.486715     0.626602     0.336348
    0.626602     0.663652     0.513285
    0.313302     0.457351     0.567800
    0.686698     0.457351     0.432200
    0.313302     0.542649     0.432200
    0.686698     0.542649     0.567800
    0.457351     0.567800     0.313302
    0.567800     0.313302     0.457351
    0.542649     0.432200     0.313302
    0.567800     0.686698     0.542649
    0.542649     0.567800     0.686698
    0.432200     0.686698     0.457351
    0.457351     0.432200     0.686698
    0.432200     0.313302     0.542649
EA31   20.188 16.890 14.951 90.00 90.00 90.00 Sym.group:    0
1.0000
   20.187789     0.000000     0.000000
    0.000000    16.890460     0.000000
    0.000000     0.000000    14.951064
   O  Cu
  24   24 
Direct
    0.386391     0.414956     0.388527
    0.386391     0.585044     0.611473
    0.616749     0.414956     0.611473
    0.616749     0.585044     0.388527
    0.559118     0.542707     0.478095
    0.559118     0.457293     0.521905
    0.444021     0.542707     0.521905
    0.444021     0.457293     0.478095
    0.643613     0.542083     0.400513
    0.643613     0.457917     0.599487
    0.359526     0.542083     0.599487
    0.359526     0.457917     0.400513
    0.397760     0.559151     0.567921
    0.397760     0.440849     0.432079
    0.605380     0.559151     0.432079
    0.605380     0.440849     0.567921
    0.536038     0.637912     0.364781
    0.536038     0.362088     0.635219
    0.467101     0.637912     0.635219
    0.467101     0.362088     0.364781
    0.384273     0.703383     0.484724
    0.384273     0.296617     0.515276
    0.618867     0.703383     0.515276
    0.618867     0.296617     0.484724
    0.679628     0.500000     0.500000
    0.685925     0.378924     0.445314
    0.685925     0.621076     0.554686
    0.317214     0.378924     0.554686
    0.317214     0.621076     0.445314
    0.387538     0.681847     0.567947
    0.387538     0.318153     0.432053
    0.615601     0.681847     0.432053
    0.615601     0.318153     0.567947
    0.731403     0.504473     0.588335
    0.731403     0.495527     0.411665
    0.271736     0.504473     0.411665
    0.271736     0.495527     0.588335
    0.248170     0.500000     0.500000
    0.294190     0.357009     0.480556
    0.294190     0.642991     0.519444
    0.708949     0.357009     0.519444
    0.708949     0.642991     0.480556
    0.638823     0.631931     0.394730
    0.638823     0.368069     0.605270
    0.364316     0.631931     0.605270
    0.364316     0.368069     0.394730
    0.501570     0.500000     0.335093
    0.501570     0.500000     0.664907
EA32   21.402 23.117 11.867 90.00 90.00 90.00 Sym.group:    0
1.0000
   21.401613     0.000000     0.000000
    0.000000    23.117016     0.000000
    0.000000     0.000000    11.867122
   O  Cu
  24   24 
Direct
    0.599734     0.504080     0.540640
    0.553683     0.422077     0.540640
    0.453949     0.417997     0.540640
    0.400266     0.495920     0.540640
    0.446317     0.577923     0.540640
    0.546051     0.582003     0.540640
    0.499590     0.430510     0.422175
    0.434791     0.465583     0.422175
    0.435201     0.535073     0.422175
    0.500410     0.569490     0.422175
    0.565209     0.534417     0.422175
    0.564799     0.464927     0.422175
    0.614806     0.638964     0.487219
    0.687396     0.477435     0.487219
    0.572589     0.338471     0.487219
    0.385194     0.361036     0.487219
    0.312604     0.522565     0.487219
    0.427411     0.661529     0.487219
    0.720520     0.481668     0.458596
    0.593112     0.314029     0.458596
    0.372592     0.332361     0.458596
    0.279480     0.518332     0.458596
    0.406888     0.685971     0.458596
    0.627408     0.667639     0.458596
    0.659584     0.622659     0.533328
    0.694532     0.433382     0.533328
    0.534949     0.310722     0.533328
    0.340416     0.377341     0.533328
    0.305468     0.566618     0.533328
    0.465051     0.689278     0.533328
    0.235929     0.356891     0.517399
    0.234095     0.640167     0.517399
    0.498165     0.783277     0.517399
    0.764071     0.643109     0.517399
    0.765905     0.359833     0.517399
    0.501835     0.216723     0.517399
    0.358535     0.596975     0.502393
    0.519982     0.661909     0.502393
    0.661447     0.564934     0.502393
    0.641465     0.403025     0.502393
    0.480018     0.338091     0.502393
    0.338553     0.435066     0.502393
    0.581528     0.703012     0.538250
    0.730670     0.536140     0.538250
    0.649142     0.333128     0.538250
    0.418472     0.296988     0.538250
    0.269330     0.463860     0.538250
    0.350858     0.666872     0.538250
EA33   17.699 18.408 13.523 90.00 90.00 90.00 Sym.group:    0
1.0000
   17.699498     0.000000     0.000000
    0.000000    18.408258     0.000000
    0.000000     0.000000    13.522855
   O  Cu
  24   24 
Direct
    0.694708     0.357588     0.447133
    0.305292     0.642412     0.447133
    0.305292     0.357588     0.552867
    0.694708     0.642412     0.552867
    0.694708     0.357588     0.552867
    0.305292     0.642412     0.552867
    0.305292     0.357588     0.447133
    0.694708     0.642412     0.447133
    0.537275     0.464929     0.629516
    0.462725     0.535071     0.629516
    0.462725     0.464929     0.370484
    0.537275     0.535071     0.370484
    0.537275     0.464929     0.370484
    0.462725     0.535071     0.370484
    0.462725     0.464929     0.629516
    0.537275     0.535071     0.629516
    0.295369     0.284559     0.529590
    0.704631     0.715441     0.529590
    0.704631     0.284559     0.470410
    0.295369     0.715441     0.470410
    0.295369     0.284559     0.470410
    0.704631     0.715441     0.470410
    0.704631     0.284559     0.529590
    0.295369     0.715441     0.529590
    0.401798     0.403269     0.596389
    0.598202     0.596731     0.596389
    0.598202     0.403269     0.403611
    0.401798     0.596731     0.403611
    0.401798     0.403269     0.403611
    0.598202     0.596731     0.403611
    0.598202     0.403269     0.596389
    0.401798     0.596731     0.596389
    0.716941     0.434904     0.428775
    0.283059     0.565096     0.428775
    0.283059     0.434904     0.571225
    0.716941     0.565096     0.571225
    0.716941     0.434904     0.571225
    0.283059     0.565096     0.571225
    0.283059     0.434904     0.428775
    0.716941     0.565096     0.428775
    0.500000     0.500000     0.386775
    0.500000     0.500000     0.613225
    0.452290     0.272160     0.500000
    0.547710     0.727840     0.500000
    0.547710     0.272160     0.500000
    0.452290     0.727840     0.500000
    0.702276     0.500000     0.500000
    0.297724     0.500000     0.500000
EA34   19.683 15.876 15.876 90.00 90.00 90.00 Sym.group:    0
1.0000
   19.683333     0.000000     0.000000
    0.000000    15.875784     0.000000
    0.000000     0.000000    15.875784
   O  Cu
  24   24 
Direct
    0.391529     0.659821     0.488017
    0.391529     0.488017     0.340179
    0.391529     0.340179     0.511983
    0.391529     0.511983     0.659821
    0.491022     0.315575     0.489491
    0.491022     0.489491     0.684425
    0.491022     0.684425     0.510509
    0.491022     0.510509     0.315575
    0.564201     0.428847     0.401568
    0.564201     0.401568     0.571153
    0.564201     0.571153     0.598432
    0.564201     0.598432     0.428847
    0.745470     0.516155     0.415139
    0.745470     0.415139     0.483845
    0.745470     0.483845     0.584861
    0.745470     0.584861     0.516155
    0.499713     0.573295     0.469759
    0.499713     0.469759     0.426705
    0.499713     0.426705     0.530241
    0.499713     0.530241     0.573295
    0.368001     0.519092     0.442354
    0.368001     0.442354     0.480908
    0.368001     0.480908     0.557646
    0.368001     0.557646     0.519092
    0.523599     0.400965     0.329375
    0.523599     0.329375     0.599035
    0.523599     0.599035     0.670625
    0.523599     0.670625     0.400965
    0.578709     0.446949     0.516958
    0.578709     0.516958     0.553051
    0.578709     0.553051     0.483042
    0.578709     0.483042     0.446949
    0.619053     0.565475     0.555004
    0.619053     0.555004     0.434525
    0.619053     0.434525     0.444996
    0.619053     0.444996     0.565475
    0.387504     0.364992     0.415093
    0.387504     0.415093     0.635008
    0.387504     0.635008     0.584907
    0.387504     0.584907     0.364992
    0.466826     0.396648     0.629167
    0.466826     0.629167     0.603352
    0.466826     0.603352     0.370833
    0.466826     0.370833     0.396648
    0.364371     0.472674     0.395374
    0.364371     0.395374     0.527326
    0.364371     0.527326     0.604626
    0.364371     0.604626     0.472674
EA35   17.154 17.122 16.222 90.00 90.00 90.00 Sym.group:    0
1.0000
   17.153972     0.000000     0.000000
    0.000000    17.121761     0.000000
    0.000000     0.000000    16.222423
   O  Cu
  24   24 
Direct
    0.370374     0.606761     0.496463
    0.561289     0.656505     0.496463
    0.667505     0.489964     0.496463
    0.542235     0.337292     0.496463
    0.358598     0.409477     0.496463
    0.494772     0.668038     0.496463
    0.338871     0.546945     0.496463
    0.405645     0.360976     0.496463
    0.602815     0.367133     0.496463
    0.657898     0.556908     0.496463
    0.440565     0.621114     0.691168
    0.596604     0.594059     0.691168
    0.619140     0.437017     0.691168
    0.477029     0.367016     0.691168
    0.366663     0.480794     0.691168
    0.619138     0.572264     0.465295
    0.605413     0.408810     0.465295
    0.446011     0.371378     0.465295
    0.361220     0.511697     0.465295
    0.468218     0.635851     0.465295
    0.370130     0.449606     0.465295
    0.507706     0.360681     0.465295
    0.634633     0.464290     0.465295
    0.575502     0.617249     0.465295
    0.412030     0.608174     0.465295
    0.390677     0.484253     0.359300
    0.451269     0.599302     0.359300
    0.579206     0.577119     0.359300
    0.597683     0.448360     0.359300
    0.481166     0.390965     0.359300
    0.558752     0.468941     0.499182
    0.488672     0.434421     0.499182
    0.434247     0.490529     0.499182
    0.470690     0.559726     0.499182
    0.547639     0.546384     0.499182
    0.589481     0.512889     0.418884
    0.539887     0.418721     0.418884
    0.435170     0.436878     0.418884
    0.420046     0.542267     0.418884
    0.515416     0.589245     0.418884
    0.464176     0.292610     0.583433
    0.292061     0.470048     0.583433
    0.407310     0.688878     0.583433
    0.650654     0.646686     0.583433
    0.685799     0.401778     0.583433
    0.500000     0.500000     0.404588
    0.500000     0.500000     0.554666
    0.500000     0.500000     0.663332
EA36   18.518 18.467 14.294 90.00 90.00 90.00 Sym.group:    0
1.0000
   18.517695     0.000000     0.000000
    0.000000    18.466608     0.000000
    0.000000     0.000000    14.294335
   O  Cu
  24   24 
Direct
    0.455837     0.381474     0.350488
    0.375555     0.479089     0.350488
    0.419718     0.597616     0.350488
    0.544163     0.618526     0.350488
    0.624445     0.520911     0.350488
    0.580282     0.402384     0.350488
    0.622368     0.469133     0.649512
    0.587842     0.590833     0.649512
    0.465474     0.621700     0.649512
    0.377632     0.530867     0.649512
    0.412158     0.409167     0.649512
    0.534526     0.378300     0.649512
    0.455837     0.381474     0.649512
    0.375555     0.479089     0.649512
    0.419718     0.597616     0.649512
    0.544163     0.618526     0.649512
    0.624445     0.520911     0.649512
    0.580282     0.402384     0.649512
    0.622368     0.469133     0.350488
    0.587842     0.590833     0.350488
    0.465474     0.621700     0.350488
    0.377632     0.530867     0.350488
    0.412158     0.409167     0.350488
    0.534526     0.378300     0.350488
    0.496552     0.414047     0.500000
    0.424044     0.460018     0.500000
    0.427492     0.545971     0.500000
    0.503448     0.585953     0.500000
    0.575956     0.539982     0.500000
    0.572508     0.454029     0.500000
    0.270552     0.464888     0.500000
    0.354952     0.681702     0.500000
    0.584400     0.716813     0.500000
    0.729448     0.535112     0.500000
    0.645048     0.318298     0.500000
    0.415600     0.283187     0.500000
    0.659134     0.669431     0.500000
    0.433240     0.722911     0.500000
    0.274106     0.553480     0.500000
    0.340866     0.330569     0.500000
    0.566760     0.277089     0.500000
    0.725894     0.446520     0.500000
    0.490825     0.271301     0.500000
    0.297899     0.393618     0.500000
    0.307074     0.622317     0.500000
    0.509175     0.728699     0.500000
    0.702101     0.606382     0.500000
    0.692926     0.377683     0.500000
EA37   17.801 17.801 17.801 90.00 90.00 90.00 Sym.group:    0
1.0000
   17.800920     0.000000     0.000000
    0.000000    17.800920     0.000000
    0.000000     0.000000    17.800920
   O  Cu
  24   24 
Direct
    0.569059     0.309580     0.449649
    0.430941     0.309580     0.550351
    0.420447     0.690420     0.468763
    0.579553     0.690420     0.531237
    0.565085     0.574918     0.683618
    0.301579     0.541130     0.449985
    0.516503     0.425082     0.305889
    0.679308     0.458870     0.401403
    0.434915     0.574918     0.316382
    0.320692     0.458870     0.598597
    0.483497     0.425082     0.694111
    0.698421     0.541130     0.550015
    0.468763     0.309580     0.579553
    0.531237     0.309580     0.420447
    0.449649     0.690420     0.430941
    0.550351     0.690420     0.569059
    0.694111     0.574918     0.516503
    0.401403     0.541130     0.320692
    0.316382     0.425082     0.565085
    0.449985     0.458870     0.698421
    0.305889     0.574918     0.483497
    0.550015     0.458870     0.301579
    0.683618     0.425082     0.434915
    0.598597     0.541130     0.679308
    0.442272     0.302934     0.366534
    0.557728     0.302934     0.633466
    0.522076     0.697066     0.356270
    0.477924     0.697066     0.643730
    0.663737     0.459769     0.677630
    0.309676     0.639740     0.565041
    0.613459     0.540231     0.286718
    0.700588     0.360260     0.514764
    0.336263     0.459769     0.322370
    0.299412     0.360260     0.485236
    0.386541     0.540231     0.713282
    0.690324     0.639740     0.434959
    0.356270     0.302934     0.477924
    0.643730     0.302934     0.522076
    0.366534     0.697066     0.557728
    0.633466     0.697066     0.442272
    0.713282     0.459769     0.613459
    0.514764     0.639740     0.299412
    0.322370     0.540231     0.663737
    0.565041     0.360260     0.690324
    0.286718     0.459769     0.386541
    0.434959     0.360260     0.309676
    0.677630     0.540231     0.336263
    0.485236     0.639740     0.700588
EA38   15.406 16.913 16.786 90.00 90.00 90.00 Sym.group:    0
1.0000
   15.405688     0.000000     0.000000
    0.000000    16.913130     0.000000
    0.000000     0.000000    16.786400
   O  Cu
  24   24 
Direct
    0.354239     0.387186     0.495417
    0.354239     0.560346     0.403854
    0.354239     0.552468     0.600729
    0.649502     0.519773     0.612000
    0.649502     0.586382     0.426747
    0.649502     0.393845     0.461253
    0.674795     0.625183     0.501928
    0.674795     0.435751     0.608266
    0.674795     0.439066     0.389806
    0.328945     0.481164     0.375293
    0.328945     0.402228     0.578789
    0.328945     0.616608     0.545917
    0.435608     0.564029     0.316842
    0.435608     0.625416     0.647448
    0.435608     0.310555     0.535709
    0.568133     0.671449     0.411296
    0.568133     0.338031     0.394752
    0.568133     0.490520     0.693952
    0.347787     0.500000     0.500000
    0.566173     0.500000     0.500000
    0.598529     0.652593     0.363206
    0.598529     0.541283     0.701544
    0.598529     0.306124     0.435250
    0.405212     0.613871     0.329158
    0.405212     0.296220     0.486062
    0.405212     0.589910     0.684781
    0.356639     0.332839     0.541964
    0.356639     0.547511     0.333159
    0.356639     0.619650     0.624877
    0.647102     0.481354     0.672553
    0.647102     0.657638     0.429994
    0.647102     0.361008     0.397454
    0.422998     0.612504     0.439051
    0.422998     0.496136     0.628641
    0.422998     0.391360     0.432308
    0.580742     0.544712     0.379442
    0.580742     0.374020     0.521265
    0.580742     0.581268     0.599293
    0.501870     0.532567     0.595901
    0.501870     0.401286     0.480466
    0.501870     0.566147     0.423633
    0.392651     0.474511     0.457346
    0.392651     0.549407     0.499087
    0.392651     0.476082     0.543568
    0.611090     0.545394     0.519673
    0.611090     0.494212     0.450554
    0.611090     0.460393     0.529773
    0.501870     0.500000     0.500000
EA39   17.801 17.801 17.801 90.00 90.00 90.00 Sym.group:    0
1.0000
   17.800920     0.000000     0.000000
    0.000000    17.800920     0.000000
    0.000000     0.000000    17.800920
   O  Cu
  24   24 
Direct
    0.705792     0.553618     0.647984
    0.553618     0.294208     0.647984
    0.294208     0.446382     0.647984
    0.446382     0.705792     0.647984
    0.353211     0.560729     0.704669
    0.296537     0.561872     0.352016
    0.649118     0.554761     0.295331
    0.701644     0.347920     0.557757
    0.703463     0.438128     0.352016
    0.707611     0.643827     0.442243
    0.438128     0.296537     0.352016
    0.561872     0.703463     0.352016
    0.350882     0.445239     0.295331
    0.646789     0.439271     0.704669
    0.298356     0.652080     0.557757
    0.292389     0.356173     0.442243
    0.445239     0.649118     0.295331
    0.347920     0.298356     0.557757
    0.439271     0.353211     0.704669
    0.643827     0.292389     0.442243
    0.554761     0.350882     0.295331
    0.356173     0.707611     0.442243
    0.560729     0.646789     0.704669
    0.652080     0.701644     0.557757
    0.294208     0.446382     0.352016
    0.446382     0.705792     0.352016
    0.705792     0.553618     0.352016
    0.553618     0.294208     0.352016
    0.646789     0.439271     0.295331
    0.703463     0.438128     0.647984
    0.350882     0.445239     0.704669
    0.298356     0.652080     0.442243
    0.296537     0.561872     0.647984
    0.292389     0.356173     0.557757
    0.561872     0.703463     0.647984
    0.438128     0.296537     0.647984
    0.649118     0.554761     0.704669
    0.353211     0.560729     0.295331
    0.701644     0.347920     0.442243
    0.707611     0.643827     0.557757
    0.554761     0.350882     0.704669
    0.652080     0.701644     0.442243
    0.560729     0.646789     0.295331
    0.356173     0.707611     0.557757
    0.445239     0.649118     0.704669
    0.643827     0.292389     0.557757
    0.439271     0.353211     0.295331
    0.347920     0.298356     0.442243
EA40   16.353 16.375 11.190 90.00 90.00 90.00 Sym.group:    0
1.0000
   16.353342     0.000000     0.000000
    0.000000    16.375393     0.000000
    0.000000     0.000000    11.190174
   O  Cu
  24   24 
Direct
    0.390242     0.527403     0.500000
    0.421358     0.418776     0.500000
    0.531116     0.391373     0.500000
    0.609758     0.472597     0.500000
    0.578642     0.581224     0.500000
    0.468884     0.608627     0.500000
    0.617000     0.344163     0.500000
    0.693641     0.523271     0.500000
    0.576640     0.679107     0.500000
    0.383000     0.655837     0.500000
    0.306359     0.476729     0.500000
    0.423360     0.320893     0.500000
    0.659894     0.388465     0.500000
    0.483224     0.305947     0.500000
    0.323331     0.417482     0.500000
    0.340106     0.611535     0.500000
    0.516776     0.694053     0.500000
    0.676669     0.582518     0.500000
    0.573022     0.634696     0.447714
    0.419704     0.630501     0.447714
    0.346682     0.495806     0.447714
    0.426978     0.365304     0.447714
    0.580296     0.369499     0.447714
    0.653318     0.504194     0.447714
    0.367655     0.422587     0.552286
    0.366696     0.575753     0.552286
    0.499041     0.653166     0.552286
    0.632345     0.577413     0.552286
    0.633304     0.424247     0.552286
    0.500959     0.346834     0.552286
    0.573022     0.634696     0.552286
    0.419704     0.630501     0.552286
    0.346682     0.495806     0.552286
    0.426978     0.365304     0.552286
    0.580296     0.369499     0.552286
    0.653318     0.504194     0.552286
    0.367655     0.422587     0.447714
    0.366696     0.575753     0.447714
    0.499041     0.653166     0.447714
    0.632345     0.577413     0.447714
    0.633304     0.424247     0.447714
    0.500959     0.346834     0.447714
    0.683618     0.454157     0.500000
    0.631563     0.635882     0.500000
    0.447946     0.681725     0.500000
    0.316382     0.545843     0.500000
    0.368437     0.364118     0.500000
    0.552054     0.318275     0.500000
EA41   23.190 14.777 14.477 90.00 90.00 90.00 Sym.group:    0
1.0000
   23.189865     0.000000     0.000000
    0.000000    14.776688     0.000000
    0.000000     0.000000    14.477475
   O  Cu
  24   24 
Direct
    0.290740     0.500000     0.500000
    0.465761     0.464400     0.354272
    0.465761     0.394151     0.604332
    0.465761     0.641449     0.541396
    0.703198     0.578966     0.456309
    0.703198     0.423446     0.452045
    0.703198     0.497588     0.591646
    0.655156     0.446557     0.474928
    0.655156     0.505448     0.559776
    0.655156     0.547995     0.465296
    0.264397     0.506714     0.416795
    0.264397     0.426044     0.535668
    0.264397     0.567242     0.547537
    0.310048     0.427710     0.569577
    0.310048     0.595180     0.529110
    0.310048     0.477110     0.401313
    0.444361     0.560663     0.653945
    0.444361     0.600289     0.369406
    0.444361     0.339048     0.476649
    0.456578     0.502038     0.409411
    0.456578     0.422117     0.543493
    0.456578     0.575845     0.547096
    0.250277     0.500000     0.500000
    0.536723     0.451652     0.653377
    0.536723     0.654312     0.466047
    0.536723     0.394035     0.380576
    0.632217     0.564730     0.616042
    0.632217     0.566096     0.384763
    0.632217     0.369174     0.499195
    0.783957     0.613216     0.500670
    0.783957     0.443960     0.399591
    0.783957     0.442823     0.599739
    0.564080     0.442812     0.385192
    0.564080     0.431180     0.607954
    0.564080     0.626008     0.506855
    0.412029     0.604593     0.478458
    0.412029     0.429425     0.418319
    0.412029     0.465982     0.603223
    0.561644     0.366882     0.558806
    0.561644     0.616455     0.588263
    0.561644     0.516663     0.352931
    0.395215     0.374712     0.455117
    0.395215     0.524561     0.633187
    0.395215     0.600727     0.411696
    0.746864     0.500000     0.500000
    0.385342     0.390457     0.603113
    0.385342     0.642262     0.545271
    0.385342     0.467281     0.351616
EA42   22.607 14.782 14.782 90.00 90.00 90.00 Sym.group:    0
1.0000
   22.607163     0.000000     0.000000
    0.000000    14.782034     0.000000
    0.000000     0.000000    14.782034
   O  Cu
  24   24 
Direct
    0.733642     0.433867     0.438280
    0.266358     0.438280     0.566133
    0.733642     0.566133     0.561720
    0.266358     0.561720     0.433867
    0.380169     0.389312     0.617097
    0.619831     0.617097     0.610688
    0.380169     0.610688     0.382903
    0.619831     0.382903     0.389312
    0.513788     0.426427     0.443176
    0.486212     0.443176     0.573573
    0.513788     0.573573     0.556824
    0.486212     0.556824     0.426427
    0.221611     0.503104     0.535336
    0.778389     0.535336     0.496896
    0.221611     0.496896     0.464664
    0.778389     0.464664     0.503104
    0.443969     0.508021     0.379364
    0.556031     0.379364     0.491979
    0.443969     0.491979     0.620636
    0.556031     0.620636     0.508021
    0.494902     0.542392     0.338925
    0.505098     0.338925     0.457608
    0.494902     0.457608     0.661075
    0.505098     0.661075     0.542392
    0.418140     0.577075     0.420656
    0.581860     0.420656     0.422925
    0.418140     0.422925     0.579344
    0.581860     0.579344     0.577075
    0.368781     0.601636     0.592089
    0.631219     0.592089     0.398364
    0.368781     0.398364     0.407911
    0.631219     0.407911     0.601636
    0.453581     0.497525     0.548276
    0.546419     0.548276     0.502475
    0.453581     0.502475     0.451724
    0.546419     0.451724     0.497525
    0.539082     0.386957     0.578132
    0.460918     0.578132     0.613043
    0.539082     0.613043     0.421868
    0.460918     0.421868     0.386957
    0.357615     0.469240     0.458858
    0.642385     0.458858     0.530760
    0.357615     0.530760     0.541142
    0.642385     0.541142     0.469240
    0.663338     0.473733     0.435360
    0.336662     0.435360     0.526267
    0.663338     0.526267     0.564640
    0.336662     0.564640     0.473733
EA43   18.835 19.368 14.081 90.00 90.00 90.00 Sym.group:    0
1.0000
   18.835193     0.000000     0.000000
    0.000000    19.368485     0.000000
    0.000000     0.000000    14.080845
   O  Cu
  24   24 
Direct
    0.534911     0.651223     0.416216
    0.347873     0.453790     0.416216
    0.617216     0.394987     0.416216
    0.652127     0.453790     0.416216
    0.382784     0.394987     0.416216
    0.465089     0.651223     0.416216
    0.550423     0.528310     0.628693
    0.449577     0.528310     0.628693
    0.500000     0.443380     0.628693
    0.500000     0.337477     0.531680
    0.644734     0.581261     0.531680
    0.355266     0.581261     0.531680
    0.500000     0.583007     0.576897
    0.426078     0.458496     0.576897
    0.573922     0.458496     0.576897
    0.265991     0.411490     0.496498
    0.695826     0.347178     0.496498
    0.538182     0.741332     0.496498
    0.304174     0.347178     0.496498
    0.461818     0.741332     0.496498
    0.734009     0.411490     0.496498
    0.277259     0.566334     0.508172
    0.552298     0.279245     0.508172
    0.670444     0.654422     0.508172
    0.447702     0.279245     0.508172
    0.329556     0.654422     0.508172
    0.722741     0.566334     0.508172
    0.383256     0.612080     0.441787
    0.458560     0.345640     0.441787
    0.658184     0.542280     0.441787
    0.541440     0.345640     0.441787
    0.341816     0.542280     0.441787
    0.616744     0.612080     0.441787
    0.585139     0.547802     0.593781
    0.414861     0.547802     0.593781
    0.500000     0.404396     0.593781
    0.500000     0.419019     0.453753
    0.572117     0.540491     0.453753
    0.427883     0.540491     0.453753
    0.406333     0.313900     0.567023
    0.712564     0.514166     0.567023
    0.381102     0.671934     0.567023
    0.287436     0.514166     0.567023
    0.618898     0.671934     0.567023
    0.593667     0.313900     0.567023
    0.500000     0.440496     0.355803
    0.552991     0.529752     0.355803
    0.447009     0.529752     0.355803
EA44   17.334 16.382 15.088 90.00 90.00 90.00 Sym.group:    0
1.0000
   17.334115     0.000000     0.000000
    0.000000    16.381976     0.000000
    0.000000     0.000000    15.088409
   O  Cu
  24   24 
Direct
    0.470528     0.314550     0.500000
    0.637047     0.380268     0.500000
    0.666519     0.565718     0.500000
    0.529472     0.685450     0.500000
    0.362953     0.619732     0.500000
    0.333481     0.434282     0.500000
    0.606875     0.692481     0.446152
    0.395900     0.694176     0.446152
    0.289025     0.501695     0.446152
    0.393125     0.307519     0.446152
    0.604100     0.305824     0.446152
    0.710975     0.498305     0.446152
    0.606875     0.692481     0.553848
    0.395900     0.694176     0.553848
    0.289025     0.501695     0.553848
    0.393125     0.307519     0.553848
    0.604100     0.305824     0.553848
    0.710975     0.498305     0.553848
    0.534576     0.647207     0.667957
    0.396805     0.605287     0.667957
    0.362230     0.458080     0.667957
    0.465424     0.352793     0.667957
    0.603195     0.394713     0.667957
    0.637770     0.541920     0.667957
    0.534576     0.647207     0.332043
    0.396805     0.605287     0.332043
    0.362230     0.458080     0.332043
    0.465424     0.352793     0.332043
    0.603195     0.394713     0.332043
    0.637770     0.541920     0.332043
    0.580375     0.561170     0.661810
    0.490122     0.604238     0.661810
    0.409747     0.543067     0.661810
    0.419625     0.438830     0.661810
    0.509878     0.395762     0.661810
    0.590253     0.456933     0.661810
    0.580375     0.561170     0.338190
    0.490122     0.604238     0.338190
    0.409747     0.543067     0.338190
    0.419625     0.438830     0.338190
    0.509878     0.395762     0.338190
    0.590253     0.456933     0.338190
    0.476780     0.581899     0.500000
    0.421359     0.519672     0.500000
    0.444579     0.437773     0.500000
    0.523220     0.418101     0.500000
    0.578641     0.480328     0.500000
    0.555421     0.562227     0.500000
EA45   26.645 25.909 11.241 90.00 90.00 90.00 Sym.group:    0
1.0000
   26.645305     0.000000     0.000000
    0.000000    25.908883     0.000000
    0.000000     0.000000    11.241303
   O  Cu
  24   24 
Direct
    0.565973     0.560504     0.489905
    0.517963     0.410990     0.489905
    0.416064     0.528506     0.489905
    0.423103     0.455167     0.510095
    0.576202     0.453929     0.510095
    0.500695     0.590904     0.510095
    0.657967     0.633810     0.476123
    0.533697     0.292403     0.476123
    0.308336     0.573787     0.476123
    0.326063     0.389099     0.523877
    0.680357     0.400535     0.523877
    0.493580     0.710366     0.523877
    0.704783     0.454357     0.532826
    0.359173     0.340434     0.532826
    0.436044     0.705209     0.532826
    0.476291     0.285892     0.467174
    0.692153     0.585938     0.467174
    0.331556     0.628170     0.467174
    0.689918     0.625345     0.513859
    0.510593     0.268179     0.513859
    0.299489     0.606476     0.513859
    0.323601     0.355262     0.486141
    0.710082     0.415261     0.486141
    0.466317     0.729477     0.486141
    0.380039     0.588684     0.542850
    0.634660     0.562500     0.542850
    0.485301     0.348816     0.542850
    0.456843     0.645311     0.457150
    0.399214     0.388907     0.457150
    0.643944     0.465782     0.457150
    0.594873     0.354505     0.445678
    0.330043     0.488249     0.445678
    0.575083     0.657246     0.445678
    0.603528     0.360886     0.554322
    0.565382     0.661763     0.554322
    0.331090     0.477350     0.554322
    0.632088     0.296230     0.544768
    0.262363     0.484242     0.544768
    0.605549     0.719528     0.544768
    0.645247     0.305932     0.455232
    0.590800     0.726397     0.455232
    0.263954     0.467671     0.455232
    0.663255     0.773542     0.508965
    0.648720     0.217828     0.508965
    0.188026     0.508631     0.508965
    0.195687     0.428807     0.491035
    0.712108     0.264563     0.491035
    0.592205     0.806630     0.491035
EA46   16.556 16.556 16.100 90.00 90.00 90.00 Sym.group:    0
1.0000
   16.555661     0.000000     0.000000
    0.000000    16.555661     0.000000
    0.000000     0.000000    16.100132
   O  Cu
  24   24 
Direct
    0.399758     0.586302     0.500000
    0.413698     0.399758     0.500000
    0.600242     0.413698     0.500000
    0.586302     0.600242     0.500000
    0.476986     0.335300     0.347482
    0.664700     0.476986     0.347482
    0.523014     0.664700     0.347482
    0.335300     0.523014     0.347482
    0.476986     0.335300     0.652518
    0.664700     0.476986     0.652518
    0.523014     0.664700     0.652518
    0.335300     0.523014     0.652518
    0.570683     0.507052     0.311178
    0.492948     0.570683     0.311178
    0.429317     0.492948     0.311178
    0.507052     0.429317     0.311178
    0.570683     0.507052     0.688822
    0.492948     0.570683     0.688822
    0.429317     0.492948     0.688822
    0.507052     0.429317     0.688822
    0.306676     0.440914     0.403604
    0.559086     0.306676     0.403604
    0.693324     0.559086     0.403604
    0.440914     0.693324     0.403604
    0.306676     0.440914     0.596396
    0.559086     0.306676     0.596396
    0.693324     0.559086     0.596396
    0.440914     0.693324     0.596396
    0.697384     0.642559     0.437644
    0.357441     0.697384     0.437644
    0.302616     0.357441     0.437644
    0.642559     0.302616     0.437644
    0.697384     0.642559     0.562356
    0.357441     0.697384     0.562356
    0.302616     0.357441     0.562356
    0.642559     0.302616     0.562356
    0.307734     0.581001     0.392273
    0.418999     0.307734     0.392273
    0.692266     0.418999     0.392273
    0.581001     0.692266     0.392273
    0.307734     0.581001     0.607727
    0.418999     0.307734     0.607727
    0.692266     0.418999     0.607727
    0.581001     0.692266     0.607727
    0.350366     0.352221     0.500000
    0.647779     0.350366     0.500000
    0.649634     0.647779     0.500000
    0.352221     0.649634     0.500000
EA47   40.915 17.604 11.347 90.00 90.00 90.00 Sym.group:    0
1.0000
   40.914512     0.000000     0.000000
    0.000000    17.603772     0.000000
    0.000000     0.000000    11.346671
   O  Cu
  24   24 
Direct
    0.122450     0.416717     0.502394
    0.877550     0.583283     0.502394
    0.663006     0.658134     0.487784
    0.336994     0.341866     0.487784
    0.210656     0.630754     0.500488
    0.789344     0.369246     0.500488
    0.490717     0.673580     0.513536
    0.509283     0.326420     0.513536
    0.595632     0.519004     0.539348
    0.404368     0.480996     0.539348
    0.477411     0.345555     0.447892
    0.522589     0.654445     0.447892
    0.759266     0.498423     0.530118
    0.240734     0.501577     0.530118
    0.567242     0.659715     0.496512
    0.432758     0.340285     0.496512
    0.326034     0.632362     0.451114
    0.673966     0.367638     0.451114
    0.676624     0.568663     0.558461
    0.323376     0.431337     0.558461
    0.504545     0.616977     0.536025
    0.495455     0.383023     0.536025
    0.434003     0.683750     0.502363
    0.565997     0.316250     0.502363
    0.537998     0.531789     0.513846
    0.462002     0.468211     0.513846
    0.328927     0.284598     0.505921
    0.671073     0.715402     0.505921
    0.124595     0.481717     0.521568
    0.875405     0.518283     0.521568
    0.536109     0.413507     0.533001
    0.463891     0.586493     0.533001
    0.427908     0.622202     0.485188
    0.572092     0.377798     0.485188
    0.372519     0.422502     0.503102
    0.627481     0.577498     0.503102
    0.709082     0.534323     0.455672
    0.290918     0.465677     0.455672
    0.753301     0.364143     0.476933
    0.246699     0.635857     0.476933
    0.173416     0.455228     0.472385
    0.826584     0.544772     0.472385
    0.353726     0.693973     0.489156
    0.646274     0.306027     0.489156
    0.240126     0.569999     0.452473
    0.759874     0.430001     0.452473
    0.450964     0.390032     0.524720
    0.549036     0.609968     0.524720
EA48   21.364 14.808 15.037 90.00 90.00 90.00 Sym.group:    0
1.0000
   21.363963     0.000000     0.000000
    0.000000    14.808474     0.000000
    0.000000     0.000000    15.036952
   O  Cu
  24   24 
Direct
    0.612159     0.528005     0.351517
    0.612159     0.365260     0.427886
    0.612159     0.388721     0.603914
    0.612159     0.565966     0.636336
    0.612159     0.652049     0.480346
    0.579922     0.608577     0.552698
    0.579922     0.584444     0.414591
    0.579922     0.443612     0.394516
    0.579922     0.380707     0.520217
    0.579922     0.482660     0.617978
    0.262427     0.487434     0.441981
    0.262427     0.440086     0.493841
    0.262427     0.475537     0.554213
    0.262427     0.544795     0.539665
    0.262427     0.552148     0.470301
    0.382724     0.613316     0.544430
    0.382724     0.577924     0.407597
    0.382724     0.434844     0.398462
    0.382724     0.381807     0.529649
    0.382724     0.492109     0.619862
    0.515314     0.501865     0.666821
    0.515314     0.661680     0.549804
    0.515314     0.598059     0.363960
    0.515314     0.398924     0.366119
    0.515314     0.339472     0.553297
    0.497315     0.506312     0.354269
    0.497315     0.361214     0.449055
    0.497315     0.407914     0.614245
    0.497315     0.581874     0.621552
    0.497315     0.642687     0.460878
    0.700266     0.590195     0.379605
    0.700266     0.411602     0.378319
    0.700266     0.355172     0.545192
    0.700266     0.498889     0.649612
    0.700266     0.644141     0.547273
    0.352122     0.457386     0.574151
    0.352122     0.558441     0.562827
    0.352122     0.578733     0.464678
    0.352122     0.490218     0.415343
    0.352122     0.415222     0.483001
    0.634443     0.500000     0.500000
    0.478809     0.422838     0.420983
    0.478809     0.399846     0.547853
    0.478809     0.515264     0.608592
    0.478809     0.609587     0.519261
    0.478809     0.552465     0.403312
    0.694773     0.500000     0.500000
    0.765493     0.500000     0.500000
EA49   16.950 17.690 15.467 90.00 90.00 90.00 Sym.group:    0
1.0000
   16.949876     0.000000     0.000000
    0.000000    17.689865     0.000000
    0.000000     0.000000    15.467095
   O  Cu
  24   24 
Direct
    0.362018     0.464392     0.676087
    0.601175     0.403307     0.676087
    0.536807     0.632301     0.676087
    0.595785     0.601608     0.323913
    0.543944     0.369714     0.323913
    0.360271     0.528679     0.323913
    0.351385     0.547762     0.438293
    0.531139     0.352798     0.438293
    0.617477     0.599440     0.438293
    0.523100     0.648555     0.561707
    0.622719     0.406554     0.561707
    0.354181     0.444891     0.561707
    0.558370     0.525568     0.389462
    0.447705     0.535651     0.389462
    0.493925     0.438781     0.389462
    0.449713     0.461789     0.610538
    0.490608     0.560833     0.610538
    0.559680     0.477377     0.610538
    0.328033     0.626569     0.592745
    0.471587     0.294018     0.592745
    0.700380     0.579414     0.592745
    0.460436     0.704286     0.407255
    0.704423     0.430687     0.407255
    0.335141     0.365027     0.407255
    0.696059     0.608196     0.464589
    0.304180     0.608591     0.464589
    0.499761     0.283213     0.464589
    0.310344     0.381790     0.535411
    0.487986     0.716481     0.535411
    0.701670     0.401729     0.535411
    0.315814     0.579049     0.570059
    0.520646     0.307638     0.570059
    0.663540     0.613313     0.570059
    0.510169     0.693131     0.429941
    0.669474     0.394996     0.429941
    0.320357     0.411873     0.429941
    0.541485     0.365974     0.652781
    0.600394     0.601438     0.652781
    0.358120     0.532588     0.652781
    0.605769     0.403707     0.347219
    0.360083     0.460380     0.347219
    0.534149     0.635913     0.347219
    0.553026     0.659787     0.512875
    0.329066     0.464107     0.512875
    0.617908     0.376105     0.512875
    0.327348     0.527319     0.487125
    0.611018     0.629607     0.487125
    0.561634     0.343074     0.487125
EA50   17.801 17.801 17.801 90.00 90.00 90.00 Sym.group:    0
1.0000
   17.800920     0.000000     0.000000
    0.000000    17.800920     0.000000
    0.000000     0.000000    17.800920
   O  Cu
  24   24 
Direct
    0.505578     0.605657     0.546096
    0.494422     0.605657     0.453904
    0.494422     0.394343     0.546096
    0.505578     0.394343     0.453904
    0.546096     0.505578     0.605657
    0.605657     0.546096     0.505578
    0.546096     0.494422     0.394343
    0.394343     0.453904     0.505578
    0.453904     0.505578     0.394343
    0.605657     0.453904     0.494422
    0.453904     0.494422     0.605657
    0.394343     0.546096     0.494422
    0.453904     0.605657     0.494422
    0.546096     0.605657     0.505578
    0.453904     0.394343     0.505578
    0.546096     0.394343     0.494422
    0.394343     0.505578     0.453904
    0.494422     0.546096     0.394343
    0.605657     0.494422     0.453904
    0.494422     0.453904     0.605657
    0.605657     0.505578     0.546096
    0.505578     0.453904     0.394343
    0.394343     0.494422     0.546096
    0.505578     0.546096     0.605657
    0.547666     0.505974     0.714463
    0.452334     0.505974     0.285537
    0.452334     0.494026     0.714463
    0.547666     0.494026     0.285537
    0.714463     0.547666     0.505974
    0.505974     0.714463     0.547666
    0.714463     0.452334     0.494026
    0.494026     0.285537     0.547666
    0.285537     0.547666     0.494026
    0.505974     0.285537     0.452334
    0.285537     0.452334     0.505974
    0.494026     0.714463     0.452334
    0.285537     0.505974     0.452334
    0.714463     0.505974     0.547666
    0.285537     0.494026     0.547666
    0.714463     0.494026     0.452334
    0.494026     0.547666     0.285537
    0.452334     0.714463     0.494026
    0.505974     0.452334     0.285537
    0.452334     0.285537     0.505974
    0.505974     0.547666     0.714463
    0.547666     0.285537     0.494026
    0.494026     0.452334     0.714463
    0.547666     0.714463     0.505974
EA51    8.807  9.700 15.349 90.00 90.00 90.00 Sym.group:    0
1.0000
    8.806738     0.000000     0.000000
    0.000000     9.700476     0.000000
    0.000000     0.000000    15.349428
   O  Cu
  24   24 
Direct
    0.707499     0.793245     0.674255
    0.707499     0.793245     0.325745
    0.116520     0.516520     0.674255
    0.324019     0.809766     0.325745
    0.324019     0.809766     0.674255
    0.292501     0.206755     0.674255
    0.116520     0.516520     0.325745
    0.675981     0.190234     0.674255
    0.292501     0.206755     0.325745
    0.883480     0.483480     0.674255
    0.675981     0.190234     0.325745
    0.883480     0.483480     0.325745
    0.551847     0.938334     0.500000
    0.107791     0.759931     0.500000
    0.055944     0.321597     0.500000
    0.448153     0.061666     0.500000
    0.892209     0.240069     0.500000
    0.944056     0.678403     0.500000
    0.623629     0.888276     0.500000
    0.191433     0.791339     0.500000
    0.067804     0.403064     0.500000
    0.376371     0.111724     0.500000
    0.808567     0.208661     0.500000
    0.932196     0.596936     0.500000
    1.000000     0.713764     0.632477
    1.000000     0.713764     0.367523
    0.046087     0.786236     0.632477
    0.546087     1.000000     0.367523
    0.546087     1.000000     0.632477
    0.000000     0.286236     0.632477
    0.046087     0.786236     0.367523
    0.453913     0.000000     0.632477
    0.000000     0.286236     0.367523
    0.953913     0.213764     0.632477
    0.453913     0.000000     0.367523
    0.953913     0.213764     0.367523
    0.683889     0.700927     0.588967
    0.683889     0.700927     0.411033
    0.216389     0.544117     0.588967
    0.400278     0.745043     0.411033
    0.400278     0.745043     0.588967
    0.316111     0.299073     0.588967
    0.216389     0.544117     0.411033
    0.599722     0.254957     0.588967
    0.316111     0.299073     0.411033
    0.783611     0.455883     0.588967
    0.599722     0.254957     0.411033
    0.783611     0.455883     0.411033
EA52   15.745 15.745 10.701 90.00 90.00 90.00 Sym.group:    0
1.0000
   15.745024     0.000000     0.000000
    0.000000    15.745024     0.000000
    0.000000     0.000000    10.701330
   O  Cu
  24   24 
Direct
    0.567599     0.834707     0.521678
    0.432401     0.165293     0.521678
    0.834707     0.432401     0.521678
    0.165293     0.567599     0.521678
    0.628100     0.756738     0.497660
    0.371900     0.243262     0.497660
    0.756738     0.371900     0.497660
    0.243262     0.628100     0.497660
    0.839871     0.918659     0.484687
    0.160129     0.081341     0.484687
    0.918659     0.160129     0.484687
    0.081341     0.839871     0.484687
    0.963869     0.679453     0.513926
    0.036131     0.320547     0.513926
    0.679453     0.036131     0.513926
    0.320547     0.963869     0.513926
    0.688608     0.507337     0.497545
    0.311392     0.492663     0.497545
    0.507337     0.311392     0.497545
    0.492663     0.688608     0.497545
    0.653714     0.548256     0.513698
    0.346286     0.451744     0.513698
    0.548256     0.346286     0.513698
    0.451744     0.653714     0.513698
    0.661363     0.678090     0.493365
    0.338637     0.321910     0.493365
    0.678090     0.338637     0.493365
    0.321910     0.661363     0.493365
    0.644176     0.876023     0.504557
    0.355824     0.123977     0.504557
    0.876023     0.355824     0.504557
    0.123977     0.644176     0.504557
    0.815804     0.813580     0.467232
    0.184196     0.186420     0.467232
    0.813580     0.184196     0.467232
    0.186420     0.815804     0.467232
    0.664390     0.991405     0.472618
    0.335610     0.008595     0.472618
    0.991405     0.335610     0.472618
    0.008595     0.664390     0.472618
    0.906698     0.827599     0.532768
    0.093302     0.172401     0.532768
    0.827599     0.093302     0.532768
    0.172401     0.906698     0.532768
    1.000000     0.827628     0.500465
    0.000000     0.172372     0.500465
    0.827628     0.000000     0.500465
    0.172372     1.000000     0.500465
EA53   13.612 13.612 23.612 90.00 90.00 90.00 Sym.group:    0
1.0000
   13.612473     0.000000     0.000000
    0.000000    13.612473     0.000000
    0.000000     0.000000    23.612473
   O  Cu
  24   24 
Direct
    0.500000     0.809017     0.211752
    0.500000     0.190983     0.211752
    0.000000     0.500000     0.678147
    1.000000     0.500000     0.321853
    1.000000     0.500000     0.678147
    0.500000     0.809017     0.788248
    0.500000     0.190983     0.788248
    0.809017     1.000000     0.500000
    0.809017     0.000000     0.500000
    0.000000     0.500000     0.321853
    0.190983     0.000000     0.500000
    0.190983     1.000000     0.500000
    0.500000     0.714443     0.299970
    0.500000     0.285557     0.299970
    0.153023     0.500000     0.623626
    0.846977     0.500000     0.376374
    0.846977     0.500000     0.623626
    0.500000     0.714443     0.700030
    0.500000     0.285557     0.700030
    0.714443     0.846977     0.500000
    0.714443     0.153023     0.500000
    0.153023     0.500000     0.376374
    0.285557     0.153023     0.500000
    0.285557     0.846977     0.500000
    0.500000     0.659223     0.351479
    0.500000     0.340777     0.351479
    0.242372     0.500000     0.591791
    0.757628     0.500000     0.408209
    0.757628     0.500000     0.591791
    0.500000     0.659223     0.648521
    0.500000     0.340777     0.648521
    0.659223     0.757628     0.500000
    0.659223     0.242372     0.500000
    0.242372     0.500000     0.408209
    0.340777     0.242372     0.500000
    0.340777     0.757628     0.500000
    0.500000     0.598824     0.407819
    0.500000     0.401176     0.407819
    0.340100     0.500000     0.556971
    0.659900     0.500000     0.443029
    0.659900     0.500000     0.556971
    0.500000     0.598824     0.592181
    0.500000     0.401176     0.592181
    0.598824     0.659900     0.500000
    0.598824     0.340100     0.500000
    0.340100     0.500000     0.443029
    0.401176     0.340100     0.500000
    0.401176     0.659900     0.500000
EA54   12.760 20.523  6.341 90.00 90.00 90.00 Sym.group:    0
1.0000
   12.760309     0.000000     0.000000
    0.000000    20.522741     0.000000
    0.000000     0.000000     6.341202
   O  Cu
  24   24 
Direct
    0.914355     0.051528     0.357346
    0.811308     0.328934     0.452917
    0.607811     0.121827     0.333079
    0.320293     0.457911     0.487304
    0.601026     0.385330     0.559095
    0.719910     0.180888     0.451891
    0.730298     0.446614     0.519918
    0.509132     0.264835     0.280051
    0.723332     0.294071     0.576268
    0.368428     0.484292     0.560749
    0.358584     0.386758     0.431578
    0.133137     0.575929     0.390495
    0.487348     0.872355     0.453904
    0.875051     0.618923     0.457426
    0.124949     0.564277     0.569357
    0.479161     0.860702     0.632766
    0.866863     0.607271     0.636288
    0.333138     0.681074     0.688436
    0.656039     0.686448     0.716046
    0.349326     0.704110     0.334826
    0.672226     0.709485     0.362436
    0.405796     0.529165     0.574183
    0.534191     0.578946     0.590593
    0.641419     0.614430     0.605681
    0.566424     0.459214     0.534781
    0.879175     0.328666     0.506122
    0.841549     0.041988     0.381603
    0.436383     0.439865     0.543060
    0.430972     0.390768     0.408779
    0.693122     0.357741     0.480437
    0.718857     0.251249     0.322308
    0.572392     0.165933     0.297131
    0.830374     0.108217     0.304538
    0.417166     0.286706     0.359714
    0.650167     0.170349     0.259232
    0.659726     0.459246     0.576636
    0.412658     0.538929     0.424298
    0.541052     0.588711     0.440708
    0.750267     0.550595     0.529641
    0.263087     0.548131     0.488628
    0.504860     0.729844     0.529559
    0.591441     0.764218     0.734413
    0.239605     0.642841     0.691159
    0.608977     0.789175     0.351331
    0.257141     0.667797     0.308077
    0.359068     0.256575     0.463413
    0.306814     0.643401     0.560094
    0.338252     0.540559     0.559704
EA55    9.948  8.974 10.205 90.00 90.00 90.00 Sym.group:    0
1.0000
    9.947595     0.000000     0.000000
    0.000000     8.974171     0.000000
    0.000000     0.000000    10.205071
   O  Cu
  24   24 
Direct
    0.630298     0.836288     0.342701
    0.199166     0.282241     0.379412
    0.613046     0.209078     0.297509
    0.684026     0.391390     0.339415
    0.224348     0.484842     0.380597
    0.576353     0.655575     0.278602
    0.367771     0.358149     0.402437
    0.550785     0.308194     0.438095
    0.514190     0.720434     0.434500
    0.865379     0.609083     0.433697
    0.253017     0.781812     0.291603
    0.438173     0.441932     0.128071
    0.430792     0.468196     0.703410
    0.701303     0.440604     0.560755
    0.516412     0.167278     0.707391
    0.192679     0.282467     0.525214
    0.611249     0.684637     0.805362
    0.287516     0.799825     0.623185
    0.493991     0.144864     0.538289
    0.660149     0.810641     0.504000
    0.457262     0.829869     0.617291
    0.611403     0.785374     0.659580
    0.216310     0.343889     0.682278
    0.673648     0.233803     0.713557
    0.168973     0.570187     0.278841
    0.826179     0.405689     0.346084
    0.526925     0.649976     0.151128
    0.805374     0.598327     0.363905
    0.213269     0.732134     0.362105
    0.525681     0.455269     0.162031
    0.721814     0.759622     0.398051
    0.297650     0.837054     0.471984
    0.525692     0.286134     0.236737
    0.614442     0.564924     0.250138
    0.193757     0.569788     0.425458
    0.695999     0.486738     0.302657
    0.276250     0.670877     0.744199
    0.733588     0.560790     0.775478
    0.270608     0.362703     0.818165
    0.811419     0.274297     0.675744
    0.309382     0.574222     0.858219
    0.850192     0.485816     0.715799
    0.460106     0.240783     0.800158
    0.197804     0.756468     0.541907
    0.527092     0.606206     0.869357
    0.869182     0.608955     0.527292
    0.364480     0.457224     0.814552
    0.810128     0.401789     0.622395
EA56    9.582 10.454  9.989 90.00 90.00 90.00 Sym.group:    0
1.0000
    9.582368     0.000000     0.000000
    0.000000    10.453535     0.000000
    0.000000     0.000000     9.988553
   O  Cu
  24   24 
Direct
    0.605675     0.304070     0.783104
    0.718811     0.248893     0.390638
    0.172789     0.447756     0.310866
    0.306522     0.337084     0.372349
    0.580039     0.340532     0.309725
    0.428734     0.357481     0.736956
    0.283676     0.495136     0.446322
    0.573649     0.361195     0.619661
    0.660707     0.400801     0.458624
    0.429625     0.127865     0.503943
    0.141125     0.348701     0.663748
    0.608743     0.529655     0.140645
    0.730231     0.715261     0.320527
    0.568708     0.511798     0.245100
    0.662784     0.655530     0.384397
    0.626708     0.550712     0.839001
    0.312762     0.657109     0.227666
    0.438395     0.693152     0.794475
    0.414679     0.812817     0.378570
    0.563677     0.833609     0.426951
    0.290235     0.669470     0.745064
    0.849521     0.617398     0.494538
    0.374440     0.544494     0.146754
    0.442442     0.292646     0.788469
    0.265289     0.209657     0.400699
    0.312531     0.276278     0.764482
    0.593832     0.364359     0.175616
    0.442876     0.172031     0.425256
    0.422770     0.426619     0.176206
    0.199619     0.399610     0.716971
    0.616613     0.201475     0.455132
    0.625956     0.421979     0.809313
    0.273757     0.490524     0.241626
    0.360528     0.418010     0.762754
    0.485756     0.330203     0.282421
    0.385989     0.291480     0.342556
    0.437329     0.572058     0.451275
    0.525995     0.553452     0.586025
    0.777896     0.525817     0.486381
    0.378441     0.587259     0.260817
    0.403748     0.638681     0.713728
    0.483820     0.748257     0.416848
    0.608458     0.779759     0.287700
    0.298034     0.541869     0.819574
    0.824849     0.616082     0.338865
    0.505685     0.622741     0.135526
    0.865208     0.516704     0.742281
    0.391084     0.875330     0.630175
EA57   10.121 10.432 10.363 90.00 90.00 90.00 Sym.group:    0
1.0000
   10.121202     0.000000     0.000000
    0.000000    10.431684     0.000000
    0.000000     0.000000    10.363311
   O  Cu
  24   24 
Direct
    0.386195     0.671629     0.237176
    0.383103     0.786240     0.414127
    0.283371     0.431579     0.764447
    0.187769     0.351575     0.588522
    0.309449     0.228677     0.462226
    0.167122     0.607119     0.449320
    0.354603     0.706279     0.704350
    0.310136     0.417316     0.230196
    0.170764     0.612391     0.555747
    0.223873     0.428870     0.298219
    0.427580     0.661997     0.770721
    0.574250     0.636857     0.140494
    0.757313     0.253222     0.328591
    0.647587     0.430380     0.145410
    0.786316     0.770077     0.549339
    0.510464     0.208963     0.771569
    0.730087     0.376187     0.791169
    0.613117     0.863849     0.630327
    0.841943     0.523085     0.315023
    0.518623     0.883849     0.374810
    0.778614     0.587887     0.758888
    0.888595     0.508225     0.520939
    0.573793     0.144161     0.327703
    0.598805     0.121185     0.598821
    0.418102     0.146857     0.489921
    0.210095     0.240082     0.523698
    0.179993     0.363631     0.700099
    0.357900     0.393956     0.842726
    0.487944     0.853143     0.477630
    0.365765     0.782989     0.302808
    0.468128     0.654391     0.157274
    0.403347     0.479429     0.183874
    0.230266     0.649554     0.356214
    0.358493     0.762823     0.601468
    0.447448     0.560233     0.815868
    0.185191     0.542756     0.648048
    0.184478     0.384775     0.401470
    0.446021     0.244271     0.322712
    0.648774     0.874657     0.515543
    0.831838     0.491022     0.703641
    0.510045     0.534959     0.111614
    0.871030     0.615897     0.461402
    0.711791     0.532278     0.174290
    0.655562     0.138388     0.416119
    0.750658     0.759270     0.664123
    0.676864     0.473051     0.846417
    0.859509     0.415413     0.374559
    0.675543     0.258997     0.240175
EA58    9.746 10.749 12.960 90.00 90.00 90.00 Sym.group:    0
1.0000
    9.746473     0.000000     0.000000
    0.000000    10.748700     0.000000
    0.000000     0.000000    12.960071
   O  Cu
  24   24 
Direct
    0.183438     0.468102     0.731481
    0.317789     0.252818     0.263475
    0.461926     0.117078     0.516272
    0.129197     0.456182     0.365466
    0.342975     0.709813     0.784371
    0.178523     0.278017     0.551390
    0.134111     0.646268     0.545556
    0.372177     0.864649     0.507125
    0.361836     0.480119     0.140203
    0.472267     0.501607     0.883196
    0.265967     0.739739     0.301152
    0.394798     0.222893     0.746694
    0.678953     0.698109     0.873478
    0.597492     0.226587     0.140524
    0.557534     0.648747     0.897900
    0.546028     0.872293     0.815889
    0.526595     0.319489     0.109809
    0.652394     0.825301     0.872093
    0.711664     0.699443     0.487733
    0.557462     0.226911     0.526030
    0.805863     0.576009     0.528543
    0.718783     0.292497     0.493582
    0.641610     0.383853     0.225616
    0.638524     0.540008     0.788507
    0.155443     0.611132     0.658540
    0.289793     0.395848     0.190534
    0.191359     0.353791     0.694712
    0.157191     0.313153     0.438407
    0.121276     0.570493     0.402235
    0.370971     0.566783     0.857313
    0.345931     0.709699     0.214051
    0.415018     0.794084     0.734040
    0.278802     0.815514     0.444473
    0.381962     0.147118     0.603373
    0.419085     0.187642     0.289358
    0.699653     0.679122     0.617130
    0.581777     0.244445     0.397035
    0.569814     0.565161     0.826507
    0.510645     0.836807     0.729152
    0.574241     0.389509     0.183162
    0.682871     0.611123     0.803768
    0.640256     0.303003     0.211763
    0.573542     0.496663     0.632910
    0.584240     0.454900     0.377208
    0.662321     0.580617     0.500968
    0.587782     0.350045     0.512172
    0.848474     0.414748     0.513882
    0.591544     0.751424     0.402570
EA59    9.831 10.066  9.872 90.00 90.00 90.00 Sym.group:    0
1.0000
    9.830504     0.000000     0.000000
    0.000000    10.065723     0.000000
    0.000000     0.000000     9.871672
   O  Cu
  24   24 
Direct
    0.859054     0.365922     0.453204
    0.289638     0.224313     0.390078
    0.463299     0.230189     0.470276
    0.526540     0.453383     0.786736
    0.694038     0.335487     0.363132
    0.343856     0.367650     0.480477
    0.359374     0.499492     0.348586
    0.714314     0.479760     0.466195
    0.653767     0.475843     0.649516
    0.682233     0.186655     0.658455
    0.297115     0.281404     0.769735
    0.497015     0.316770     0.149927
    0.327862     0.599079     0.756205
    0.483227     0.857529     0.547123
    0.447390     0.691660     0.158991
    0.725289     0.669804     0.688832
    0.739467     0.753252     0.357039
    0.170333     0.597897     0.455455
    0.659730     0.716022     0.691545
    0.198759     0.634659     0.522603
    0.526839     0.856510     0.478963
    0.769393     0.722446     0.426360
    0.385209     0.640861     0.165260
    0.321739     0.516321     0.753832
    0.503425     0.127650     0.555537
    0.700970     0.304333     0.224123
    0.476374     0.349670     0.865296
    0.672461     0.193273     0.563840
    0.311463     0.368779     0.789694
    0.520746     0.270499     0.228599
    0.797583     0.309206     0.550779
    0.353222     0.275029     0.290090
    0.194425     0.418924     0.670843
    0.431362     0.477027     0.798337
    0.623547     0.272198     0.357433
    0.559196     0.221300     0.446957
    0.871883     0.532076     0.314873
    0.267718     0.793275     0.311905
    0.276345     0.831758     0.401324
    0.340051     0.853130     0.332637
    0.557674     0.573607     0.858862
    0.827076     0.541866     0.229630
    0.319032     0.694485     0.757284
    0.445895     0.865282     0.632893
    0.522188     0.742019     0.137699
    0.128117     0.547037     0.388440
    0.807918     0.630350     0.679812
    0.704385     0.803379     0.285249
EA60   10.519  9.846 10.566 90.00 90.00 90.00 Sym.group:    0
1.0000
   10.519200     0.000000     0.000000
    0.000000     9.846423     0.000000
    0.000000     0.000000    10.565800
   O  Cu
  24   24 
Direct
    0.677986     0.245228     0.778387
    0.217234     0.281641     0.707652
    0.285721     0.250891     0.244061
    0.746473     0.214478     0.314796
    0.477195     0.138116     0.267844
    0.391133     0.430849     0.884237
    0.472611     0.164989     0.763203
    0.594702     0.372490     0.124524
    0.115211     0.429063     0.400446
    0.228871     0.172840     0.512261
    0.720934     0.130265     0.518786
    0.870624     0.374275     0.608316
    0.317718     0.624294     0.261413
    0.493604     0.831738     0.445859
    0.675885     0.707444     0.684445
    0.582426     0.849681     0.686187
    0.677051     0.502073     0.849617
    0.189875     0.514246     0.256699
    0.338838     0.855767     0.389728
    0.715500     0.833362     0.579871
    0.471912     0.839449     0.283412
    0.842228     0.657716     0.472045
    0.554870     0.555197     0.137653
    0.689562     0.738362     0.275502
    0.510720     0.263201     0.841659
    0.309928     0.156089     0.331116
    0.452988     0.232918     0.180789
    0.166134     0.418539     0.286639
    0.809966     0.217952     0.483436
    0.153741     0.278167     0.539012
    0.639877     0.147017     0.699931
    0.819701     0.384800     0.722122
    0.292366     0.176314     0.680901
    0.707943     0.365375     0.176230
    0.657439     0.126791     0.350146
    0.277892     0.437964     0.832532
    0.427156     0.708614     0.803653
    0.139799     0.606096     0.469261
    0.274491     0.789261     0.607110
    0.726845     0.660805     0.347004
    0.810447     0.548331     0.464184
    0.616341     0.587955     0.223085
    0.326963     0.709840     0.666477
    0.410565     0.597367     0.783657
    0.216459     0.636991     0.542558
    0.593631     0.531661     0.609201
    0.445338     0.613280     0.417827
    0.538969     0.644941     0.527028
EA61   13.564 10.633 13.048 90.00 90.00 90.00 Sym.group:    0
1.0000
   13.564451     0.000000     0.000000
    0.000000    10.633337     0.000000
    0.000000     0.000000    13.048224
   O  Cu
  24   24 
Direct
    0.313512     0.178949     0.666976
    0.255311     0.811973     0.559946
    0.302138     0.250540     0.349868
    0.138559     0.507389     0.549545
    0.301132     0.597949     0.237399
    0.341539     0.791916     0.410350
    0.253812     0.336581     0.712424
    0.219936     0.550320     0.644637
    0.423107     0.642451     0.261462
    0.414472     0.223948     0.414050
    0.796145     0.393539     0.452235
    0.857634     0.477269     0.572721
    0.685919     0.180412     0.186303
    0.769126     0.685911     0.804150
    0.593015     0.742391     0.787819
    0.782516     0.303207     0.323200
    0.602835     0.608022     0.546441
    0.578836     0.482251     0.391808
    0.653928     0.118907     0.083958
    0.876236     0.698269     0.827083
    0.510130     0.881093     0.859201
    0.920855     0.340778     0.336554
    0.562372     0.619560     0.676228
    0.680346     0.364962     0.409122
    0.155180     0.434209     0.325452
    0.346657     0.169486     0.510671
    0.192554     0.673876     0.612505
    0.469076     0.563866     0.168383
    0.216856     0.747390     0.465393
    0.457916     0.397495     0.161730
    0.231792     0.242743     0.605362
    0.495225     0.139814     0.662046
    0.190651     0.331769     0.593943
    0.242996     0.705636     0.380109
    0.405373     0.337202     0.219206
    0.649959     0.859091     0.916042
    0.879691     0.209085     0.214403
    0.662156     0.310772     0.292658
    0.513111     0.459393     0.451166
    0.503927     0.535476     0.538173
    0.591255     0.489385     0.508006
    0.588383     0.251909     0.193137
    0.796954     0.632983     0.699115
    0.662772     0.598861     0.663857
    0.848751     0.284902     0.336235
    0.531816     0.334249     0.207299
    0.657372     0.489649     0.395104
    0.561692     0.681883     0.594959
EA62   10.320 10.168  9.239 90.00 90.00 90.00 Sym.group:    0
1.0000
   10.320060     0.000000     0.000000
    0.000000    10.167776     0.000000
    0.000000     0.000000     9.239491
   O  Cu
  24   24 
Direct
    0.125612     0.372565     0.626541
    0.196502     0.789915     0.363586
    0.161093     0.428021     0.773884
    0.231983     0.845371     0.510929
    0.385796     0.371776     0.813974
    0.255518     0.662941     0.698995
    0.486618     0.840585     0.510524
    0.315649     0.262141     0.522677
    0.185371     0.553305     0.407698
    0.416471     0.730950     0.219227
    0.477820     0.443135     0.629109
    0.384345     0.546489     0.606288
    0.446288     0.653611     0.522129
    0.610892     0.148925     0.540075
    0.691447     0.232602     0.678126
    0.853316     0.565694     0.397911
    0.502058     0.657039     0.869792
    0.670372     0.678261     0.809004
    0.765863     0.701312     0.316871
    0.557951     0.746192     0.185244
    0.869908     0.450764     0.619764
    0.557485     0.635483     0.130208
    0.816982     0.443066     0.730921
    0.848523     0.553473     0.685104
    0.448087     0.396663     0.505637
    0.354611     0.500018     0.482816
    0.315848     0.724585     0.451160
    0.254504     0.455503     0.626656
    0.214439     0.589066     0.772246
    0.393633     0.871091     0.544537
    0.457434     0.301927     0.842008
    0.138445     0.470293     0.456670
    0.317639     0.752318     0.228962
    0.381440     0.183154     0.526433
    0.416252     0.423310     0.227381
    0.481941     0.525979     0.500167
    0.573302     0.184872     0.381511
    0.651061     0.350253     0.789665
    0.642026     0.806514     0.355238
    0.611333     0.448586     0.174355
    0.824174     0.404480     0.431688
    0.662616     0.208013     0.461718
    0.597154     0.257365     0.730811
    0.800074     0.485295     0.342924
    0.534549     0.355319     0.194320
    0.503908     0.546001     0.864745
    0.642742     0.749895     0.728855
    0.735590     0.751134     0.411242
EA63    9.879 10.422  9.739 90.00 90.00 90.00 Sym.group:    0
1.0000
    9.879466     0.000000     0.000000
    0.000000    10.422166     0.000000
    0.000000     0.000000     9.739259
   O  Cu
  24   24 
Direct
    0.480330     0.323000     0.607402
    0.333353     0.449852     0.367742
    0.465251     0.230380     0.271418
    0.252581     0.749141     0.458313
    0.155640     0.422688     0.595132
    0.437809     0.443167     0.865401
    0.250793     0.665055     0.609173
    0.239003     0.531618     0.693211
    0.365897     0.573030     0.791598
    0.377687     0.706467     0.707560
    0.398572     0.518894     0.139153
    0.436415     0.169597     0.428530
    0.656224     0.173403     0.442725
    0.532106     0.444245     0.136586
    0.863546     0.537745     0.399128
    0.772349     0.606596     0.545815
    0.513950     0.222084     0.552866
    0.533270     0.379157     0.770707
    0.562931     0.774164     0.531490
    0.571881     0.330845     0.415061
    0.704179     0.462870     0.455509
    0.576050     0.489572     0.311312
    0.703673     0.667179     0.819490
    0.804424     0.309281     0.702545
    0.202888     0.640439     0.343751
    0.240731     0.291143     0.633128
    0.273345     0.446609     0.151099
    0.456800     0.122345     0.569547
    0.146763     0.525233     0.283448
    0.330217     0.200969     0.701896
    0.349665     0.271092     0.239157
    0.441834     0.326508     0.839593
    0.339481     0.809324     0.389055
    0.130980     0.406924     0.467805
    0.238433     0.443253     0.276617
    0.447434     0.213062     0.653225
    0.846527     0.630086     0.667939
    0.589281     0.868621     0.428124
    0.652869     0.346775     0.845263
    0.703075     0.709960     0.733668
    0.716714     0.270553     0.698735
    0.708829     0.760703     0.357934
    0.534959     0.750920     0.745250
    0.786366     0.613467     0.329450
    0.728798     0.236753     0.528781
    0.558079     0.299365     0.728426
    0.655876     0.757415     0.513407
    0.733678     0.687023     0.574025
EA64    9.744  9.062  9.341 90.00 90.00 90.00 Sym.group:    0
1.0000
    9.744140     0.000000     0.000000
    0.000000     9.062446     0.000000
    0.000000     0.000000     9.341408
   O  Cu
  24   24 
Direct
    0.648495     0.746269     0.196702
    0.821967     0.356873     0.288487
    0.180566     0.394054     0.265182
    0.525021     0.758691     0.170743
    0.266071     0.412800     0.171616
    0.859936     0.325705     0.408012
    0.196509     0.218405     0.469417
    0.604351     0.272793     0.165982
    0.769817     0.809237     0.424580
    0.263175     0.835954     0.416988
    0.494845     0.283810     0.142959
    0.339008     0.852580     0.334005
    0.374159     0.847773     0.614329
    0.455615     0.230558     0.835980
    0.638663     0.855983     0.525598
    0.720119     0.238768     0.747249
    0.276726     0.577384     0.778837
    0.235152     0.247120     0.609477
    0.819504     0.594230     0.596756
    0.455053     0.408892     0.860228
    0.725260     0.417278     0.769584
    0.716935     0.625278     0.666478
    0.350954     0.203278     0.583385
    0.396679     0.615338     0.773912
    0.601687     0.783335     0.373773
    0.310243     0.288960     0.348987
    0.505675     0.792994     0.353586
    0.692656     0.250486     0.429387
    0.376733     0.303537     0.276232
    0.449628     0.464367     0.167849
    0.365556     0.687347     0.250352
    0.666767     0.442521     0.213499
    0.183788     0.406085     0.458750
    0.749442     0.648725     0.331060
    0.215189     0.654382     0.414893
    0.131235     0.461216     0.638945
    0.717618     0.748985     0.615032
    0.725084     0.195748     0.592065
    0.362662     0.737969     0.734106
    0.370128     0.184731     0.711139
    0.363262     0.303406     0.831618
    0.281550     0.777506     0.596631
    0.789920     0.316648     0.688490
    0.568911     0.144017     0.719617
    0.538950     0.830534     0.678133
    0.238452     0.714500     0.533952
    0.332797     0.399429     0.825517
    0.807066     0.414149     0.666417
EA65   10.287 10.346 10.092 90.00 90.00 90.00 Sym.group:    0
1.0000
   10.287254     0.000000     0.000000
    0.000000    10.345916     0.000000
    0.000000     0.000000    10.092048
   O  Cu
  24   24 
Direct
    0.139562     0.435899     0.506369
    0.257186     0.320419     0.265479
    0.278537     0.699466     0.632031
    0.368887     0.402504     0.816333
    0.233988     0.329953     0.605480
    0.457542     0.815286     0.480750
    0.354147     0.211983     0.359397
    0.433099     0.525894     0.214233
    0.290683     0.665715     0.505898
    0.417694     0.311428     0.734915
    0.656572     0.354150     0.258092
    0.779841     0.574398     0.373825
    0.653151     0.518812     0.831434
    0.599948     0.177389     0.517545
    0.500436     0.255774     0.774537
    0.703149     0.724180     0.646053
    0.555441     0.786940     0.368541
    0.734555     0.600917     0.314589
    0.701859     0.327631     0.317329
    0.575537     0.273205     0.775203
    0.755545     0.669763     0.630270
    0.548334     0.814837     0.443559
    0.600755     0.573229     0.847216
    0.524848     0.159958     0.516878
    0.373360     0.636159     0.836748
    0.345728     0.432127     0.194253
    0.187881     0.587098     0.517520
    0.172382     0.458335     0.619122
    0.362116     0.272059     0.230553
    0.191113     0.479581     0.334197
    0.433903     0.802762     0.611169
    0.232059     0.431453     0.691948
    0.442965     0.224390     0.260019
    0.813472     0.286815     0.442184
    0.639111     0.639673     0.175109
    0.501394     0.706160     0.874466
    0.741957     0.294407     0.762492
    0.868280     0.545746     0.617909
    0.512356     0.880595     0.601471
    0.880339     0.498415     0.490628
    0.572244     0.428074     0.126665
    0.589195     0.835598     0.701973
    0.550214     0.731999     0.201887
    0.780479     0.416308     0.790401
    0.762890     0.212248     0.541555
    0.444825     0.398502     0.125534
    0.286030     0.164402     0.437503
    0.676300     0.138201     0.491313
EA66    9.867 10.237  9.728 90.00 90.00 90.00 Sym.group:    0
1.0000
    9.866940     0.000000     0.000000
    0.000000    10.237064     0.000000
    0.000000     0.000000     9.728023
   O  Cu
  24   24 
Direct
    0.851616     0.354082     0.627890
    0.696290     0.154945     0.476549
    0.155072     0.421822     0.689969
    0.374285     0.155611     0.509039
    0.476509     0.311488     0.195089
    0.849229     0.463400     0.491615
    0.282452     0.304782     0.705440
    0.690554     0.259969     0.337011
    0.565305     0.406588     0.219117
    0.455829     0.205108     0.601165
    0.643894     0.446220     0.784406
    0.256662     0.510263     0.365552
    0.393368     0.526499     0.332464
    0.870155     0.815616     0.737131
    0.794649     0.879647     0.723961
    0.764562     0.802334     0.867864
    0.851561     0.767833     0.826068
    0.641690     0.583274     0.812395
    0.800841     0.560802     0.676986
    0.776291     0.687868     0.518591
    0.601967     0.788872     0.556107
    0.518780     0.724228     0.737688
    0.315708     0.559577     0.636570
    0.659163     0.533185     0.312289
    0.284747     0.223331     0.300166
    0.554081     0.139391     0.547391
    0.498679     0.488278     0.142670
    0.138472     0.474366     0.538785
    0.762523     0.406627     0.750486
    0.861528     0.474327     0.635271
    0.174955     0.330137     0.613464
    0.610979     0.153108     0.391150
    0.723718     0.220320     0.650247
    0.571573     0.202300     0.315158
    0.239344     0.261449     0.585021
    0.414493     0.662475     0.383035
    0.567984     0.624553     0.351261
    0.376844     0.648052     0.518949
    0.600349     0.777930     0.701627
    0.639514     0.681065     0.800786
    0.765089     0.623213     0.752140
    0.803533     0.684324     0.622915
    0.701718     0.779944     0.591696
    0.638490     0.581367     0.416837
    0.476977     0.653190     0.483156
    0.431256     0.572068     0.649089
    0.484171     0.120353     0.322609
    0.425504     0.651357     0.857585
EA67   10.647 10.111 10.708 90.00 90.00 90.00 Sym.group:    0
1.0000
   10.646507     0.000000     0.000000
    0.000000    10.110513     0.000000
    0.000000     0.000000    10.708306
   O  Cu
  24   24 
Direct
    0.396343     0.717273     0.240034
    0.253610     0.733776     0.568819
    0.150485     0.437914     0.431428
    0.257722     0.442903     0.748778
    0.454979     0.299071     0.187447
    0.363778     0.144752     0.472833
    0.160676     0.519634     0.432303
    0.441588     0.133680     0.486133
    0.262186     0.690905     0.636689
    0.223666     0.407213     0.685211
    0.450587     0.669621     0.204047
    0.401866     0.264781     0.236971
    0.699963     0.197500     0.552720
    0.814519     0.427388     0.365525
    0.804837     0.483677     0.664849
    0.685196     0.662828     0.263523
    0.591533     0.580317     0.811382
    0.709131     0.199828     0.477558
    0.503579     0.825269     0.376749
    0.622363     0.646886     0.778610
    0.663535     0.598585     0.221134
    0.836180     0.491629     0.407913
    0.774008     0.417108     0.697621
    0.217517     0.352350     0.592077
    0.331747     0.193085     0.721468
    0.236343     0.432793     0.191463
    0.293285     0.496905     0.147127
    0.420044     0.156812     0.721699
    0.448703     0.821523     0.708437
    0.223151     0.529361     0.203329
    0.395175     0.225609     0.785193
    0.344121     0.784684     0.278742
    0.276686     0.149495     0.443545
    0.129212     0.346174     0.443260
    0.284552     0.494633     0.821544
    0.712855     0.189546     0.312662
    0.660929     0.872095     0.415224
    0.880536     0.644673     0.482838
    0.700767     0.286151     0.784928
    0.635697     0.449289     0.133247
    0.708509     0.780675     0.707909
    0.664018     0.177155     0.713010
    0.633926     0.865244     0.636581
    0.544298     0.426099     0.882475
    0.751070     0.791472     0.359027
    0.508805     0.420916     0.117525
    0.765161     0.302490     0.257059
    0.864978     0.640727     0.610362
EA68   11.020 10.836 11.006 90.00 90.00 90.00 Sym.group:    0
1.0000
   11.020176     0.000000     0.000000
    0.000000    10.836079     0.000000
    0.000000     0.000000    11.006221
   O  Cu
  24   24 
Direct
    0.112292     0.514076     0.559615
    0.430295     0.580497     0.885364
    0.490739     0.888530     0.473938
    0.446536     0.138373     0.361673
    0.292200     0.357445     0.806473
    0.398701     0.130560     0.573330
    0.218793     0.287192     0.326472
    0.431710     0.319221     0.152154
    0.199893     0.604685     0.734452
    0.494670     0.762283     0.796034
    0.195963     0.730932     0.412355
    0.168429     0.488789     0.286198
    0.667493     0.573432     0.590223
    0.661577     0.612124     0.435277
    0.546265     0.365614     0.642457
    0.515119     0.301752     0.441961
    0.529497     0.502342     0.303338
    0.656048     0.386287     0.435771
    0.628516     0.659037     0.548078
    0.700555     0.526518     0.477421
    0.586795     0.376500     0.365294
    0.584879     0.487276     0.678592
    0.584373     0.311541     0.512439
    0.559774     0.597737     0.331671
    0.335977     0.157463     0.408941
    0.175016     0.487173     0.724004
    0.208025     0.675833     0.302827
    0.137169     0.631588     0.570063
    0.379503     0.218261     0.747666
    0.131490     0.426375     0.385279
    0.356673     0.662001     0.833550
    0.255732     0.349606     0.227391
    0.333959     0.831214     0.374839
    0.390698     0.393453     0.868735
    0.564436     0.297356     0.816856
    0.506583     0.451426     0.872854
    0.513839     0.565857     0.127146
    0.599893     0.135855     0.380229
    0.745559     0.223517     0.373167
    0.835878     0.664919     0.606896
    0.830090     0.704309     0.446436
    0.671157     0.145925     0.452751
    0.674297     0.213445     0.300645
    0.544994     0.664015     0.156299
    0.795770     0.753008     0.563529
    0.870196     0.616219     0.489803
    0.604520     0.423645     0.854365
    0.387836     0.601599     0.150934
EA69    7.890 20.814 10.495 90.00 90.00 90.00 Sym.group:    0
1.0000
    7.890453     0.000000     0.000000
    0.000000    20.814135     0.000000
    0.000000     0.000000    10.494849
   O  Cu
  24   24 
Direct
    0.393745     0.960679     0.403145
    0.460376     0.290074     0.354714
    0.276036     0.835699     0.129225
    0.412142     0.495790     0.224210
    0.561943     0.616867     0.460578
    0.313295     0.458583     0.288351
    0.445434     0.811388     0.336049
    0.427762     0.404987     0.294236
    0.236224     0.696554     0.206451
    0.672770     0.282393     0.481222
    0.595277     0.718714     0.484140
    0.505411     0.484455     0.312841
    0.353812     0.562860     0.178418
    0.172983     0.317531     0.607184
    0.278393     0.449601     0.810811
    0.222928     0.689327     0.697316
    0.590191     0.390197     0.858262
    0.410983     0.169305     0.699517
    0.712806     0.731070     0.732357
    0.671155     0.182076     0.662101
    0.496762     0.646079     0.857633
    0.806235     0.475189     0.732986
    0.478385     0.877774     0.629387
    0.635990     0.136652     0.406689
    0.541915     0.451664     0.467608
    0.457699     0.275467     0.267700
    0.384371     0.952502     0.300642
    0.501427     0.535946     0.336281
    0.362555     0.575491     0.272862
    0.532295     0.340058     0.452924
    0.350990     0.753606     0.438599
    0.244181     0.791741     0.148378
    0.331986     0.895766     0.381755
    0.279475     0.658194     0.119303
    0.241537     0.805257     0.250923
    0.709119     0.165920     0.549235
    0.246111     0.346799     0.749731
    0.364010     0.863348     0.593311
    0.882482     0.442743     0.506310
    0.567009     0.732725     0.805847
    0.149801     0.660059     0.554769
    0.337854     0.140037     0.556971
    0.267057     0.617106     0.785178
    0.128855     0.389752     0.519322
    0.735989     0.388542     0.784772
    0.624182     0.876118     0.555895
    0.794898     0.642694     0.707354
    0.525358     0.183731     0.735593
EA70   10.811 10.781 10.604 90.00 90.00 90.00 Sym.group:    0
1.0000
   10.811051     0.000000     0.000000
    0.000000    10.781421     0.000000
    0.000000     0.000000    10.603988
   O  Cu
  24   24 
Direct
    0.815334     0.318411     0.425416
    0.715732     0.363019     0.452360
    0.564742     0.296255     0.198959
    0.281755     0.209772     0.517399
    0.766141     0.424018     0.745271
    0.365878     0.263139     0.745591
    0.363124     0.395512     0.831542
    0.768171     0.293432     0.656517
    0.206925     0.296421     0.407840
    0.640477     0.212427     0.310138
    0.121812     0.544839     0.387576
    0.471583     0.814737     0.251705
    0.373918     0.528106     0.883808
    0.289936     0.837026     0.465550
    0.339701     0.723055     0.794033
    0.772540     0.756229     0.638029
    0.236736     0.665591     0.247503
    0.886575     0.575803     0.454723
    0.787657     0.685298     0.293821
    0.561199     0.656796     0.131918
    0.456465     0.885668     0.595913
    0.615312     0.756033     0.788356
    0.729190     0.438069     0.174850
    0.724315     0.582447     0.396004
    0.467161     0.403873     0.536663
    0.498550     0.473592     0.392978
    0.579010     0.317010     0.302151
    0.304785     0.305226     0.480936
    0.710381     0.400350     0.658505
    0.391766     0.360405     0.716880
    0.229155     0.429247     0.758346
    0.856601     0.371889     0.553680
    0.144324     0.375432     0.528235
    0.759935     0.310566     0.291464
    0.596715     0.267931     0.864124
    0.384913     0.133569     0.289593
    0.270810     0.561931     0.825150
    0.620581     0.831828     0.689279
    0.442809     0.689230     0.852691
    0.190703     0.705963     0.356460
    0.828422     0.569132     0.283941
    0.623542     0.739137     0.200456
    0.167845     0.504467     0.278620
    0.348089     0.843696     0.636332
    0.409240     0.732394     0.183168
    0.398312     0.878997     0.425131
    0.767272     0.680435     0.737106
    0.845810     0.691969     0.464603
EA71    9.360  9.362 12.325 90.00 90.00 90.00 Sym.group:    0
1.0000
    9.360122     0.000000     0.000000
    0.000000     9.361601     0.000000
    0.000000     0.000000    12.325435
   O  Cu
  24   24 
Direct
    0.306974     0.520495     0.124915
    0.621747     0.440491     0.118296
    0.585038     0.589075     0.117186
    0.343683     0.371911     0.126025
    0.432040     0.595568     0.084094
    0.489834     0.361629     0.085842
    0.471263     0.165979     0.444180
    0.516806     0.827850     0.434119
    0.668312     0.214576     0.438703
    0.319757     0.779253     0.439596
    0.259581     0.433440     0.248014
    0.691643     0.539999     0.236005
    0.445312     0.397083     0.859804
    0.583567     0.618873     0.845173
    0.456333     0.419576     0.745975
    0.563397     0.591326     0.734645
    0.342685     0.736345     0.686812
    0.672516     0.272054     0.682727
    0.788499     0.458116     0.670452
    0.226702     0.550283     0.699086
    0.260537     0.420738     0.749031
    0.758553     0.589809     0.715867
    0.475893     0.766215     0.726240
    0.543196     0.244332     0.738658
    0.538370     0.274288     0.340378
    0.430935     0.709157     0.337128
    0.635272     0.598449     0.200231
    0.309176     0.371240     0.211279
    0.274996     0.509593     0.210245
    0.669453     0.460096     0.201265
    0.367467     0.464200     0.390196
    0.610820     0.524216     0.383432
    0.544337     0.305103     0.468062
    0.448865     0.691567     0.465174
    0.701829     0.835511     0.489333
    0.834856     0.297043     0.493357
    0.423035     0.549710     0.536231
    0.579817     0.451866     0.530477
    0.421228     0.690617     0.660859
    0.592105     0.316749     0.662879
    0.712029     0.509132     0.650188
    0.301304     0.498235     0.673550
    0.348611     0.480738     0.853794
    0.679549     0.534822     0.833564
    0.465570     0.668365     0.841416
    0.562590     0.347194     0.845942
    0.119569     0.412071     0.522433
    0.588412     0.119471     0.505228
EA72   10.014 10.297 10.191 90.00 90.00 90.00 Sym.group:    0
1.0000
   10.014029     0.000000     0.000000
    0.000000    10.297373     0.000000
    0.000000     0.000000    10.190719
   O  Cu
  24   24 
Direct
    0.297210     0.248931     0.316615
    0.173867     0.585361     0.342064
    0.630637     0.204927     0.356859
    0.784662     0.589420     0.343448
    0.527262     0.807177     0.347803
    0.516310     0.443479     0.152147
    0.442254     0.415461     0.168290
    0.795270     0.608216     0.420020
    0.199463     0.652333     0.377597
    0.580934     0.759718     0.311449
    0.362193     0.209599     0.343531
    0.639813     0.261522     0.301375
    0.450765     0.873415     0.520472
    0.419597     0.145836     0.606777
    0.774772     0.410997     0.742449
    0.191151     0.562705     0.738537
    0.330745     0.521737     0.847318
    0.813439     0.576406     0.696394
    0.578425     0.271340     0.810375
    0.137800     0.699815     0.538766
    0.453476     0.269585     0.819454
    0.218417     0.786795     0.568995
    0.518718     0.359442     0.869917
    0.443650     0.243475     0.728841
    0.841036     0.346970     0.398255
    0.421127     0.680289     0.154049
    0.868618     0.389966     0.478472
    0.833032     0.301267     0.481135
    0.339394     0.629423     0.152960
    0.342345     0.713378     0.197987
    0.228161     0.290948     0.270946
    0.131382     0.509310     0.310837
    0.478458     0.870175     0.394820
    0.611038     0.131988     0.409794
    0.605089     0.460631     0.128974
    0.774014     0.583624     0.252452
    0.397157     0.801866     0.660483
    0.310960     0.247738     0.680293
    0.497296     0.551139     0.853439
    0.132244     0.513165     0.590749
    0.726313     0.712379     0.666048
    0.717123     0.277857     0.665931
    0.504794     0.828451     0.605968
    0.328034     0.197823     0.570678
    0.789809     0.371074     0.640628
    0.187337     0.466315     0.689105
    0.393324     0.607133     0.819410
    0.719367     0.617877     0.739875
EA73   10.611 10.591 10.150 90.00 90.00 90.00 Sym.group:    0
1.0000
   10.610682     0.000000     0.000000
    0.000000    10.591316     0.000000
    0.000000     0.000000    10.149996
   O  Cu
  24   24 
Direct
    0.234037     0.221901     0.640192
    0.506839     0.177149     0.249731
    0.881994     0.347280     0.491580
    0.609192     0.392032     0.882041
    0.796360     0.287825     0.689228
    0.236141     0.269672     0.286130
    0.364117     0.116329     0.493020
    0.786565     0.395085     0.223445
    0.695651     0.166281     0.369248
    0.287995     0.438653     0.152041
    0.464826     0.237872     0.813000
    0.258721     0.436769     0.827985
    0.748260     0.657385     0.381651
    0.470074     0.799812     0.391163
    0.221814     0.642428     0.509512
    0.228869     0.742024     0.371410
    0.834687     0.538806     0.309394
    0.579511     0.808502     0.264423
    0.260778     0.797369     0.538648
    0.866596     0.594151     0.476632
    0.611419     0.863848     0.431661
    0.333861     0.717233     0.760328
    0.760454     0.697044     0.669195
    0.544552     0.827963     0.668707
    0.255078     0.174983     0.463957
    0.817401     0.240907     0.512993
    0.860953     0.394198     0.667815
    0.863057     0.441969     0.313753
    0.432279     0.343410     0.874246
    0.683752     0.225771     0.257527
    0.343076     0.163247     0.669256
    0.190855     0.437818     0.234700
    0.182229     0.389884     0.737677
    0.518737     0.117660     0.361453
    0.641740     0.286494     0.820795
    0.333281     0.270507     0.203471
    0.234335     0.544606     0.238696
    0.660929     0.524417     0.147563
    0.445027     0.655336     0.147075
    0.487263     0.743009     0.703613
    0.379946     0.620965     0.775629
    0.715937     0.545345     0.726914
    0.655255     0.705198     0.679256
    0.391380     0.576699     0.201070
    0.559372     0.538888     0.176713
    0.361206     0.505011     0.530252
    0.565477     0.615521     0.440205
    0.426684     0.620532     0.470457
EA74   10.474 10.072 10.471 90.00 90.00 90.00 Sym.group:    0
1.0000
   10.473674     0.000000     0.000000
    0.000000    10.071819     0.000000
    0.000000     0.000000    10.471162
   O  Cu
  24   24 
Direct
    0.318257     0.297579     0.775316
    0.262506     0.797643     0.578283
    0.413138     0.119156     0.525435
    0.273180     0.491112     0.188765
    0.365010     0.669097     0.820478
    0.307516     0.785538     0.319836
    0.160804     0.315775     0.497721
    0.300140     0.245010     0.286598
    0.179990     0.515129     0.713074
    0.133844     0.561877     0.399888
    0.567491     0.851565     0.391362
    0.848433     0.249042     0.509667
    0.709937     0.233819     0.768304
    0.813028     0.535723     0.330422
    0.606077     0.245898     0.205496
    0.528825     0.504485     0.861161
    0.715256     0.163986     0.430909
    0.700581     0.751792     0.453376
    0.573774     0.148435     0.695122
    0.559098     0.736241     0.717589
    0.628616     0.515266     0.774670
    0.796304     0.533697     0.461517
    0.531132     0.193834     0.303068
    0.245839     0.629876     0.577111
    0.399115     0.844250     0.653950
    0.454866     0.344187     0.850982
    0.231074     0.777495     0.463629
    0.418822     0.814090     0.284244
    0.444570     0.139304     0.640089
    0.116864     0.474666     0.482805
    0.228402     0.622489     0.744812
    0.489580     0.127198     0.381642
    0.317120     0.332221     0.203682
    0.459336     0.610438     0.867803
    0.223931     0.356238     0.727991
    0.210286     0.569920     0.256095
    0.223697     0.236967     0.430391
    0.496723     0.548453     0.117280
    0.689565     0.470620     0.138839
    0.674789     0.392848     0.814755
    0.860647     0.413276     0.467672
    0.820124     0.261021     0.393152
    0.641655     0.778840     0.324953
    0.596723     0.236466     0.810347
    0.827432     0.347670     0.670102
    0.710079     0.703309     0.327460
    0.750597     0.244129     0.325353
    0.502266     0.216834     0.789103
EA75    8.961  8.985 12.675 90.00 90.00 90.00 Sym.group:    0
1.0000
    8.961324     0.000000     0.000000
    0.000000     8.984578     0.000000
    0.000000     0.000000    12.675052
   O  Cu
  24   24 
Direct
    0.546972     0.575712     0.126360
    0.703660     0.159197     0.312392
    0.244247     0.811974     0.444264
    0.683244     0.634306     0.173230
    0.839932     0.217792     0.359262
    0.380519     0.870569     0.491134
    0.611785     0.742608     0.374492
    0.807703     0.454857     0.329422
    0.342375     0.626767     0.281829
    0.538294     0.339016     0.236760
    0.527172     0.605013     0.485857
    0.140022     0.442881     0.842027
    0.380923     0.553417     0.904729
    0.157746     0.596723     0.846882
    0.223094     0.376828     0.904828
    0.251000     0.619043     0.912472
    0.773685     0.350825     0.513240
    0.421012     0.832832     0.557197
    0.506008     0.167168     0.578150
    0.797236     0.555227     0.519691
    0.579165     0.802141     0.598190
    0.347854     0.197859     0.537157
    0.164070     0.532497     0.712522
    0.510848     0.465205     0.802406
    0.619476     0.503613     0.423909
    0.524418     0.346916     0.474943
    0.412977     0.555911     0.446581
    0.505281     0.454512     0.384632
    0.386398     0.715206     0.471355
    0.586797     0.548306     0.273415
    0.680284     0.279517     0.408571
    0.555874     0.820423     0.424327
    0.804262     0.538455     0.268472
    0.512398     0.412959     0.168086
    0.555018     0.129431     0.421524
    0.257145     0.366099     0.427672
    0.425253     0.724543     0.671432
    0.373379     0.274286     0.657222
    0.450607     0.398960     0.827581
    0.161445     0.455070     0.752631
    0.467110     0.542209     0.832102
    0.332388     0.518646     0.592745
    0.527705     0.480743     0.643371
    0.677046     0.470495     0.519362
    0.504124     0.700229     0.547543
    0.458022     0.300091     0.534914
    0.749463     0.737254     0.574937
    0.685231     0.179733     0.557341
EA76   11.729 16.360 11.966 90.00 90.00 90.00 Sym.group:    0
1.0000
   11.729155     0.000000     0.000000
    0.000000    16.360260     0.000000
    0.000000     0.000000    11.965960
   O  Cu
  24   24 
Direct
    0.543692     0.100966     0.383273
    0.594372     0.171187     0.137887
    0.454285     0.153961     0.171220
    0.683779     0.118192     0.349941
    0.465457     0.087591     0.263083
    0.686017     0.114711     0.210605
    0.831698     0.455549     0.472655
    0.190140     0.422007     0.459956
    0.297609     0.599420     0.332350
    0.768342     0.493104     0.322384
    0.483735     0.622306     0.288065
    0.477536     0.292025     0.173839
    0.760930     0.405254     0.652644
    0.428683     0.767122     0.580647
    0.802604     0.507090     0.759858
    0.692987     0.754276     0.826240
    0.767525     0.289194     0.568861
    0.541675     0.797682     0.687634
    0.598742     0.594366     0.538898
    0.793823     0.759613     0.904227
    0.909780     0.298679     0.647807
    0.474536     0.920293     0.647772
    0.515945     0.676088     0.620634
    0.654066     0.381494     0.558461
    0.734293     0.368282     0.352485
    0.324292     0.317866     0.450039
    0.400925     0.689598     0.443150
    0.430491     0.242605     0.193242
    0.676773     0.189981     0.436954
    0.546333     0.173941     0.467991
    0.560932     0.258644     0.162205
    0.481375     0.412079     0.339608
    0.688074     0.487365     0.440756
    0.432095     0.563105     0.378733
    0.159757     0.515659     0.360419
    0.667431     0.578084     0.239627
    0.585605     0.921720     0.786495
    0.874906     0.168006     0.568950
    0.625507     0.699355     0.696148
    0.483429     0.564139     0.500473
    0.566901     0.512280     0.543514
    0.742607     0.665730     0.773352
    0.613248     0.645644     0.677034
    0.496578     0.852609     0.695035
    0.822820     0.278164     0.625736
    0.769066     0.612271     0.707944
    0.562193     0.664980     0.528332
    0.559619     0.365699     0.525191
EA77   10.064 10.762 10.513 90.00 90.00 90.00 Sym.group:    0
1.0000
   10.063999     0.000000     0.000000
    0.000000    10.761695     0.000000
    0.000000     0.000000    10.512760
   O  Cu
  24   24 
Direct
    0.375258     0.360407     0.421887
    0.680083     0.493269     0.610267
    0.333626     0.489950     0.620223
    0.524958     0.339153     0.615235
    0.593688     0.324096     0.464655
    0.535229     0.453562     0.300275
    0.391245     0.421618     0.343447
    0.299948     0.447548     0.480512
    0.617187     0.414081     0.349346
    0.495740     0.302366     0.494023
    0.438154     0.439596     0.682808
    0.622906     0.360884     0.585866
    0.812686     0.607499     0.588995
    0.148846     0.550158     0.559587
    0.669846     0.753483     0.351848
    0.553194     0.788712     0.639674
    0.432226     0.677311     0.209824
    0.369749     0.624194     0.776630
    0.828577     0.609085     0.513171
    0.203429     0.555609     0.299169
    0.323315     0.666436     0.729439
    0.494553     0.636657     0.181194
    0.607521     0.794137     0.380479
    0.599628     0.746471     0.686865
    0.652373     0.149780     0.505525
    0.581915     0.165605     0.661565
    0.230322     0.499153     0.785835
    0.152460     0.443398     0.313873
    0.633848     0.442397     0.132117
    0.214185     0.289955     0.333731
    0.718185     0.401771     0.182611
    0.338826     0.446884     0.850802
    0.551587     0.127419     0.535743
    0.230637     0.352942     0.253017
    0.682701     0.187966     0.631346
    0.136009     0.380411     0.394588
    0.872979     0.593203     0.350609
    0.198351     0.720833     0.321051
    0.462220     0.881412     0.423040
    0.682583     0.653724     0.803052
    0.643885     0.564696     0.124209
    0.238139     0.773868     0.628657
    0.788329     0.584750     0.754476
    0.151547     0.716158     0.544355
    0.485467     0.548874     0.880024
    0.311908     0.781236     0.276708
    0.794197     0.664870     0.270542
    0.435255     0.878718     0.551685
EA78   11.132 10.657 11.097 90.00 90.00 90.00 Sym.group:    0
1.0000
   11.131537     0.000000     0.000000
    0.000000    10.657107     0.000000
    0.000000     0.000000    11.097047
   O  Cu
  24   24 
Direct
    0.372185     0.233297     0.775265
    0.165093     0.325429     0.381082
    0.561998     0.292261     0.165218
    0.769089     0.200129     0.559402
    0.647055     0.161265     0.317221
    0.136001     0.444011     0.630248
    0.261916     0.182556     0.600465
    0.838311     0.370817     0.346523
    0.352874     0.481053     0.138649
    0.317255     0.222524     0.268334
    0.591716     0.121297     0.649352
    0.621437     0.333775     0.838122
    0.468922     0.531268     0.307579
    0.622640     0.522072     0.348312
    0.333633     0.609043     0.482499
    0.493442     0.668681     0.608036
    0.685015     0.547891     0.549616
    0.552890     0.687338     0.460815
    0.453010     0.554907     0.687698
    0.565639     0.602025     0.344417
    0.601219     0.665421     0.543890
    0.344694     0.535026     0.381514
    0.445113     0.690597     0.524960
    0.306128     0.531646     0.536691
    0.228313     0.270397     0.683658
    0.503183     0.198365     0.225613
    0.705869     0.255161     0.256826
    0.469685     0.465875     0.111808
    0.674924     0.193959     0.705703
    0.259258     0.331599     0.234780
    0.405788     0.145456     0.692072
    0.504626     0.348953     0.864963
    0.223090     0.216354     0.414637
    0.862705     0.349583     0.463271
    0.685880     0.127467     0.503049
    0.111606     0.465245     0.513500
    0.155460     0.644431     0.439622
    0.863918     0.517749     0.593463
    0.517379     0.850268     0.644015
    0.579526     0.869438     0.491943
    0.514830     0.557078     0.127742
    0.673882     0.548256     0.169989
    0.467648     0.872822     0.558530
    0.629257     0.846886     0.577428
    0.127158     0.564790     0.495383
    0.615226     0.630526     0.165984
    0.166941     0.567600     0.334796
    0.404152     0.531656     0.867102
EA79   17.846 17.860 14.817 90.00 90.00 90.00 Sym.group:    0
1.0000
   17.845911     0.000000     0.000000
    0.000000    17.860052     0.000000
    0.000000     0.000000    14.817465
   O  Cu
  24   24 
Direct
    0.417298     0.703514     0.450506
    0.668151     0.641482     0.450506
    0.686625     0.383926     0.450506
    0.447190     0.286781     0.450506
    0.280737     0.484297     0.450506
    0.636028     0.327453     0.549494
    0.706267     0.575948     0.549494
    0.491452     0.719486     0.549494
    0.288450     0.559702     0.549494
    0.377803     0.317412     0.549494
    0.417298     0.703514     0.549494
    0.668151     0.641482     0.549494
    0.686625     0.383926     0.549494
    0.447190     0.286781     0.549494
    0.280737     0.484297     0.549494
    0.636028     0.327453     0.450506
    0.706267     0.575948     0.450506
    0.491452     0.719486     0.450506
    0.288450     0.559702     0.450506
    0.377803     0.317412     0.450506
    0.500000     0.500000     0.661885
    0.500000     0.500000     0.338115
    0.614444     0.526302     0.350090
    0.560400     0.399371     0.350090
    0.422885     0.411506     0.350090
    0.391941     0.545936     0.350090
    0.510330     0.616884     0.350090
    0.579525     0.586338     0.649910
    0.442397     0.602253     0.649910
    0.384875     0.476858     0.649910
    0.486451     0.383444     0.649910
    0.606752     0.451107     0.649910
    0.614444     0.526302     0.649910
    0.560400     0.399371     0.649910
    0.422885     0.411506     0.649910
    0.391941     0.545936     0.649910
    0.510330     0.616884     0.649910
    0.579525     0.586338     0.350090
    0.442397     0.602253     0.350090
    0.384875     0.476858     0.350090
    0.486451     0.383444     0.350090
    0.606752     0.451107     0.350090
    0.694379     0.480148     0.500000
    0.541171     0.309146     0.500000
    0.331066     0.401898     0.500000
    0.354422     0.630223     0.500000
    0.578962     0.678585     0.500000
    0.500000     0.500000     0.500000
EA80   16.717 15.689 15.869 90.00 90.00 90.00 Sym.group:    0
1.0000
   16.716558     0.000000     0.000000
    0.000000    15.689426     0.000000
    0.000000     0.000000    15.869186
   O  Cu
  24   24 
Direct
    0.317329     0.611663     0.604248
    0.317329     0.535484     0.352269
    0.317329     0.352853     0.543484
    0.505378     0.530388     0.682890
    0.505378     0.645008     0.382537
    0.505378     0.324604     0.434574
    0.643469     0.615296     0.441215
    0.643469     0.390859     0.430674
    0.643469     0.493845     0.628111
    0.417828     0.413817     0.657070
    0.417828     0.680677     0.495256
    0.417828     0.405506     0.347674
    0.527889     0.466940     0.636554
    0.527889     0.636144     0.460029
    0.527889     0.396916     0.403417
    0.500861     0.675225     0.431473
    0.500861     0.352362     0.384233
    0.500861     0.472413     0.684294
    0.341189     0.571583     0.625392
    0.341189     0.574046     0.376014
    0.341189     0.354371     0.498594
    0.496705     0.589235     0.464815
    0.496705     0.424562     0.441189
    0.496705     0.486203     0.593997
    0.700297     0.428670     0.466588
    0.700297     0.506398     0.577780
    0.700297     0.564932     0.455632
    0.453337     0.537727     0.376822
    0.453337     0.373239     0.529286
    0.453337     0.589034     0.593892
    0.582348     0.525860     0.643597
    0.582348     0.612853     0.406059
    0.582348     0.361286     0.450344
    0.357578     0.459584     0.340427
    0.357578     0.380431     0.614392
    0.357578     0.659986     0.545181
    0.425118     0.650369     0.418660
    0.425118     0.353566     0.411922
    0.425118     0.496066     0.669418
    0.625915     0.351816     0.564540
    0.625915     0.630626     0.594607
    0.625915     0.517558     0.340853
    0.548733     0.407794     0.506541
    0.548733     0.551833     0.575677
    0.548733     0.540373     0.417781
    0.696604     0.500000     0.500000
    0.425583     0.500000     0.500000
    0.545893     0.500000     0.500000
EA81   18.631 17.988 12.437 90.00 90.00 90.00 Sym.group:    0
1.0000
   18.631360     0.000000     0.000000
    0.000000    17.987560     0.000000
    0.000000     0.000000    12.437101
   O  Cu
  24   24 
Direct
    0.670290     0.721474     0.513155
    0.670290     0.278526     0.486845
    0.329710     0.721474     0.513155
    0.329710     0.278526     0.486845
    0.469013     0.400794     0.572241
    0.469013     0.599206     0.427759
    0.530987     0.400794     0.572241
    0.530987     0.599206     0.427759
    0.696629     0.316797     0.417820
    0.696629     0.683203     0.582180
    0.303371     0.316797     0.417820
    0.303371     0.683203     0.582180
    0.300971     0.605065     0.560486
    0.300971     0.394935     0.439514
    0.699029     0.605065     0.560486
    0.699029     0.394935     0.439514
    0.344302     0.552617     0.500465
    0.344302     0.447383     0.499535
    0.655698     0.552617     0.500465
    0.655698     0.447383     0.499535
    0.530154     0.500000     0.500000
    0.469846     0.500000     0.500000
    0.658324     0.497748     0.409248
    0.658324     0.502252     0.590752
    0.341676     0.497748     0.409248
    0.341676     0.502252     0.590752
    0.321063     0.660913     0.508724
    0.321063     0.339087     0.491276
    0.678937     0.660913     0.508724
    0.678937     0.339087     0.491276
    0.376032     0.323088     0.581233
    0.376032     0.676912     0.418767
    0.623968     0.323088     0.581233
    0.623968     0.676912     0.418767
    0.731099     0.500000     0.500000
    0.268901     0.500000     0.500000
    0.600603     0.453852     0.433044
    0.600603     0.546148     0.566956
    0.399397     0.453852     0.433044
    0.399397     0.546148     0.566956
    0.473115     0.602692     0.519480
    0.473115     0.397308     0.480520
    0.526885     0.602692     0.519480
    0.526885     0.397308     0.480520
    0.639403     0.597860     0.402827
    0.639403     0.402140     0.597173
    0.360597     0.597860     0.402827
    0.360597     0.402140     0.597173
EA82   16.780 14.721 14.721 90.00 90.00 90.00 Sym.group:    0
1.0000
   16.779615     0.000000     0.000000
    0.000000    14.721099     0.000000
    0.000000     0.000000    14.721099
   O  Cu
  24   24 
Direct
    0.298577     0.545051     0.619541
    0.298577     0.380459     0.545051
    0.298577     0.454949     0.380459
    0.298577     0.619541     0.454949
    0.701423     0.619541     0.545051
    0.701423     0.545051     0.380459
    0.701423     0.380459     0.454949
    0.701423     0.454949     0.619541
    0.701423     0.545051     0.619541
    0.701423     0.380459     0.545051
    0.701423     0.454949     0.380459
    0.701423     0.619541     0.454949
    0.298577     0.619541     0.545051
    0.298577     0.545051     0.380459
    0.298577     0.380459     0.454949
    0.298577     0.454949     0.619541
    0.638416     0.440621     0.366087
    0.638416     0.633913     0.440621
    0.638416     0.559379     0.633913
    0.638416     0.366087     0.559379
    0.361584     0.366087     0.440621
    0.361584     0.440621     0.633913
    0.361584     0.633913     0.559379
    0.361584     0.559379     0.366087
    0.361584     0.440621     0.366087
    0.361584     0.633913     0.440621
    0.361584     0.559379     0.633913
    0.361584     0.366087     0.559379
    0.638416     0.366087     0.440621
    0.638416     0.440621     0.633913
    0.638416     0.633913     0.559379
    0.638416     0.559379     0.366087
    0.558764     0.543963     0.659672
    0.558764     0.340328     0.543963
    0.558764     0.456037     0.340328
    0.558764     0.659672     0.456037
    0.441236     0.659672     0.543963
    0.441236     0.543963     0.340328
    0.441236     0.340328     0.456037
    0.441236     0.456037     0.659672
    0.441236     0.543963     0.659672
    0.441236     0.340328     0.543963
    0.441236     0.456037     0.340328
    0.441236     0.659672     0.456037
    0.558764     0.659672     0.543963
    0.558764     0.543963     0.340328
    0.558764     0.340328     0.456037
    0.558764     0.456037     0.659672
EA83   20.765 20.206 11.764 90.00 90.00 90.00 Sym.group:    0
1.0000
   20.765066     0.000000     0.000000
    0.000000    20.206495     0.000000
    0.000000     0.000000    11.764200
   O  Cu
  24   24 
Direct
    0.407378     0.752060     0.455459
    0.758729     0.456400     0.455459
    0.333893     0.291540     0.455459
    0.241271     0.543600     0.544541
    0.592622     0.247940     0.544541
    0.666107     0.708460     0.544541
    0.435676     0.596521     0.528665
    0.613503     0.508986     0.528665
    0.450821     0.394494     0.528665
    0.395234     0.545767     0.471335
    0.513814     0.383879     0.471335
    0.590952     0.570354     0.471335
    0.486186     0.616121     0.528665
    0.604766     0.454233     0.528665
    0.409048     0.429646     0.528665
    0.386497     0.491014     0.471335
    0.564324     0.403479     0.471335
    0.549179     0.605506     0.471335
    0.409337     0.334089     0.425868
    0.405513     0.663643     0.425868
    0.685150     0.502269     0.425868
    0.640396     0.624062     0.574132
    0.325251     0.562917     0.574132
    0.534353     0.313022     0.574132
    0.674749     0.437083     0.425868
    0.359604     0.375938     0.425868
    0.465647     0.686978     0.425868
    0.594487     0.336357     0.574132
    0.590663     0.665911     0.574132
    0.314850     0.497731     0.574132
    0.603801     0.590755     0.560724
    0.524581     0.362243     0.560724
    0.371618     0.547002     0.560724
    0.433893     0.377526     0.439276
    0.636266     0.502405     0.439276
    0.429840     0.620070     0.439276
    0.363734     0.497595     0.560724
    0.566107     0.622474     0.560724
    0.570160     0.379930     0.560724
    0.475419     0.637757     0.439276
    0.396199     0.409245     0.439276
    0.628382     0.452998     0.439276
    0.470202     0.313263     0.500000
    0.642470     0.380113     0.500000
    0.357530     0.619887     0.500000
    0.327732     0.433150     0.500000
    0.672268     0.566850     0.500000
    0.529798     0.686737     0.500000
EA84   18.696 16.449 16.484 90.00 90.00 90.00 Sym.group:    0
1.0000
   18.696293     0.000000     0.000000
    0.000000    16.448632     0.000000
    0.000000     0.000000    16.484346
   O  Cu
  24   24 
Direct
    0.566209     0.500000     0.495497
    0.433898     0.456154     0.615050
    0.594355     0.591634     0.569430
    0.424720     0.600478     0.441442
    0.584290     0.470465     0.379065
    0.427678     0.381268     0.497398
    0.289238     0.587862     0.526026
    0.725601     0.538275     0.404740
    0.285404     0.435793     0.453510
    0.732032     0.422043     0.526385
    0.293213     0.516027     0.601207
    0.485149     0.510420     0.446223
    0.528985     0.451095     0.471193
    0.490048     0.459355     0.538878
    0.533056     0.523785     0.548198
    0.487665     0.555345     0.493815
    0.383832     0.488734     0.615331
    0.642574     0.598730     0.534212
    0.373943     0.572284     0.428279
    0.635333     0.445944     0.397264
    0.379358     0.394308     0.530692
    0.569195     0.554372     0.536320
    0.449345     0.555835     0.464431
    0.563602     0.480135     0.430536
    0.451334     0.431888     0.502066
    0.570424     0.477769     0.559580
    0.412327     0.380061     0.389242
    0.604065     0.351888     0.570880
    0.427162     0.528400     0.669854
    0.601220     0.665665     0.517073
    0.410569     0.573986     0.355988
    0.652424     0.503660     0.635585
    0.375890     0.639990     0.550062
    0.638402     0.582859     0.370360
    0.367591     0.411219     0.393079
    0.647295     0.362272     0.538564
    0.444550     0.346243     0.433993
    0.576772     0.386099     0.619393
    0.455958     0.583362     0.649789
    0.568423     0.665422     0.461456
    0.439389     0.518874     0.336383
    0.524596     0.591028     0.674157
    0.501403     0.695415     0.467699
    0.505022     0.529746     0.303925
    0.498424     0.322968     0.411343
    0.522754     0.360843     0.639327
    0.653433     0.500000     0.489565
    0.271847     0.500000     0.515516
EA85   24.389 14.383 14.383 90.00 90.00 90.00 Sym.group:    0
1.0000
   24.388863     0.000000     0.000000
    0.000000    14.383364     0.000000
    0.000000     0.000000    14.383364
   O  Cu
  24   24 
Direct
    0.413106     0.645054     0.493712
    0.413106     0.493712     0.354946
    0.413106     0.354946     0.506288
    0.413106     0.506288     0.645054
    0.466427     0.617026     0.366984
    0.466427     0.366984     0.382974
    0.466427     0.382974     0.633016
    0.466427     0.633016     0.617026
    0.316603     0.564115     0.536455
    0.316603     0.536455     0.435885
    0.316603     0.435885     0.463545
    0.316603     0.463545     0.564115
    0.380096     0.348319     0.433597
    0.380096     0.433597     0.651681
    0.380096     0.651681     0.566403
    0.380096     0.566403     0.348319
    0.794578     0.500000     0.500000
    0.403713     0.424799     0.374048
    0.403713     0.374048     0.575201
    0.403713     0.575201     0.625952
    0.403713     0.625952     0.424799
    0.452050     0.443806     0.590295
    0.452050     0.590295     0.556194
    0.452050     0.556194     0.409705
    0.452050     0.409705     0.443806
    0.575498     0.422586     0.598224
    0.575498     0.598224     0.577414
    0.575498     0.577414     0.401776
    0.575498     0.401776     0.422586
    0.589063     0.528802     0.350488
    0.589063     0.350488     0.471198
    0.589063     0.471198     0.649512
    0.589063     0.649512     0.528802
    0.404112     0.557987     0.438475
    0.404112     0.438475     0.442013
    0.404112     0.442013     0.561525
    0.404112     0.561525     0.557987
    0.711041     0.453789     0.553851
    0.711041     0.553851     0.546211
    0.711041     0.546211     0.446149
    0.711041     0.446149     0.453789
    0.757043     0.530163     0.432887
    0.757043     0.432887     0.469837
    0.757043     0.469837     0.567113
    0.757043     0.567113     0.530163
    0.567872     0.500000     0.500000
    0.294129     0.500000     0.500000
    0.468413     0.500000     0.500000
EA86   17.402 17.041 13.399 90.00 90.00 90.00 Sym.group:    0
1.0000
   17.402239     0.000000     0.000000
    0.000000    17.040926     0.000000
    0.000000     0.000000    13.398914
   O  Cu
  24   24 
Direct
    0.651947     0.439410     0.590227
    0.490526     0.333702     0.590227
    0.342198     0.457812     0.590227
    0.411947     0.640224     0.590227
    0.603382     0.628851     0.590227
    0.490526     0.666298     0.409773
    0.342198     0.542188     0.409773
    0.411947     0.359776     0.409773
    0.603382     0.371149     0.409773
    0.651947     0.560590     0.409773
    0.651947     0.439410     0.409773
    0.490526     0.333702     0.409773
    0.342198     0.457812     0.409773
    0.411947     0.640224     0.409773
    0.603382     0.628851     0.409773
    0.490526     0.666298     0.590227
    0.342198     0.542188     0.590227
    0.411947     0.359776     0.590227
    0.603382     0.371149     0.590227
    0.651947     0.560590     0.590227
    0.587123     0.531198     0.378799
    0.555978     0.425025     0.378799
    0.447473     0.422465     0.378799
    0.411559     0.527055     0.378799
    0.497867     0.594256     0.378799
    0.555978     0.574975     0.621201
    0.447473     0.577535     0.621201
    0.411559     0.472945     0.621201
    0.497867     0.405744     0.621201
    0.587123     0.468802     0.621201
    0.587123     0.531198     0.621201
    0.555978     0.425025     0.621201
    0.447473     0.422465     0.621201
    0.411559     0.527055     0.621201
    0.497867     0.594256     0.621201
    0.555978     0.574975     0.378799
    0.447473     0.577535     0.378799
    0.411559     0.472945     0.378799
    0.497867     0.405744     0.378799
    0.587123     0.468802     0.378799
    0.712106     0.500000     0.500000
    0.565544     0.293998     0.500000
    0.328403     0.372684     0.500000
    0.328403     0.627316     0.500000
    0.565544     0.706002     0.500000
    0.500000     0.500000     0.373911
    0.500000     0.500000     0.626089
    0.500000     0.500000     0.500000
EA87   11.505 10.531 13.356 90.00 90.00 90.00 Sym.group:    0
1.0000
   11.505092     0.000000     0.000000
    0.000000    10.531352     0.000000
    0.000000     0.000000    13.355908
   O  Cu
  24   24 
Direct
    0.114732     0.200339     0.475602
    0.562565     0.223865     0.125898
    0.885268     0.200339     0.524398
    0.437435     0.223865     0.874102
    0.720785     0.125340     0.650810
    0.825810     0.799614     0.678736
    0.218357     0.874660     0.507275
    0.387088     0.397183     0.313943
    0.174190     0.799614     0.321264
    0.280365     0.602782     0.591068
    0.709325     0.776099     0.167867
    0.290675     0.776099     0.832133
    0.781643     0.874660     0.492725
    0.279215     0.125340     0.349190
    0.612912     0.397183     0.686057
    0.719635     0.602782     0.408932
    0.537251     0.682871     0.667107
    0.856436     0.415560     0.231512
    0.645780     0.317135     0.385191
    0.400428     0.584417     0.101244
    0.462749     0.682871     0.332893
    0.599572     0.584417     0.898756
    0.354220     0.317135     0.614809
    0.143564     0.415560     0.768488
    0.856834     0.771009     0.519292
    0.469403     0.772508     0.878576
    0.143166     0.771009     0.480708
    0.530597     0.772508     0.121424
    0.297822     0.847352     0.363865
    0.200466     0.228959     0.331784
    0.756543     0.152647     0.494913
    0.633207     0.579109     0.715731
    0.799534     0.228959     0.668216
    0.756464     0.420853     0.395578
    0.261910     0.227450     0.819330
    0.738090     0.227450     0.180670
    0.243457     0.152647     0.505087
    0.702178     0.847352     0.636135
    0.366793     0.579109     0.284269
    0.243536     0.420853     0.604422
    0.495169     0.287784     0.321109
    0.140103     0.616957     0.769264
    0.372035     0.712234     0.640957
    0.601791     0.383020     0.901167
    0.504831     0.287784     0.678891
    0.398209     0.383020     0.098833
    0.627965     0.712234     0.359043
    0.859897     0.616957     0.230736
EA88   10.101 12.638  9.320 90.00 90.00 90.00 Sym.group:    0
1.0000
   10.101081     0.000000     0.000000
    0.000000    12.638076     0.000000
    0.000000     0.000000     9.320439
   O  Cu
  24   24 
Direct
    0.624045     0.895554     0.598042
    0.356130     0.108766     0.402002
    0.643870     0.891234     0.402002
    0.375955     0.104446     0.598042
    0.411943     0.545012     0.169944
    0.788035     0.375480     0.587250
    0.588057     0.454988     0.169944
    0.172701     0.509333     0.412831
    0.395544     0.496856     0.830096
    0.211965     0.624520     0.587250
    0.604456     0.503144     0.830096
    0.827299     0.490667     0.412831
    0.869321     0.653491     0.159258
    0.721057     0.218113     0.840752
    0.278943     0.781887     0.840752
    0.130679     0.346509     0.159258
    0.656422     0.622531     0.141624
    0.641745     0.502717     0.187674
    0.343578     0.377469     0.141624
    0.379547     0.559725     0.812331
    0.557146     0.331031     0.858376
    0.358255     0.497283     0.187674
    0.442854     0.668969     0.858376
    0.620453     0.440275     0.812331
    0.435600     0.161283     0.257798
    0.659269     0.818107     0.742258
    0.340731     0.181893     0.742258
    0.564400     0.838717     0.257798
    0.795210     0.584960     0.825105
    0.415069     0.674951     0.672309
    0.204790     0.415040     0.825105
    0.684095     0.616402     0.327688
    0.700624     0.307212     0.174962
    0.584931     0.325049     0.672309
    0.299376     0.692788     0.174962
    0.315905     0.383598     0.327688
    0.706019     0.837140     0.620701
    0.463834     0.125933     0.379349
    0.536166     0.874067     0.379349
    0.293981     0.162860     0.620701
    0.464381     0.627089     0.223168
    0.716091     0.311375     0.507197
    0.535619     0.372911     0.223168
    0.194105     0.424907     0.492858
    0.388717     0.404856     0.776872
    0.283909     0.688625     0.507197
    0.611283     0.595144     0.776872
    0.805895     0.575093     0.492858
EA89   18.140 16.633  3.885 90.00 90.00 90.00 Sym.group:    0
1.0000
   18.140264     0.000000     0.000000
    0.000000    16.632551     0.000000
    0.000000     0.000000     3.884755
   O  Cu
  24   24 
Direct
    0.434323     0.198208     0.601167
    0.325853     0.656928     0.632002
    0.744237     0.523973     0.606826
    0.546937     0.132400     0.619296
    0.218544     0.577698     0.625584
    0.736002     0.666146     0.626246
    0.547863     0.848326     0.644472
    0.784969     0.219036     0.644928
    0.168189     0.309201     0.645391
    0.314411     0.214206     0.575853
    0.401974     0.768715     0.556683
    0.794037     0.396854     0.590289
    0.417037     0.423557     0.400012
    0.514756     0.557055     0.391807
    0.570950     0.398256     0.398859
    0.623572     0.920070     0.601944
    0.805331     0.111928     0.602185
    0.072766     0.343092     0.599752
    0.328474     0.079362     0.426727
    0.281205     0.814332     0.438912
    0.889671     0.486947     0.429791
    0.671332     0.428585     0.658960
    0.391495     0.313458     0.660210
    0.437460     0.634888     0.659999
    0.927234     0.343189     0.523196
    0.197965     0.125781     0.524277
    0.377061     0.920638     0.521636
    0.288227     0.335565     0.564822
    0.507219     0.721865     0.550672
    0.704770     0.319776     0.568522
    0.542828     0.491361     0.609957
    0.505202     0.403366     0.613086
    0.454139     0.482902     0.613866
    0.613892     0.769797     0.535317
    0.690243     0.194875     0.544089
    0.195833     0.411004     0.543238
    0.320030     0.379223     0.632833
    0.525459     0.669970     0.615889
    0.654451     0.328401     0.633369
    0.344270     0.797149     0.620113
    0.845379     0.435156     0.610306
    0.313487     0.146296     0.593097
    0.622932     0.198904     0.403118
    0.232188     0.472265     0.407606
    0.643387     0.703900     0.396252
    0.450949     0.591526     0.341235
    0.630788     0.440993     0.339790
    0.420982     0.345702     0.342058
EA90   10.163  9.840  8.146 90.00 90.00 90.00 Sym.group:    0
1.0000
   10.163243     0.000000     0.000000
    0.000000     9.839776     0.000000
    0.000000     0.000000     8.146415
   O  Cu
  24   24 
Direct
    0.740393     0.514656     0.837966
    0.402569     0.278397     0.835214
    0.373386     0.698709     0.831003
    0.288329     0.610420     0.167899
    0.517066     0.243069     0.168296
    0.710708     0.631348     0.162034
    0.704187     0.667931     0.379185
    0.543831     0.229621     0.385172
    0.256503     0.592213     0.385368
    0.375830     0.730856     0.613977
    0.367315     0.266038     0.617709
    0.761304     0.490831     0.621002
    0.395701     0.500871     0.293721
    0.562521     0.584409     0.276533
    0.549154     0.393421     0.301338
    0.604506     0.465385     0.719488
    0.480406     0.607647     0.695778
    0.423175     0.425510     0.715557
    0.684373     0.813799     0.670023
    0.668403     0.180339     0.678618
    0.145254     0.511353     0.680829
    0.428737     0.856629     0.319084
    0.227364     0.245147     0.323453
    0.840755     0.370760     0.330405
    0.129880     0.563600     0.437579
    0.741622     0.799097     0.429405
    0.633205     0.134149     0.432528
    0.870120     0.408631     0.572385
    0.388204     0.865851     0.565552
    0.245801     0.206169     0.564963
    0.735960     0.740023     0.630559
    0.583816     0.167300     0.633040
    0.179680     0.589753     0.636661
    0.361805     0.811961     0.365748
    0.301606     0.211150     0.365481
    0.835465     0.457708     0.370925
    0.518471     0.250963     0.790263
    0.288098     0.605331     0.790678
    0.700411     0.634212     0.790493
    0.398718     0.266184     0.210086
    0.746422     0.517669     0.210447
    0.361709     0.702948     0.210445
    0.318412     0.730217     0.524609
    0.786437     0.539737     0.526166
    0.392713     0.216329     0.523766
    0.750121     0.648137     0.475129
    0.247297     0.646196     0.477355
    0.500339     0.197393     0.475387
EA91   10.430 10.430 10.339 90.00 90.00 90.00 Sym.group:    0
1.0000
   10.430253     0.000000     0.000000
    0.000000    10.430253     0.000000
    0.000000     0.000000    10.338577
   O  Cu
  24   24 
Direct
    0.481573     0.326142     0.420160
    0.500937     0.317774     0.578504
    0.546921     0.681326     0.421181
    0.528521     0.677864     0.580305
    0.440991     0.514416     0.314793
    0.311583     0.453955     0.489859
    0.442137     0.530880     0.684942
    0.689491     0.563519     0.491005
    0.595715     0.491726     0.678974
    0.332125     0.599462     0.512627
    0.599474     0.513026     0.321442
    0.669490     0.396970     0.506660
    0.558099     0.311119     0.505935
    0.408299     0.332074     0.492708
    0.610791     0.669439     0.488157
    0.448535     0.689027     0.513352
    0.676230     0.475674     0.578102
    0.518204     0.432064     0.676752
    0.321047     0.541022     0.580707
    0.539759     0.590547     0.312709
    0.322131     0.521971     0.421742
    0.519594     0.590547     0.687164
    0.682220     0.494387     0.419600
    0.500606     0.436970     0.323526
    0.437432     0.512005     0.128894
    0.600070     0.493481     0.867542
    0.601403     0.511266     0.132660
    0.441353     0.534663     0.871055
    0.126555     0.474518     0.487516
    0.454512     0.140434     0.418814
    0.147644     0.629792     0.510169
    0.569048     0.863738     0.417119
    0.852613     0.374132     0.510479
    0.549066     0.862903     0.581534
    0.873445     0.541549     0.491988
    0.474973     0.134345     0.582684
    0.860600     0.449438     0.583225
    0.136735     0.543725     0.416689
    0.865293     0.469632     0.419244
    0.137296     0.563974     0.580993
    0.520340     0.432087     0.866274
    0.540769     0.126555     0.509284
    0.521079     0.596057     0.872323
    0.638674     0.852926     0.487291
    0.498823     0.432280     0.133877
    0.473738     0.873445     0.511363
    0.540005     0.590996     0.127677
    0.383014     0.147957     0.492213
EA92   12.361 10.560  8.770 90.00 90.00 90.00 Sym.group:    0
1.0000
   12.361064     0.000000     0.000000
    0.000000    10.560011     0.000000
    0.000000     0.000000     8.769566
   O  Cu
  24   24 
Direct
    0.106787     0.403313     0.600361
    0.106787     0.596687     0.399639
    0.893212     0.462458     0.397977
    0.893212     0.537542     0.602023
    0.106788     0.661270     0.516078
    0.106788     0.338730     0.483922
    0.893213     0.634423     0.524395
    0.893213     0.365577     0.475605
    0.138728     0.550864     0.591623
    0.138728     0.449136     0.408377
    0.861272     0.576300     0.438915
    0.861272     0.423700     0.561085
    0.427230     0.300807     0.314423
    0.427230     0.699193     0.685577
    0.572770     0.254728     0.580649
    0.572770     0.745272     0.419351
    0.427230     0.429246     0.211061
    0.427230     0.570754     0.788939
    0.572770     0.340357     0.735692
    0.572770     0.659643     0.264308
    0.825687     0.250004     0.612021
    0.825687     0.749996     0.387979
    0.174313     0.125000     0.425323
    0.174313     0.875000     0.574677
    0.300590     0.404700     0.331024
    0.300590     0.595300     0.668976
    0.699410     0.357050     0.612650
    0.699410     0.642950     0.387350
    0.207617     0.713927     0.513529
    0.207617     0.286073     0.486471
    0.792383     0.667522     0.525156
    0.792383     0.332478     0.474844
    0.207617     0.345848     0.595550
    0.207617     0.654152     0.404450
    0.792383     0.422142     0.402126
    0.792383     0.577858     0.597874
    0.361965     0.421185     0.564223
    0.361965     0.578815     0.435777
    0.638035     0.447455     0.403666
    0.638035     0.552545     0.596334
    0.461553     0.414558     0.351186
    0.461553     0.585442     0.648814
    0.538447     0.371840     0.599210
    0.538447     0.628160     0.400790
    0.500000     0.441126     0.849479
    0.500000     0.794375     0.569898
    0.500000     0.558874     0.150521
    0.500000     0.205625     0.430102
EA93   10.449 10.710 10.202 90.00 90.00 90.00 Sym.group:    0
1.0000
   10.448549     0.000000     0.000000
    0.000000    10.709516     0.000000
    0.000000     0.000000    10.202272
   O  Cu
  24   24 
Direct
    0.737047     0.749739     0.533983
    0.737047     0.250261     0.466017
    0.262958     0.746411     0.430961
    0.262958     0.253589     0.569039
    0.501867     0.752263     0.246450
    0.740178     0.434273     0.152977
    0.498137     0.187302     0.369527
    0.259825     0.528252     0.863733
    0.501867     0.247737     0.753550
    0.259825     0.471748     0.136267
    0.498137     0.812698     0.630473
    0.740178     0.565727     0.847023
    0.155538     0.507379     0.864167
    0.155538     0.492621     0.135833
    0.844472     0.455465     0.160750
    0.844472     0.544535     0.839250
    0.377956     0.148507     0.570022
    0.494245     0.317578     0.807882
    0.622054     0.861784     0.537009
    0.505760     0.239298     0.296054
    0.377956     0.851493     0.429978
    0.505760     0.760702     0.703946
    0.622054     0.138216     0.462991
    0.494245     0.682422     0.192118
    0.723655     0.668580     0.203828
    0.723655     0.331420     0.796172
    0.276350     0.775642     0.713727
    0.276350     0.224358     0.286273
    0.793254     0.655043     0.263300
    0.745901     0.732736     0.276606
    0.206749     0.254297     0.331715
    0.254103     0.812406     0.623946
    0.793254     0.344957     0.736700
    0.254103     0.187594     0.376054
    0.206749     0.745703     0.668285
    0.745901     0.267264     0.723394
    0.126333     0.614921     0.416147
    0.126333     0.385079     0.583853
    0.873667     0.616784     0.540449
    0.873667     0.383216     0.459551
    0.503662     0.123255     0.451710
    0.612501     0.603038     0.856311
    0.496341     0.835514     0.304471
    0.387500     0.458672     0.129383
    0.503662     0.876745     0.548290
    0.387500     0.541328     0.870617
    0.496341     0.164486     0.695529
    0.612501     0.396962     0.143689
EA94   33.535 10.224  3.922 90.00 90.00 90.00 Sym.group:    0
1.0000
   33.534528     0.000000     0.000000
    0.000000    10.223753     0.000000
    0.000000     0.000000     3.922298
   O  Cu
  24   24 
Direct
    0.960638     0.647103     0.498154
    0.039362     0.360300     0.497889
    0.299981     0.226724     0.453738
    0.697739     0.771292     0.457782
    0.852985     0.277767     0.493149
    0.146944     0.728042     0.491870
    0.511541     0.207428     0.517063
    0.488890     0.805187     0.543445
    0.382406     0.470239     0.569642
    0.615762     0.535683     0.640210
    0.526714     0.773173     0.336537
    0.471593     0.241313     0.344170
    0.183819     0.506134     0.578468
    0.816462     0.500702     0.577978
    0.417840     0.230771     0.504752
    0.581920     0.780782     0.457255
    0.712192     0.275812     0.349625
    0.287688     0.731629     0.349722
    0.284976     0.382888     0.656971
    0.715965     0.619344     0.663463
    0.494858     0.304042     0.594311
    0.505948     0.706874     0.596312
    0.581175     0.189690     0.494863
    0.420133     0.822474     0.501002
    0.453628     0.450935     0.552703
    0.546348     0.560403     0.509598
    0.706957     0.870889     0.506144
    0.289515     0.129111     0.510303
    0.957973     0.535189     0.553526
    0.041932     0.472225     0.553453
    0.456264     0.654931     0.598657
    0.544375     0.357074     0.574473
    0.588279     0.295350     0.436943
    0.412366     0.716178     0.459550
    0.655537     0.629111     0.512643
    0.344465     0.362232     0.487495
    0.245206     0.444945     0.365220
    0.755396     0.563142     0.360497
    0.190924     0.737382     0.424424
    0.809015     0.269533     0.424309
    0.898431     0.581076     0.411149
    0.101521     0.426894     0.411271
    0.678478     0.169492     0.459786
    0.321549     0.837479     0.459662
    0.817183     0.382820     0.353602
    0.183054     0.623877     0.353609
    0.560064     0.694690     0.542845
    0.440409     0.315991     0.582371
EA95   12.834 12.751 12.226 90.00 90.00 90.00 Sym.group:    0
1.0000
   12.833840     0.000000     0.000000
    0.000000    12.751420     0.000000
    0.000000     0.000000    12.226227
   O  Cu
  24   24 
Direct
    0.267696     0.315304     0.512398
    0.608311     0.280047     0.140646
    0.857034     0.274830     0.540363
    0.581670     0.310087     0.759272
    0.720471     0.206416     0.670714
    0.788117     0.684140     0.695100
    0.372590     0.758717     0.549751
    0.442194     0.421351     0.295425
    0.299648     0.732331     0.347866
    0.102853     0.581213     0.635525
    0.751680     0.715617     0.194195
    0.420886     0.700854     0.706940
    0.812672     0.816019     0.525759
    0.381258     0.225452     0.375439
    0.851877     0.420694     0.892035
    0.770978     0.583347     0.414114
    0.567058     0.896482     0.790803
    0.897147     0.425155     0.222045
    0.694586     0.328350     0.389605
    0.474439     0.578276     0.116828
    0.544202     0.678255     0.328853
    0.685369     0.586284     0.818156
    0.413288     0.103518     0.745676
    0.328782     0.416891     0.652087
    0.853586     0.701305     0.542633
    0.571363     0.697766     0.750476
    0.264248     0.715165     0.514667
    0.598004     0.718705     0.131850
    0.404267     0.779382     0.386681
    0.300842     0.298094     0.346961
    0.785715     0.192288     0.515291
    0.836374     0.591839     0.875316
    0.789312     0.292040     0.694194
    0.791250     0.433538     0.409899
    0.434671     0.307258     0.705849
    0.765465     0.282875     0.193104
    0.345633     0.239580     0.539283
    0.743481     0.795355     0.681957
    0.426692     0.572721     0.278706
    0.123125     0.408507     0.631310
    0.556872     0.306380     0.327111
    0.327791     0.571774     0.649797
    0.407368     0.880495     0.727174
    0.686180     0.427725     0.809293
    0.579728     0.125487     0.789061
    0.475251     0.414320     0.107965
    0.688666     0.694242     0.371103
    0.896156     0.592785     0.219754
EA96   11.517 12.390  8.041 90.00 90.00 90.00 Sym.group:    0
1.0000
   11.516576     0.000000     0.000000
    0.000000    12.390286     0.000000
    0.000000     0.000000     8.040723
   O  Cu
  24   24 
Direct
    0.380076     0.238736     0.835836
    0.389984     0.259105     0.170542
    0.782075     0.533672     0.829458
    0.679423     0.280698     0.166213
    0.673483     0.283130     0.831507
    0.619924     0.761264     0.835836
    0.800772     0.532315     0.164164
    0.326517     0.716870     0.831507
    0.610016     0.740895     0.170542
    0.217925     0.466328     0.829458
    0.320577     0.719302     0.166213
    0.199228     0.467685     0.164164
    0.522879     0.155507     0.503486
    0.832413     0.346170     0.496458
    0.809534     0.690663     0.498917
    0.477121     0.844493     0.503486
    0.167587     0.653830     0.496458
    0.190466     0.309337     0.498917
    0.461689     0.185579     0.501392
    0.773798     0.311951     0.496901
    0.812111     0.626372     0.500568
    0.538311     0.814421     0.501392
    0.226202     0.688049     0.496901
    0.187889     0.373628     0.500568
    0.149428     0.278368     0.751963
    0.157152     0.272375     0.246175
    0.879913     0.336176     0.747893
    0.532594     0.110665     0.251898
    0.539281     0.106535     0.757686
    0.850572     0.721632     0.751963
    0.885383     0.330280     0.242105
    0.460719     0.893465     0.757686
    0.842848     0.727625     0.246175
    0.120087     0.663824     0.747893
    0.467406     0.889335     0.251898
    0.114617     0.669720     0.242105
    0.388004     0.319362     0.665750
    0.391551     0.326614     0.326081
    0.716807     0.500738     0.672283
    0.611584     0.322608     0.330662
    0.608047     0.322931     0.670332
    0.611996     0.680638     0.665750
    0.723269     0.498824     0.332613
    0.391953     0.677069     0.670332
    0.608449     0.673386     0.326081
    0.283193     0.499262     0.672283
    0.388416     0.677392     0.330662
    0.276731     0.501176     0.332613
EA97   10.474 10.111 10.325 90.00 90.00 90.00 Sym.group:    0
1.0000
   10.473769     0.000000     0.000000
    0.000000    10.110590     0.000000
    0.000000     0.000000    10.324840
   O  Cu
  24   24 
Direct
    0.580681     0.869444     0.586190
    0.390369     0.133849     0.416951
    0.618677     0.851916     0.414071
    0.426227     0.130556     0.590361
    0.410968     0.497659     0.136632
    0.831832     0.312680     0.517966
    0.585349     0.489582     0.127847
    0.126029     0.512543     0.482115
    0.424612     0.538946     0.872153
    0.173335     0.681169     0.524643
    0.578893     0.454366     0.870942
    0.873971     0.484523     0.482849
    0.810831     0.669458     0.336954
    0.679775     0.193867     0.662418
    0.312994     0.821610     0.679369
    0.187549     0.320839     0.328833
    0.730996     0.708796     0.255347
    0.780759     0.596974     0.243588
    0.274771     0.286620     0.252999
    0.302853     0.737729     0.767908
    0.588311     0.203522     0.739785
    0.222008     0.396782     0.239763
    0.401532     0.806974     0.759442
    0.686613     0.271821     0.756315
    0.450588     0.212176     0.285624
    0.585460     0.764181     0.714384
    0.395812     0.220430     0.725949
    0.553093     0.780493     0.281617
    0.720239     0.465834     0.791715
    0.297117     0.782196     0.487420
    0.293143     0.537763     0.776370
    0.827695     0.637764     0.529159
    0.701273     0.417149     0.217344
    0.720866     0.200719     0.470558
    0.297894     0.579352     0.222145
    0.177937     0.358935     0.520437
    0.652931     0.794386     0.619481
    0.490332     0.160377     0.386746
    0.517100     0.834149     0.383254
    0.346400     0.199483     0.618093
    0.408379     0.598241     0.183013
    0.779984     0.296163     0.424014
    0.592684     0.390641     0.177008
    0.161595     0.467174     0.574775
    0.372321     0.457810     0.819693
    0.228160     0.699160     0.432712
    0.632765     0.540023     0.827859
    0.834456     0.524905     0.576073
EA98   10.420  9.403  8.982 90.00 90.00 90.00 Sym.group:    0
1.0000
   10.420421     0.000000     0.000000
    0.000000     9.403401     0.000000
    0.000000     0.000000     8.982004
   O  Cu
  24   24 
Direct
    0.630691     0.488142     0.843070
    0.631641     0.211600     0.226842
    0.639330     0.859625     0.284227
    0.369309     0.488142     0.843070
    0.368359     0.211600     0.226842
    0.360670     0.859625     0.284227
    0.779169     0.666950     0.607512
    0.771228     0.312216     0.507864
    0.773839     0.572015     0.236066
    0.220831     0.666950     0.607512
    0.228772     0.312216     0.507864
    0.226161     0.572015     0.236066
    0.630894     0.374228     0.146961
    0.648323     0.847937     0.466388
    0.631105     0.346847     0.736165
    0.369106     0.374228     0.146961
    0.351677     0.847937     0.466388
    0.368895     0.346847     0.736165
    0.344229     0.272557     0.514284
    0.338771     0.596547     0.191160
    0.330675     0.701847     0.646470
    0.655771     0.272557     0.514284
    0.661229     0.596547     0.191160
    0.669325     0.701847     0.646470
    0.126674     0.514103     0.451616
    0.873326     0.514103     0.451616
    0.317922     0.619591     0.760573
    0.323495     0.212856     0.386840
    0.319565     0.725381     0.204937
    0.682078     0.619591     0.760573
    0.676505     0.212856     0.386840
    0.680435     0.725381     0.204937
    0.712828     0.292521     0.238680
    0.721775     0.807444     0.352796
    0.713299     0.455584     0.762596
    0.287172     0.292521     0.238680
    0.278225     0.807444     0.352796
    0.286701     0.455584     0.762596
    0.500000     0.807104     0.167003
    0.500000     0.608653     0.853039
    0.500000     0.140375     0.330096
    0.737433     0.397206     0.682086
    0.736865     0.387464     0.226258
    0.745904     0.769405     0.445340
    0.262567     0.397206     0.682086
    0.263135     0.387464     0.226258
    0.254096     0.769405     0.445340
    0.500000     0.521448     0.449802
EA99   21.927 12.599  3.712 90.00 90.00 90.00 Sym.group:    0
1.0000
   21.927435     0.000000     0.000000
    0.000000    12.599157     0.000000
    0.000000     0.000000     3.712225
   O  Cu
  24   24 
Direct
    0.196526     0.354002     0.391100
    0.196526     0.645998     0.608900
    0.803557     0.353852     0.391214
    0.803557     0.646148     0.608786
    0.761603     0.635860     0.620675
    0.761603     0.364140     0.379325
    0.238484     0.635794     0.620426
    0.238484     0.364206     0.379574
    0.356224     0.123231     0.480545
    0.356224     0.876769     0.519455
    0.640386     0.129096     0.468003
    0.640386     0.870904     0.531997
    0.567484     0.749359     0.583225
    0.567484     0.250641     0.416775
    0.434836     0.749958     0.556331
    0.434836     0.250042     0.443669
    0.829194     0.693007     0.434189
    0.829194     0.306993     0.565811
    0.170904     0.692841     0.434426
    0.170904     0.307159     0.565574
    0.733733     0.500000     0.500000
    0.266429     0.500000     0.500000
    0.543183     0.305938     0.508996
    0.543183     0.694062     0.491004
    0.456939     0.305469     0.515679
    0.456939     0.694531     0.484321
    0.927130     0.680930     0.598664
    0.927130     0.319070     0.401336
    0.072966     0.680916     0.598808
    0.072966     0.319084     0.401192
    0.262984     0.400702     0.570753
    0.262984     0.599298     0.429247
    0.737178     0.400725     0.570366
    0.737178     0.599275     0.429634
    0.605140     0.191556     0.588186
    0.605140     0.808444     0.411814
    0.394761     0.188046     0.644418
    0.394761     0.811954     0.355582
    0.358763     0.500000     0.500000
    0.641399     0.500000     0.500000
    0.060199     0.500000     0.500000
    0.939801     0.500000     0.500000
    0.442003     0.561966     0.592355
    0.442003     0.438034     0.407645
    0.558160     0.561980     0.592461
    0.558160     0.438020     0.407539
    0.500164     0.104769     0.625308
    0.500164     0.895231     0.374692
EA100  11.224 10.162 11.236 90.00 90.00 90.00 Sym.group:    0
1.0000
   11.223635     0.000000     0.000000
    0.000000    10.162001     0.000000
    0.000000     0.000000    11.236282
   O  Cu
  24   24 
Direct
    0.164245     0.242518     0.498866
    0.509483     0.243064     0.174411
    0.838133     0.239377     0.529296
    0.479020     0.238832     0.847540
    0.684446     0.153406     0.670819
    0.780408     0.760169     0.702165
    0.239606     0.870104     0.523388
    0.268131     0.398567     0.191206
    0.221860     0.758626     0.324340
    0.117609     0.601765     0.633104
    0.683822     0.761917     0.230257
    0.305570     0.756878     0.788176
    0.742824     0.847285     0.497282
    0.296567     0.129896     0.349528
    0.736589     0.399431     0.840379
    0.881586     0.600928     0.392186
    0.506287     0.861691     0.765181
    0.813090     0.399033     0.285070
    0.655379     0.142646     0.316160
    0.373798     0.601235     0.117477
    0.480151     0.855698     0.262532
    0.614989     0.601458     0.880594
    0.333724     0.140656     0.703602
    0.163185     0.398964     0.753000
    0.838931     0.760492     0.528315
    0.478814     0.758673     0.847212
    0.165044     0.758303     0.497885
    0.509277     0.760122     0.174083
    0.298246     0.868433     0.348965
    0.221959     0.242223     0.325652
    0.742983     0.151108     0.498488
    0.736796     0.602445     0.840284
    0.780507     0.239673     0.703477
    0.882391     0.398298     0.392263
    0.305653     0.240631     0.788290
    0.683904     0.241264     0.230371
    0.239764     0.132193     0.524593
    0.686126     0.848957     0.670255
    0.268339     0.600248     0.191111
    0.118414     0.399700     0.633181
    0.481102     0.144123     0.259966
    0.164703     0.602346     0.751525
    0.332703     0.859530     0.705792
    0.615371     0.400307     0.882523
    0.507237     0.139178     0.762615
    0.374181     0.397690     0.119406
    0.654358     0.857859     0.318350
    0.814608     0.600347     0.283594
EA101   9.902 11.005 11.718 90.00 90.00 90.00 Sym.group:    0
1.0000
    9.901677     0.000000     0.000000
    0.000000    11.004930     0.000000
    0.000000     0.000000    11.717682
   O  Cu
  24   24 
Direct
    0.734854     0.270038     0.706163
    0.631835     0.783706     0.706170
    0.133311     0.446254     0.706170
    0.369463     0.784084     0.293830
    0.866461     0.445148     0.293834
    0.264071     0.270770     0.293827
    0.133539     0.554852     0.706166
    0.630537     0.215916     0.706170
    0.735929     0.729230     0.706173
    0.368165     0.216294     0.293830
    0.265146     0.729962     0.293837
    0.866689     0.553746     0.293830
    0.620045     0.692055     0.245017
    0.168412     0.452279     0.245017
    0.711524     0.355668     0.245006
    0.831382     0.451548     0.754984
    0.287500     0.356189     0.754987
    0.381122     0.692258     0.754992
    0.712500     0.643811     0.245013
    0.168618     0.548452     0.245016
    0.618878     0.307742     0.245008
    0.831588     0.547721     0.754983
    0.379955     0.307945     0.754983
    0.288476     0.644332     0.754994
    0.240459     0.458431     0.887337
    0.670308     0.429228     0.887350
    0.589245     0.612345     0.887348
    0.328940     0.429558     0.112654
    0.411683     0.612412     0.112658
    0.759363     0.458030     0.112660
    0.588317     0.387588     0.887342
    0.671060     0.570442     0.887346
    0.240637     0.541970     0.887340
    0.329692     0.570772     0.112650
    0.759541     0.541569     0.112663
    0.410755     0.387655     0.112652
    0.369437     0.599298     0.387856
    0.476429     0.119946     0.387850
    0.654149     0.780751     0.387850
    0.522958     0.120332     0.612146
    0.346089     0.781781     0.612152
    0.630956     0.597873     0.612146
    0.653911     0.218219     0.387848
    0.477042     0.879668     0.387854
    0.369044     0.402127     0.387854
    0.523571     0.880054     0.612150
    0.630563     0.400702     0.612144
    0.345851     0.219249     0.612150
EA102  11.986 12.263  8.794 90.00 90.00 90.00 Sym.group:    0
1.0000
   11.986310     0.000000     0.000000
    0.000000    12.262941     0.000000
    0.000000     0.000000     8.794260
   O  Cu
  24   24 
Direct
    0.837324     0.668142     0.740211
    0.526921     0.222211     0.740215
    0.287019     0.707929     0.740202
    0.469506     0.732598     0.150116
    0.413821     0.364347     0.150098
    0.767938     0.501337     0.150105
    0.532569     0.621791     0.793161
    0.638228     0.503362     0.793161
    0.480467     0.473136     0.793159
    0.327189     0.398510     0.637171
    0.543090     0.788853     0.637174
    0.780989     0.410925     0.637175
    0.653067     0.620151     0.710241
    0.576526     0.402179     0.710239
    0.421671     0.575957     0.710239
    0.677694     0.107641     0.706650
    0.110126     0.637589     0.706646
    0.863447     0.853057     0.706643
    0.605042     0.240489     0.322164
    0.782071     0.725133     0.322162
    0.264154     0.632668     0.322172
    0.829182     0.285502     0.671465
    0.191966     0.420425     0.671460
    0.630120     0.892359     0.671463
    0.293373     0.294700     0.528800
    0.889874     0.434204     0.528802
    0.468022     0.869385     0.528802
    0.764285     0.395922     0.417316
    0.322248     0.420149     0.417312
    0.564732     0.782215     0.417317
    0.264188     0.534326     0.568083
    0.692153     0.289687     0.568087
    0.694924     0.774272     0.568085
    0.515411     0.682906     0.737099
    0.700955     0.487327     0.737099
    0.434898     0.428056     0.737096
    0.406877     0.517508     0.512778
    0.608678     0.661897     0.512781
    0.635710     0.418880     0.512781
    0.421055     0.235662     0.531513
    0.351873     0.790822     0.531517
    0.878341     0.571805     0.531515
    0.790590     0.286933     0.849902
    0.648148     0.858976     0.849897
    0.212529     0.452379     0.849897
    0.392633     0.605551     0.355867
    0.693807     0.629933     0.355871
    0.564823     0.362800     0.355870
EA103  11.218 10.163 11.286 90.00 90.00 90.00 Sym.group:    0
1.0000
   11.218427     0.000000     0.000000
    0.000000    10.163220     0.000000
    0.000000     0.000000    11.286225
   O  Cu
  24   24 
Direct
    0.172817     0.246415     0.489136
    0.512904     0.241423     0.163620
    0.847017     0.234723     0.519431
    0.482427     0.239715     0.833769
    0.688442     0.152687     0.658853
    0.769708     0.754621     0.684535
    0.251698     0.846363     0.514031
    0.266721     0.399335     0.176562
    0.210901     0.763292     0.308382
    0.118004     0.603092     0.617916
    0.688796     0.754945     0.228449
    0.310369     0.762967     0.783899
    0.755150     0.870120     0.488041
    0.300383     0.129880     0.338985
    0.735396     0.397867     0.822863
    0.882336     0.598757     0.378064
    0.514670     0.855397     0.747889
    0.821230     0.395840     0.268455
    0.659104     0.145661     0.306689
    0.379523     0.602786     0.123303
    0.488523     0.861086     0.247464
    0.620826     0.599063     0.883043
    0.337299     0.136906     0.692417
    0.171023     0.401362     0.734315
    0.826462     0.754479     0.512399
    0.486648     0.759634     0.836121
    0.152262     0.763433     0.482104
    0.517126     0.758278     0.165971
    0.308533     0.848086     0.342009
    0.227622     0.244644     0.316498
    0.746689     0.152195     0.487262
    0.732188     0.600323     0.821603
    0.786429     0.236493     0.692651
    0.881996     0.396419     0.379561
    0.310152     0.242542     0.771741
    0.688579     0.238595     0.216291
    0.243237     0.130372     0.513252
    0.696593     0.868397     0.661878
    0.263512     0.601525     0.175303
    0.117664     0.400783     0.619413
    0.485369     0.143332     0.249885
    0.175367     0.603905     0.730766
    0.340690     0.853759     0.691483
    0.620222     0.396482     0.876697
    0.511516     0.139235     0.750310
    0.378920     0.400719     0.116957
    0.662494     0.862724     0.305755
    0.825574     0.597943     0.264907
EA104  20.249 20.249 20.249 90.00 90.00 90.00 Sym.group:    0
1.0000
   20.249305     0.000000     0.000000
    0.000000    20.249305     0.000000
    0.000000     0.000000    20.249305
   O  Cu
  24   24 
Direct
    0.407271     0.498039     0.306725
    0.687891     0.476653     0.399451
    0.592729     0.413586     0.672893
    0.312109     0.434972     0.580166
    0.454653     0.632584     0.337756
    0.592729     0.586414     0.327107
    0.545347     0.451869     0.296076
    0.407271     0.306725     0.501961
    0.407271     0.501961     0.693275
    0.407271     0.693275     0.498039
    0.312109     0.565028     0.419834
    0.687891     0.523347     0.600549
    0.454653     0.367416     0.662244
    0.545347     0.548131     0.703924
    0.592729     0.327107     0.413586
    0.592729     0.672893     0.586414
    0.312109     0.419834     0.434972
    0.454653     0.337756     0.367416
    0.312109     0.580166     0.565028
    0.545347     0.703924     0.451869
    0.687891     0.399451     0.523347
    0.454653     0.662244     0.632584
    0.687891     0.600549     0.476653
    0.545347     0.296076     0.548131
    0.592729     0.501961     0.693275
    0.312109     0.523347     0.600549
    0.407271     0.586414     0.327107
    0.687891     0.565028     0.419834
    0.545347     0.367416     0.662244
    0.407271     0.413586     0.672893
    0.454653     0.548131     0.703924
    0.592729     0.693275     0.498039
    0.592729     0.498039     0.306725
    0.592729     0.306725     0.501961
    0.687891     0.434972     0.580166
    0.312109     0.476653     0.399451
    0.545347     0.632584     0.337756
    0.454653     0.451869     0.296076
    0.407271     0.672893     0.586414
    0.407271     0.327107     0.413586
    0.687891     0.580166     0.565028
    0.545347     0.662244     0.632584
    0.687891     0.419834     0.434972
    0.454653     0.296076     0.548131
    0.312109     0.600549     0.476653
    0.545347     0.337756     0.367416
    0.312109     0.399451     0.523347
    0.454653     0.703924     0.451869
EA105  20.031 20.031 19.927 90.00 90.00 90.00 Sym.group:    0
1.0000
   20.031347     0.000000     0.000000
    0.000000    20.031347     0.000000
    0.000000     0.000000    19.926600
   O  Cu
  24   24 
Direct
    0.311209     0.368494     0.491421
    0.508534     0.368494     0.310217
    0.688791     0.368494     0.508579
    0.491466     0.368494     0.689783
    0.608665     0.318120     0.590585
    0.656478     0.631506     0.606525
    0.359022     0.681880     0.507360
    0.368761     0.448674     0.316971
    0.343522     0.631506     0.393475
    0.285970     0.551326     0.567925
    0.605968     0.631506     0.342699
    0.394032     0.631506     0.657301
    0.640978     0.681880     0.492640
    0.391335     0.318120     0.409415
    0.631239     0.448674     0.683029
    0.714030     0.551326     0.432075
    0.507322     0.681880     0.641718
    0.682072     0.448674     0.368071
    0.590112     0.318120     0.390764
    0.432430     0.551326     0.284845
    0.492678     0.681880     0.358282
    0.567570     0.551326     0.715155
    0.409888     0.318120     0.609236
    0.317928     0.448674     0.631929
    0.688791     0.631506     0.508579
    0.491466     0.631506     0.689783
    0.311209     0.631506     0.491421
    0.508534     0.631506     0.310217
    0.391335     0.681880     0.409415
    0.343522     0.368494     0.393475
    0.640978     0.318120     0.492640
    0.631239     0.551326     0.683029
    0.656478     0.368494     0.606525
    0.714030     0.448674     0.432075
    0.394032     0.368494     0.657301
    0.605968     0.368494     0.342699
    0.359022     0.318120     0.507360
    0.608665     0.681880     0.590585
    0.368761     0.551326     0.316971
    0.285970     0.448674     0.567925
    0.492678     0.318120     0.358282
    0.317928     0.551326     0.631929
    0.409888     0.681880     0.609236
    0.567570     0.448674     0.715155
    0.507322     0.318120     0.641718
    0.432430     0.448674     0.284845
    0.590112     0.681880     0.390764
    0.682072     0.551326     0.368071
EA106  20.420 19.308 18.961 90.00 90.00 90.00 Sym.group:    0
1.0000
   20.420416     0.000000     0.000000
    0.000000    19.308045     0.000000
    0.000000     0.000000    18.961355
   O  Cu
  24   24 
Direct
    0.431678     0.516347     0.684604
    0.431678     0.648828     0.393282
    0.431678     0.334825     0.422113
    0.568322     0.516347     0.684604
    0.568322     0.648828     0.393282
    0.568322     0.334825     0.422113
    0.359799     0.426986     0.574172
    0.359799     0.599589     0.527302
    0.359799     0.473425     0.398526
    0.640201     0.426986     0.574172
    0.640201     0.599589     0.527302
    0.640201     0.473425     0.398526
    0.430205     0.570756     0.357867
    0.430205     0.343741     0.508669
    0.430205     0.585502     0.633463
    0.569795     0.570756     0.357867
    0.569795     0.343741     0.508669
    0.569795     0.585502     0.633463
    0.582723     0.622814     0.527973
    0.582723     0.462384     0.377709
    0.582723     0.414803     0.594318
    0.417277     0.622814     0.527973
    0.417277     0.462384     0.377709
    0.417277     0.414803     0.594318
    0.690506     0.500000     0.500000
    0.309494     0.500000     0.500000
    0.591686     0.451721     0.646529
    0.591686     0.648758     0.469311
    0.591686     0.399520     0.384161
    0.408314     0.451721     0.646529
    0.408314     0.648758     0.469311
    0.408314     0.399520     0.384161
    0.389793     0.609834     0.399054
    0.389793     0.359231     0.453615
    0.389793     0.530935     0.647331
    0.610207     0.609834     0.399054
    0.610207     0.359231     0.453615
    0.610207     0.530935     0.647331
    0.500000     0.360292     0.370786
    0.500000     0.459961     0.687809
    0.500000     0.679747     0.441404
    0.377495     0.559002     0.609482
    0.377495     0.563611     0.393228
    0.377495     0.377388     0.497291
    0.622505     0.559002     0.609482
    0.622505     0.563611     0.393228
    0.622505     0.377388     0.497291
    0.500000     0.500000     0.500000
EA107  19.424 20.304 18.087 90.00 90.00 90.00 Sym.group:    0
1.0000
   19.424065     0.000000     0.000000
    0.000000    20.304457     0.000000
    0.000000     0.000000    18.087095
   O  Cu
  24   24 
Direct
    0.624151     0.488857     0.650580
    0.448012     0.608428     0.650580
    0.427837     0.402715     0.650580
    0.389369     0.444962     0.349420
    0.505491     0.619174     0.349420
    0.605141     0.435864     0.349420
    0.606339     0.417694     0.447231
    0.521340     0.629252     0.447231
    0.372321     0.453054     0.447231
    0.433878     0.385450     0.552769
    0.429362     0.612056     0.552769
    0.636761     0.502494     0.552769
    0.444140     0.496137     0.405474
    0.531427     0.455654     0.405474
    0.524432     0.548210     0.405474
    0.553270     0.516540     0.594526
    0.488338     0.447597     0.594526
    0.458392     0.535862     0.594526
    0.600378     0.346550     0.579310
    0.588726     0.659885     0.579310
    0.310896     0.493565     0.579310
    0.467399     0.321688     0.420690
    0.354878     0.616165     0.420690
    0.677723     0.562147     0.420690
    0.305279     0.468807     0.469719
    0.625599     0.354275     0.469719
    0.569122     0.676918     0.469719
    0.692669     0.541235     0.530281
    0.440994     0.319761     0.530281
    0.366336     0.639005     0.530281
    0.625479     0.381785     0.559911
    0.544278     0.663064     0.559911
    0.330242     0.455152     0.559911
    0.430278     0.345290     0.440089
    0.394804     0.635117     0.440089
    0.674917     0.519593     0.440089
    0.508690     0.621510     0.630650
    0.385653     0.446444     0.630650
    0.605656     0.432045     0.630650
    0.444128     0.609440     0.369350
    0.627009     0.491569     0.369350
    0.428862     0.398991     0.369350
    0.405835     0.385002     0.511010
    0.651188     0.479486     0.511010
    0.442977     0.635513     0.511010
    0.632494     0.427379     0.488990
    0.368010     0.426542     0.488990
    0.499496     0.646079     0.488990
EA108  21.447 22.340 17.989 90.00 90.00 90.00 Sym.group:    0
1.0000
   21.446738     0.000000     0.000000
    0.000000    22.340476     0.000000
    0.000000     0.000000    17.989428
   O  Cu
  24   24 
Direct
    0.561737     0.639252     0.648683
    0.561737     0.639252     0.351317
    0.343510     0.481701     0.648683
    0.405247     0.620953     0.351317
    0.405247     0.620953     0.648683
    0.438263     0.360748     0.648683
    0.343510     0.481701     0.351317
    0.594753     0.379047     0.648683
    0.438263     0.360748     0.351317
    0.656490     0.518299     0.648683
    0.594753     0.379047     0.351317
    0.656490     0.518299     0.351317
    0.487714     0.691060     0.500000
    0.321499     0.585316     0.500000
    0.333785     0.394256     0.500000
    0.512286     0.308940     0.500000
    0.678501     0.414684     0.500000
    0.666215     0.605744     0.500000
    0.520572     0.674381     0.500000
    0.352975     0.604294     0.500000
    0.332401     0.429913     0.500000
    0.479428     0.325619     0.500000
    0.647025     0.395706     0.500000
    0.667599     0.570087     0.500000
    0.686178     0.624582     0.613036
    0.686178     0.624582     0.386964
    0.294524     0.592493     0.613036
    0.480702     0.717075     0.386964
    0.480702     0.717075     0.613036
    0.313822     0.375418     0.613036
    0.294524     0.592493     0.386964
    0.519298     0.282925     0.613036
    0.313822     0.375418     0.386964
    0.705476     0.407507     0.613036
    0.519298     0.282925     0.386964
    0.705476     0.407507     0.386964
    0.559188     0.598173     0.575911
    0.559188     0.598173     0.424089
    0.381843     0.500121     0.575911
    0.441031     0.598294     0.424089
    0.441031     0.598294     0.575911
    0.440812     0.401827     0.575911
    0.381843     0.500121     0.424089
    0.558969     0.401706     0.575911
    0.440812     0.401827     0.424089
    0.618157     0.499879     0.575911
    0.558969     0.401706     0.424089
    0.618157     0.499879     0.424089
EA109  19.318 19.754 19.754 90.00 90.00 90.00 Sym.group:    0
1.0000
   19.318095     0.000000     0.000000
    0.000000    19.754196     0.000000
    0.000000     0.000000    19.754196
   O  Cu
  24   24 
Direct
    0.672846     0.486679     0.428068
    0.672846     0.513321     0.571932
    0.327154     0.571932     0.486679
    0.327154     0.428068     0.513321
    0.381910     0.555703     0.489685
    0.381910     0.444297     0.510315
    0.618090     0.489685     0.444297
    0.618090     0.510315     0.555703
    0.590980     0.366705     0.587098
    0.590980     0.633295     0.412902
    0.409020     0.466409     0.655645
    0.409020     0.533591     0.344355
    0.590980     0.655645     0.533591
    0.590980     0.344355     0.466409
    0.409020     0.412902     0.366705
    0.409020     0.587098     0.633295
    0.385747     0.629009     0.570849
    0.385747     0.370991     0.429151
    0.614253     0.387652     0.404916
    0.614253     0.612348     0.595084
    0.385747     0.404916     0.612348
    0.385747     0.595084     0.387652
    0.614253     0.429151     0.629009
    0.614253     0.570849     0.370991
    0.482928     0.509409     0.550806
    0.482928     0.490591     0.449194
    0.517072     0.449194     0.509409
    0.517072     0.550806     0.490591
    0.579802     0.417318     0.579846
    0.579802     0.582682     0.420154
    0.420198     0.455057     0.605791
    0.420198     0.544943     0.394209
    0.579802     0.605791     0.544943
    0.579802     0.394209     0.455057
    0.420198     0.420154     0.417318
    0.420198     0.579846     0.582682
    0.331454     0.573693     0.558073
    0.331454     0.426307     0.441927
    0.668546     0.419389     0.451989
    0.668546     0.580611     0.548011
    0.331454     0.451989     0.580611
    0.331454     0.548011     0.419389
    0.668546     0.441927     0.573693
    0.668546     0.558073     0.426307
    0.500000     0.680068     0.623797
    0.500000     0.376203     0.680068
    0.500000     0.319932     0.376203
    0.500000     0.623797     0.319932
EA110  25.652 18.813 18.813 90.00 90.00 90.00 Sym.group:    0
1.0000
   25.651511     0.000000     0.000000
    0.000000    18.813381     0.000000
    0.000000     0.000000    18.813381
   O  Cu
  24   24 
Direct
    0.731168     0.532821     0.561117
    0.731168     0.467179     0.438883
    0.268832     0.506789     0.430961
    0.268832     0.493211     0.569039
    0.731168     0.430961     0.493211
    0.731168     0.569039     0.506789
    0.268832     0.438883     0.532821
    0.268832     0.561117     0.467179
    0.753621     0.471488     0.542768
    0.753621     0.528512     0.457232
    0.246379     0.457232     0.471488
    0.246379     0.542768     0.528512
    0.536565     0.610836     0.411944
    0.536565     0.389164     0.588056
    0.463435     0.636178     0.538654
    0.463435     0.363822     0.461346
    0.536565     0.538654     0.363822
    0.536565     0.461346     0.636178
    0.463435     0.588056     0.610836
    0.463435     0.411944     0.389164
    0.342620     0.552757     0.420864
    0.342620     0.447243     0.579136
    0.657380     0.579136     0.552757
    0.657380     0.420864     0.447243
    0.598092     0.553001     0.420498
    0.598092     0.446999     0.579502
    0.401908     0.579502     0.553001
    0.401908     0.420498     0.446999
    0.679598     0.417150     0.481302
    0.679598     0.582850     0.518698
    0.320402     0.430715     0.549126
    0.320402     0.569285     0.450874
    0.679598     0.549126     0.569285
    0.679598     0.450874     0.430715
    0.320402     0.518698     0.417150
    0.320402     0.481302     0.582850
    0.568638     0.544572     0.529715
    0.568638     0.455428     0.470285
    0.431362     0.529715     0.455428
    0.431362     0.470285     0.544572
    0.519731     0.547102     0.429348
    0.519731     0.452898     0.570652
    0.480269     0.570652     0.547102
    0.480269     0.429348     0.452898
    0.500000     0.532814     0.664069
    0.500000     0.335931     0.532814
    0.500000     0.467186     0.335931
    0.500000     0.664069     0.467186
EA111  20.273 20.273 20.273 90.00 90.00 90.00 Sym.group:    0
1.0000
   20.273233     0.000000     0.000000
    0.000000    20.273233     0.000000
    0.000000     0.000000    20.273233
   O  Cu
  24   24 
Direct
    0.539898     0.684248     0.543993
    0.441025     0.320944     0.456007
    0.558975     0.679056     0.456007
    0.460102     0.315752     0.543993
    0.454955     0.502014     0.311741
    0.670100     0.408114     0.509886
    0.545045     0.497986     0.311741
    0.306795     0.506987     0.490114
    0.460147     0.521091     0.688259
    0.329900     0.591886     0.509886
    0.539853     0.478909     0.688259
    0.693205     0.493013     0.490114
    0.661003     0.586931     0.413931
    0.594745     0.343467     0.586069
    0.405255     0.656533     0.586069
    0.338997     0.413069     0.413931
    0.617850     0.605273     0.373840
    0.644334     0.549919     0.367475
    0.382150     0.394727     0.373840
    0.400869     0.616178     0.632525
    0.548248     0.349524     0.626160
    0.355666     0.450081     0.367475
    0.451752     0.650476     0.626160
    0.599131     0.383822     0.632525
    0.473521     0.358286     0.388837
    0.548989     0.635589     0.611163
    0.451011     0.364411     0.611163
    0.526479     0.641714     0.388837
    0.610325     0.482064     0.643694
    0.390539     0.644996     0.488335
    0.389675     0.517936     0.643694
    0.667842     0.569528     0.511665
    0.604199     0.459553     0.356306
    0.609461     0.355004     0.488335
    0.395801     0.540447     0.356306
    0.332158     0.430472     0.511665
    0.579182     0.648344     0.559532
    0.493086     0.331989     0.440468
    0.506914     0.668011     0.440468
    0.420818     0.351656     0.559532
    0.452391     0.551767     0.336070
    0.642545     0.399509     0.462552
    0.547609     0.448233     0.336070
    0.326190     0.485604     0.537448
    0.432723     0.479499     0.663930
    0.357455     0.600491     0.462552
    0.567277     0.520501     0.663930
    0.673810     0.514396     0.537448
EA112  11.783 11.487 10.940 90.00 90.00 90.00 Sym.group:    0
1.0000
   11.783447     0.000000     0.000000
    0.000000    11.486827     0.000000
    0.000000     0.000000    10.939878
   O  Cu
  24   24 
Direct
    0.468733     0.135128     0.634962
    0.157062     0.375241     0.512075
    0.626100     0.115233     0.393757
    0.316083     0.187596     0.394484
    0.447315     0.287740     0.128845
    0.755997     0.182623     0.617840
    0.216032     0.415003     0.187382
    0.579068     0.323193     0.850547
    0.831559     0.176395     0.465961
    0.784647     0.160868     0.215673
    0.884778     0.196397     0.267894
    0.784576     0.337432     0.518176
    0.382062     0.750662     0.218653
    0.408333     0.563415     0.886563
    0.231373     0.772594     0.440931
    0.334380     0.727013     0.764347
    0.726636     0.809932     0.554359
    0.832948     0.575792     0.654816
    0.172618     0.563398     0.259870
    0.853843     0.618661     0.386014
    0.711447     0.676230     0.236520
    0.484600     0.592559     0.113437
    0.389795     0.885419     0.535083
    0.587497     0.803083     0.717455
    0.411097     0.128121     0.469935
    0.433941     0.201925     0.731946
    0.214698     0.382247     0.677104
    0.191853     0.308443     0.415093
    0.683736     0.122242     0.558787
    0.638139     0.168291     0.280378
    0.340262     0.294156     0.166775
    0.454838     0.444041     0.871155
    0.703493     0.455893     0.305241
    0.775990     0.261642     0.518546
    0.694404     0.214653     0.222078
    0.829137     0.330285     0.447481
    0.887329     0.525953     0.555802
    0.300862     0.563893     0.826535
    0.569907     0.865087     0.612724
    0.442624     0.726897     0.821903
    0.146771     0.611806     0.371040
    0.780850     0.573856     0.231269
    0.537359     0.694917     0.157550
    0.304895     0.817189     0.594529
    0.329290     0.648451     0.174179
    0.316272     0.838671     0.380230
    0.744038     0.748349     0.659429
    0.785843     0.722031     0.388986
EA113  17.578  8.793 10.913 90.00 90.00 90.00 Sym.group:    0
1.0000
   17.577975     0.000000     0.000000
    0.000000     8.793168     0.000000
    0.000000     0.000000    10.912768
   O  Cu
  24   24 
Direct
    0.143964     0.339683     0.248035
    0.126668     0.623820     0.311415
    0.108704     0.532204     0.410237
    0.161927     0.431299     0.149213
    0.085786     0.407856     0.336386
    0.114067     0.552102     0.180798
    0.608043     0.351843     0.287537
    0.491600     0.617972     0.201480
    0.584177     0.230115     0.418835
    0.466614     0.754400     0.316425
    0.279009     0.338005     0.223160
    0.224222     0.637148     0.475194
    0.532600     0.468952     0.528182
    0.760327     0.349210     0.554512
    0.783561     0.824364     0.633965
    0.867741     0.755979     0.876756
    0.211652     0.688512     0.563387
    0.790641     0.482843     0.897385
    0.612513     0.630684     0.626518
    0.230791     0.245720     0.651687
    0.625011     0.386509     0.625748
    0.128253     0.468282     0.675505
    0.893179     0.260281     0.873567
    0.402433     0.434413     0.650510
    0.681795     0.357480     0.463035
    0.371348     0.626326     0.260368
    0.185392     0.567890     0.479352
    0.247802     0.403755     0.177177
    0.231076     0.318448     0.269194
    0.202118     0.653198     0.387335
    0.622588     0.580584     0.480836
    0.406914     0.410338     0.361726
    0.555224     0.368021     0.403370
    0.491930     0.617590     0.350222
    0.498141     0.852069     0.475004
    0.932594     0.457471     0.641720
    0.826717     0.469501     0.559584
    0.631310     0.333600     0.534260
    0.780696     0.780352     0.763970
    0.399127     0.533306     0.606163
    0.905830     0.154023     0.689823
    0.221598     0.391003     0.696802
    0.121613     0.666899     0.586437
    0.873600     0.845977     0.610915
    0.799835     0.337561     0.852268
    0.411625     0.289130     0.605395
    0.147051     0.171200     0.583248
    0.615819     0.531791     0.670865
EA114  11.276 10.222 15.852 90.00 90.00 90.00 Sym.group:    0
1.0000
   11.275535     0.000000     0.000000
    0.000000    10.221757     0.000000
    0.000000     0.000000    15.852466
   O  Cu
  24   24 
Direct
    0.431154     0.525729     0.124242
    0.843038     0.608883     0.378929
    0.184841     0.554155     0.278219
    0.681668     0.441960     0.161471
    0.569588     0.865311     0.453936
    0.335178     0.780774     0.302825
    0.649901     0.733948     0.245080
    0.562340     0.190877     0.247487
    0.131870     0.508898     0.496461
    0.487583     0.141062     0.397401
    0.249517     0.326101     0.330329
    0.449577     0.632760     0.248724
    0.600475     0.199638     0.913497
    0.450354     0.429736     0.806129
    0.522690     0.126782     0.936298
    0.583446     0.418174     0.610656
    0.635556     0.176871     0.702081
    0.458868     0.512974     0.711281
    0.536639     0.282169     0.931760
    0.646070     0.182117     0.844198
    0.215543     0.289624     0.691774
    0.268767     0.666045     0.704336
    0.110556     0.501045     0.758174
    0.354891     0.551663     0.541126
    0.329575     0.394712     0.159460
    0.551977     0.541943     0.124934
    0.696355     0.321277     0.198957
    0.577836     0.813336     0.304212
    0.286419     0.685174     0.243001
    0.127463     0.512860     0.374837
    0.326928     0.832749     0.452551
    0.779592     0.633965     0.281617
    0.872537     0.366507     0.454218
    0.622498     0.152703     0.345995
    0.615356     0.134689     0.442732
    0.528047     0.312518     0.881150
    0.570186     0.219171     0.829998
    0.468990     0.347432     0.652453
    0.707977     0.217760     0.613465
    0.547177     0.394386     0.515756
    0.707093     0.164789     0.746444
    0.623721     0.249331     0.596905
    0.365044     0.454155     0.543581
    0.184996     0.582966     0.684388
    0.318752     0.186059     0.716424
    0.130949     0.305210     0.763105
    0.438662     0.634741     0.561076
    0.281860     0.670927     0.798967
EA115  12.246 11.714 10.246 90.00 90.00 90.00 Sym.group:    0
1.0000
   12.246074     0.000000     0.000000
    0.000000    11.713852     0.000000
    0.000000     0.000000    10.245838
   O  Cu
  24   24 
Direct
    0.361298     0.379358     0.865547
    0.745094     0.224246     0.525944
    0.287376     0.262664     0.512610
    0.538648     0.143701     0.689443
    0.476888     0.189919     0.256693
    0.672856     0.260946     0.340349
    0.485259     0.320645     0.875938
    0.602866     0.245089     0.734736
    0.514244     0.307232     0.209561
    0.292673     0.390921     0.539983
    0.645916     0.792078     0.206598
    0.440951     0.627850     0.860837
    0.847876     0.671338     0.369701
    0.136319     0.592819     0.429582
    0.366641     0.857548     0.343417
    0.348554     0.556379     0.139163
    0.782749     0.608782     0.679468
    0.597642     0.630162     0.150725
    0.358325     0.834174     0.609866
    0.798454     0.510109     0.312901
    0.559462     0.713927     0.772305
    0.711708     0.697123     0.611478
    0.472730     0.839994     0.418479
    0.185993     0.524994     0.529367
    0.403127     0.097542     0.478799
    0.294328     0.362991     0.692334
    0.673676     0.196277     0.663904
    0.425112     0.329871     0.124062
    0.665969     0.165641     0.470825
    0.311230     0.334993     0.188967
    0.381485     0.276703     0.812280
    0.437324     0.225061     0.782943
    0.604797     0.168163     0.387436
    0.293695     0.309880     0.296230
    0.463328     0.470086     0.440054
    0.547927     0.480380     0.503899
    0.285346     0.425267     0.228835
    0.812903     0.698812     0.522535
    0.169252     0.635184     0.607534
    0.542113     0.860700     0.303844
    0.537168     0.764747     0.168571
    0.863681     0.569544     0.432265
    0.555544     0.592706     0.847930
    0.274785     0.589283     0.792160
    0.738958     0.823424     0.366155
    0.274243     0.823896     0.503628
    0.475512     0.691943     0.147517
    0.638505     0.606126     0.797808
EA116  10.161 11.723 10.120 90.00 90.00 90.00 Sym.group:    0
1.0000
   10.161003     0.000000     0.000000
    0.000000    11.722831     0.000000
    0.000000     0.000000    10.119555
   O  Cu
  24   24 
Direct
    0.682659     0.841067     0.362017
    0.266959     0.667690     0.213949
    0.435674     0.214466     0.210348
    0.851375     0.387845     0.358416
    0.642517     0.288362     0.188975
    0.337801     0.872598     0.409407
    0.526505     0.787815     0.214298
    0.188415     0.322785     0.296891
    0.354755     0.480373     0.124436
    0.814268     0.595804     0.278838
    0.256792     0.205247     0.406507
    0.410716     0.127402     0.441365
    0.718690     0.241416     0.591188
    0.750841     0.586952     0.740411
    0.423074     0.174339     0.630017
    0.867855     0.441201     0.517065
    0.601676     0.387167     0.814533
    0.270430     0.420362     0.808658
    0.572351     0.826965     0.659851
    0.432467     0.623139     0.863599
    0.161826     0.144623     0.587282
    0.787342     0.737200     0.489961
    0.132145     0.110542     0.457720
    0.502434     0.559312     0.150553
    0.511686     0.867994     0.313069
    0.471544     0.315289     0.140026
    0.606647     0.187539     0.259295
    0.261788     0.219069     0.306685
    0.872824     0.572267     0.387402
    0.245509     0.483266     0.184962
    0.697478     0.760888     0.263247
    0.376206     0.664796     0.153423
    0.792816     0.411381     0.249848
    0.243373     0.795310     0.371162
    0.127176     0.395686     0.467416
    0.677578     0.248742     0.455821
    0.619849     0.286778     0.737382
    0.688498     0.782561     0.636157
    0.803797     0.294408     0.515585
    0.849685     0.541589     0.594218
    0.665736     0.533959     0.816015
    0.401424     0.720536     0.811690
    0.306927     0.218742     0.653709
    0.368408     0.476347     0.862116
    0.210272     0.228614     0.615803
    0.214618     0.563477     0.600901
    0.277967     0.766163     0.660765
    0.152194     0.539626     0.675647
EA117  10.416 10.723 10.727 90.00 90.00 90.00 Sym.group:    0
1.0000
   10.416053     0.000000     0.000000
    0.000000    10.723165     0.000000
    0.000000     0.000000    10.727133
   O  Cu
  24   24 
Direct
    0.388408     0.307942     0.180745
    0.765908     0.221093     0.549931
    0.150435     0.449762     0.343668
    0.749007     0.310997     0.270236
    0.669383     0.296208     0.784373
    0.882730     0.458270     0.523828
    0.284738     0.178236     0.457050
    0.164631     0.349210     0.619919
    0.545242     0.152826     0.326703
    0.592173     0.466113     0.124278
    0.470280     0.136069     0.639521
    0.230711     0.572540     0.281201
    0.337512     0.640431     0.788888
    0.471825     0.784503     0.689041
    0.138700     0.539009     0.579889
    0.299442     0.786969     0.430835
    0.238489     0.755516     0.520118
    0.384568     0.616022     0.129169
    0.809789     0.746252     0.349626
    0.561891     0.752292     0.189354
    0.753166     0.559148     0.824319
    0.733868     0.530948     0.173298
    0.707784     0.871735     0.492589
    0.825086     0.713447     0.691118
    0.854022     0.345322     0.487315
    0.476523     0.432170     0.118129
    0.702547     0.204240     0.651869
    0.698091     0.409156     0.820886
    0.417991     0.118980     0.531434
    0.660892     0.186768     0.332852
    0.216920     0.366299     0.728005
    0.725426     0.406856     0.198662
    0.411989     0.212083     0.252318
    0.437115     0.228038     0.772025
    0.197796     0.257242     0.487414
    0.619661     0.803988     0.691229
    0.397484     0.760289     0.780238
    0.358339     0.563177     0.870039
    0.287309     0.616741     0.187926
    0.333304     0.747461     0.320509
    0.142551     0.550655     0.459259
    0.259432     0.733282     0.636866
    0.540271     0.828593     0.508674
    0.374590     0.726074     0.187061
    0.571867     0.642240     0.131461
    0.809563     0.801815     0.518873
    0.825671     0.571081     0.257476
    0.708010     0.816172     0.323342
EA118  10.592  9.723 10.858 90.00 90.00 90.00 Sym.group:    0
1.0000
   10.592478     0.000000     0.000000
    0.000000     9.723312     0.000000
    0.000000     0.000000    10.858172
   O  Cu
  24   24 
Direct
    0.646015     0.289926     0.757359
    0.278306     0.197979     0.314331
    0.185057     0.337358     0.610435
    0.548608     0.140907     0.377535
    0.434290     0.164129     0.622543
    0.760333     0.266704     0.512351
    0.418661     0.291145     0.114105
    0.720183     0.351670     0.216152
    0.366301     0.381710     0.828687
    0.118740     0.396733     0.170218
    0.214093     0.363242     0.116071
    0.246214     0.465005     0.581341
    0.811893     0.658957     0.605084
    0.733449     0.621707     0.216621
    0.263614     0.785685     0.599906
    0.730296     0.709987     0.684198
    0.366095     0.851453     0.572807
    0.712564     0.504912     0.164606
    0.132054     0.626464     0.448047
    0.561984     0.810671     0.283326
    0.492364     0.515648     0.868968
    0.489619     0.855929     0.353493
    0.583254     0.573977     0.844934
    0.545355     0.166190     0.281813
    0.755887     0.301647     0.640569
    0.388181     0.209701     0.197540
    0.535656     0.242734     0.751174
    0.438736     0.129184     0.494327
    0.658968     0.188097     0.383722
    0.640304     0.385925     0.126530
    0.821546     0.430278     0.344783
    0.264936     0.303103     0.700057
    0.193982     0.267177     0.352927
    0.214530     0.458424     0.437784
    0.277512     0.451054     0.169618
    0.188725     0.482237     0.220040
    0.288854     0.699295     0.445280
    0.677620     0.530108     0.707701
    0.541566     0.541245     0.200252
    0.368545     0.750432     0.424205
    0.533195     0.799908     0.509579
    0.549944     0.687422     0.714422
    0.676689     0.710169     0.370449
    0.214578     0.595436     0.593832
    0.803629     0.528766     0.468450
    0.369725     0.571766     0.762078
    0.625140     0.200493     0.694893
    0.385945     0.536709     0.355199
EA119  12.172 12.047 12.926 90.00 90.00 90.00 Sym.group:    0
1.0000
   12.171651     0.000000     0.000000
    0.000000    12.046736     0.000000
    0.000000     0.000000    12.926394
   O  Cu
  24   24 
Direct
    0.147731     0.625593     0.462253
    0.296532     0.217954     0.319591
    0.637193     0.821735     0.307765
    0.279813     0.458574     0.199327
    0.526071     0.694067     0.175950
    0.393340     0.861586     0.439902
    0.765159     0.317188     0.259756
    0.887425     0.438822     0.469378
    0.121708     0.414220     0.423405
    0.582411     0.113650     0.465251
    0.472255     0.423266     0.111647
    0.726450     0.514954     0.184905
    0.815261     0.233278     0.704126
    0.326833     0.106244     0.602091
    0.105074     0.592893     0.636403
    0.732633     0.450226     0.538224
    0.758182     0.843437     0.535393
    0.571094     0.590184     0.905520
    0.256588     0.655613     0.756699
    0.419421     0.471379     0.704313
    0.519507     0.260952     0.839437
    0.546087     0.285764     0.602536
    0.845566     0.571445     0.736848
    0.608595     0.634791     0.644091
    0.514898     0.820282     0.296846
    0.664141     0.414171     0.153956
    0.647826     0.693022     0.187432
    0.158983     0.498661     0.342136
    0.394905     0.119590     0.426325
    0.423359     0.534919     0.134848
    0.220566     0.242952     0.410641
    0.699976     0.840766     0.491391
    0.327905     0.346693     0.178414
    0.827510     0.418177     0.290183
    0.726242     0.188234     0.400226
    0.216306     0.547662     0.749226
    0.711352     0.659638     0.842909
    0.642718     0.830172     0.584385
    0.435149     0.122560     0.541867
    0.450074     0.317967     0.681563
    0.670456     0.165724     0.759613
    0.198629     0.678062     0.613918
    0.725491     0.593808     0.597769
    0.689513     0.322805     0.558856
    0.894926     0.420540     0.681373
    0.485875     0.589083     0.720226
    0.471880     0.411121     0.897645
    0.631016     0.116435     0.576498
EA120  11.303 10.751 11.198 90.00 90.00 90.00 Sym.group:    0
1.0000
   11.302899     0.000000     0.000000
    0.000000    10.750961     0.000000
    0.000000     0.000000    11.197524
   O  Cu
  24   24 
Direct
    0.320473     0.123661     0.573199
    0.522255     0.418433     0.886897
    0.352685     0.238850     0.757160
    0.772993     0.203106     0.433096
    0.498724     0.407547     0.113103
    0.711458     0.297269     0.246973
    0.615385     0.175713     0.736178
    0.479292     0.151271     0.270566
    0.888711     0.480049     0.487866
    0.283654     0.222116     0.316912
    0.136810     0.346746     0.513052
    0.778881     0.313702     0.685379
    0.456849     0.811366     0.294765
    0.844114     0.668683     0.512854
    0.217734     0.577819     0.252733
    0.468835     0.646863     0.156186
    0.726552     0.755228     0.350239
    0.558917     0.872449     0.546001
    0.288241     0.659374     0.663872
    0.184932     0.548844     0.724670
    0.306775     0.621561     0.818513
    0.516722     0.724871     0.796086
    0.570039     0.857110     0.289906
    0.585546     0.779894     0.805989
    0.668101     0.182434     0.293591
    0.869457     0.477941     0.608675
    0.246939     0.217524     0.620153
    0.750987     0.198652     0.627480
    0.425940     0.143415     0.712406
    0.343898     0.127349     0.378811
    0.150859     0.348121     0.391633
    0.817094     0.316505     0.384354
    0.645587     0.289963     0.794270
    0.404330     0.397342     0.872220
    0.616092     0.428775     0.132347
    0.417252     0.243834     0.207821
    0.364151     0.694221     0.206161
    0.725543     0.797068     0.466459
    0.561532     0.764009     0.244792
    0.122981     0.545940     0.400964
    0.455242     0.877966     0.479754
    0.845122     0.626839     0.396630
    0.580828     0.576580     0.804976
    0.575610     0.720048     0.707500
    0.422368     0.600096     0.536344
    0.230431     0.457329     0.232019
    0.720526     0.801847     0.695793
    0.269193     0.722611     0.765686
EA121  17.733  7.588 15.714 90.00 90.00 90.00 Sym.group:    0
1.0000
   17.733100     0.000000     0.000000
    0.000000     7.587972     0.000000
    0.000000     0.000000    15.713589
   O  Cu
  24   24 
Direct
    0.274833     0.474293     0.662436
    0.489373     0.667919     0.606544
    0.280686     0.559373     0.608350
    0.350721     0.450214     0.725522
    0.087482     0.277458     0.617340
    0.093924     0.393248     0.091816
    0.077947     0.458864     0.638008
    0.084390     0.574654     0.112484
    0.492489     0.784976     0.213228
    0.305052     0.768672     0.228448
    0.134227     0.266173     0.356861
    0.323902     0.410032     0.187589
    0.271561     0.574890     0.537082
    0.313918     0.625201     0.414044
    0.353372     0.670206     0.318447
    0.516517     0.469121     0.541484
    0.805102     0.546800     0.581565
    0.514190     0.551175     0.308245
    0.927673     0.568061     0.645386
    0.745990     0.370702     0.640104
    0.741010     0.822153     0.715883
    0.699626     0.474803     0.903198
    0.572863     0.623108     0.645043
    0.649088     0.399340     0.485984
    0.419470     0.611475     0.537106
    0.353507     0.577678     0.625721
    0.393356     0.452344     0.683822
    0.472939     0.687787     0.490521
    0.279552     0.422873     0.519762
    0.321907     0.473185     0.396725
    0.468343     0.649251     0.336924
    0.196957     0.513399     0.251125
    0.211341     0.743597     0.170326
    0.084838     0.603553     0.489894
    0.231763     0.355068     0.126059
    0.105261     0.215024     0.445629
    0.438077     0.516545     0.878303
    0.134320     0.494930     0.453119
    0.825181     0.541760     0.528646
    0.548108     0.468500     0.486313
    0.809691     0.491062     0.670099
    0.619159     0.346839     0.578661
    0.711081     0.769654     0.808561
    0.869901     0.184830     0.786932
    0.602791     0.675607     0.552366
    0.837294     0.851965     0.731923
    0.722267     0.339700     0.870735
    0.569055     0.525098     0.676501
EA122  13.714 14.756  9.446 90.00 90.00 90.00 Sym.group:    0
1.0000
   13.713755     0.000000     0.000000
    0.000000    14.756244     0.000000
    0.000000     0.000000     9.446200
   O  Cu
  24   24 
Direct
    0.251774     0.323869     0.241094
    0.547056     0.112097     0.528453
    0.424864     0.387914     0.883207
    0.439759     0.169824     0.710469
    0.884867     0.453019     0.576959
    0.697023     0.489363     0.146541
    0.113014     0.431557     0.461445
    0.671369     0.293834     0.798344
    0.760554     0.271282     0.307068
    0.567444     0.193153     0.256183
    0.318820     0.171808     0.379449
    0.744853     0.492410     0.820035
    0.233953     0.429573     0.792466
    0.806455     0.555817     0.346217
    0.362468     0.697116     0.623446
    0.446850     0.798511     0.550134
    0.716454     0.829974     0.383309
    0.796247     0.676293     0.320424
    0.242020     0.628020     0.672010
    0.570650     0.586262     0.386989
    0.685616     0.926992     0.363801
    0.917841     0.650582     0.169014
    0.699538     0.607584     0.437107
    0.379346     0.584538     0.645129
    0.870418     0.400313     0.404152
    0.425311     0.117119     0.537662
    0.797575     0.406323     0.749830
    0.561505     0.164802     0.701259
    0.634348     0.158793     0.355581
    0.373661     0.201147     0.270841
    0.127462     0.484262     0.634252
    0.196932     0.294532     0.349703
    0.618647     0.379921     0.868549
    0.355840     0.306849     0.822212
    0.693650     0.305642     0.207669
    0.887041     0.785521     0.218205
    0.091059     0.663191     0.744547
    0.677257     0.710898     0.385169
    0.281352     0.519553     0.660950
    0.525069     0.556444     0.532444
    0.606934     0.808182     0.403388
    0.637058     0.683208     0.450727
    0.222044     0.688529     0.708280
    0.864583     0.672632     0.286362
    0.534508     0.774343     0.384214
    0.398521     0.563523     0.469841
    0.643127     0.575980     0.312087
    0.575136     0.612086     0.116793
EA123  13.587 13.463 12.818 90.00 90.00 90.00 Sym.group:    0
1.0000
   13.586829     0.000000     0.000000
    0.000000    13.462693     0.000000
    0.000000     0.000000    12.817514
   O  Cu
  24   24 
Direct
    0.409230     0.481640     0.747644
    0.755553     0.323676     0.586151
    0.473729     0.306766     0.250050
    0.442764     0.442153     0.103895
    0.156140     0.319276     0.278277
    0.456724     0.248562     0.406092
    0.867441     0.355247     0.413971
    0.653925     0.369452     0.896105
    0.645694     0.096044     0.413671
    0.603152     0.288779     0.671403
    0.268198     0.445429     0.495056
    0.194255     0.750001     0.518407
    0.646997     0.863991     0.311971
    0.506944     0.721549     0.508380
    0.528588     0.673247     0.883019
    0.904348     0.606039     0.588692
    0.329337     0.815621     0.388290
    0.821637     0.607573     0.272705
    0.583256     0.589481     0.313793
    0.699691     0.835807     0.633940
    0.641465     0.590489     0.651825
    0.292928     0.509000     0.458011
    0.800058     0.279704     0.596273
    0.694602     0.131791     0.513950
    0.847993     0.421715     0.512144
    0.571021     0.245759     0.507963
    0.372291     0.339532     0.201423
    0.541888     0.404232     0.150993
    0.718888     0.271908     0.776957
    0.297236     0.495033     0.644756
    0.769646     0.256385     0.490582
    0.098677     0.432050     0.387538
    0.335174     0.350888     0.401579
    0.519546     0.122199     0.306032
    0.536684     0.392773     0.759980
    0.412533     0.561526     0.872583
    0.828904     0.712890     0.684824
    0.591240     0.576896     0.845277
    0.332231     0.828176     0.498637
    0.525173     0.506901     0.141864
    0.676667     0.507670     0.321003
    0.716031     0.751449     0.217109
    0.232711     0.691621     0.416809
    0.577477     0.698449     0.638734
    0.274114     0.527730     0.585194
    0.524047     0.708194     0.379088
    0.627363     0.899886     0.504783
    0.896426     0.545668     0.401368
EA124  10.645  9.440 11.838 90.00 90.00 90.00 Sym.group:    0
1.0000
   10.644611     0.000000     0.000000
    0.000000     9.440287     0.000000
    0.000000     0.000000    11.837867
   O  Cu
  24   24 
Direct
    0.785443     0.380232     0.676068
    0.507814     0.229970     0.705786
    0.407701     0.264624     0.231279
    0.672219     0.173945     0.455961
    0.418368     0.146888     0.453754
    0.861175     0.409602     0.443269
    0.661553     0.291681     0.233486
    0.178606     0.341146     0.541470
    0.268608     0.447492     0.756262
    0.547108     0.431789     0.841151
    0.285853     0.285964     0.593542
    0.742382     0.488097     0.326722
    0.562422     0.831794     0.323799
    0.273786     0.663057     0.771147
    0.125258     0.632519     0.494161
    0.532513     0.799417     0.699241
    0.757769     0.604944     0.250627
    0.362904     0.859481     0.502753
    0.732032     0.771729     0.520287
    0.471005     0.510396     0.891678
    0.528995     0.576758     0.129466
    0.764094     0.551390     0.747722
    0.267463     0.716611     0.274052
    0.206362     0.503604     0.471868
    0.579532     0.310142     0.764340
    0.717142     0.248588     0.325670
    0.356490     0.237812     0.659625
    0.362780     0.189981     0.361568
    0.816253     0.334959     0.573562
    0.510229     0.299523     0.187325
    0.569693     0.139046     0.499914
    0.234178     0.442092     0.252009
    0.183896     0.490554     0.664950
    0.672723     0.462990     0.813949
    0.702325     0.790914     0.403177
    0.413692     0.622177     0.850524
    0.445946     0.855325     0.357971
    0.392610     0.840299     0.619863
    0.648989     0.775888     0.665070
    0.617864     0.645824     0.171250
    0.847135     0.547230     0.602939
    0.184421     0.720771     0.418835
    0.184917     0.593990     0.729362
    0.518407     0.271448     0.486589
    0.204924     0.442416     0.598110
    0.751606     0.780711     0.290417
    0.877304     0.532865     0.409639
    0.258988     0.744035     0.673322
EA125   9.206  9.741 10.190 90.00 90.00 90.00 Sym.group:    0
1.0000
    9.206090     0.000000     0.000000
    0.000000     9.741203     0.000000
    0.000000     0.000000    10.189568
   O  Cu
  24   24 
Direct
    0.858713     0.363546     0.425099
    0.668979     0.353055     0.792104
    0.289173     0.347343     0.268637
    0.449937     0.290513     0.348914
    0.492645     0.338364     0.721740
    0.705104     0.401388     0.325440
    0.346130     0.427850     0.415569
    0.726835     0.481890     0.481130
    0.640438     0.403085     0.627082
    0.634402     0.132757     0.497769
    0.248901     0.223822     0.610626
    0.854366     0.711912     0.561857
    0.254149     0.796965     0.440560
    0.414170     0.781269     0.547030
    0.693771     0.746512     0.462194
    0.322190     0.621379     0.481622
    0.411145     0.534775     0.331561
    0.738194     0.572085     0.518547
    0.629221     0.504936     0.666701
    0.588432     0.785236     0.775085
    0.831958     0.533711     0.244344
    0.214613     0.585898     0.765384
    0.527001     0.810900     0.239166
    0.395259     0.605567     0.370578
    0.465754     0.152615     0.372912
    0.728235     0.435913     0.195931
    0.420097     0.215665     0.733860
    0.638996     0.183586     0.422021
    0.270160     0.291751     0.669914
    0.545732     0.429522     0.171908
    0.629838     0.471213     0.818672
    0.777630     0.276364     0.474744
    0.372005     0.429887     0.214255
    0.177208     0.408811     0.588107
    0.399665     0.368372     0.736583
    0.629093     0.356943     0.285902
    0.546975     0.279148     0.331488
    0.358696     0.479596     0.755971
    0.415641     0.861540     0.664822
    0.640190     0.507744     0.131784
    0.716934     0.828462     0.344927
    0.399023     0.523429     0.868216
    0.599370     0.812905     0.684360
    0.525190     0.833661     0.328266
    0.758941     0.721801     0.658734
    0.346874     0.784948     0.350206
    0.605582     0.799402     0.464480
    0.512571     0.809144     0.549630
EA126  10.716 10.738 10.775 90.00 90.00 90.00 Sym.group:    0
1.0000
   10.715723     0.000000     0.000000
    0.000000    10.738301     0.000000
    0.000000     0.000000    10.775300
   O  Cu
  24   24 
Direct
    0.720937     0.195100     0.317355
    0.534589     0.810022     0.277487
    0.399179     0.226336     0.270915
    0.576830     0.518187     0.149180
    0.242067     0.553964     0.281141
    0.379981     0.767722     0.352023
    0.251202     0.242129     0.486490
    0.750015     0.359179     0.273120
    0.655909     0.560316     0.245122
    0.246953     0.593080     0.405721
    0.446171     0.197992     0.387267
    0.799090     0.664785     0.697229
    0.887053     0.572145     0.525332
    0.540875     0.278041     0.823317
    0.255677     0.631518     0.780752
    0.358755     0.386516     0.851043
    0.826410     0.330528     0.641926
    0.513555     0.612298     0.878620
    0.411754     0.138082     0.623205
    0.560041     0.785879     0.763699
    0.684183     0.845784     0.523693
    0.131777     0.529729     0.639006
    0.685767     0.172780     0.612675
    0.185419     0.733477     0.461320
    0.366729     0.414747     0.136436
    0.563146     0.163789     0.329034
    0.610288     0.685058     0.215879
    0.162098     0.500105     0.436618
    0.453799     0.735945     0.229211
    0.178779     0.334841     0.411945
    0.659180     0.257247     0.233235
    0.703043     0.139013     0.491361
    0.699219     0.804811     0.365504
    0.639287     0.346635     0.195804
    0.373572     0.681814     0.244953
    0.248889     0.286780     0.362682
    0.469046     0.424601     0.886817
    0.510216     0.112162     0.555732
    0.159739     0.647653     0.633856
    0.815224     0.718705     0.588832
    0.697596     0.236785     0.715921
    0.870919     0.518226     0.633729
    0.642369     0.706041     0.804625
    0.585721     0.871703     0.591164
    0.430584     0.239956     0.787543
    0.814581     0.266523     0.538680
    0.227714     0.513595     0.785903
    0.431227     0.692136     0.837694
EA127  12.118 12.101 12.631 90.00 90.00 90.00 Sym.group:    0
1.0000
   12.118100     0.000000     0.000000
    0.000000    12.101451     0.000000
    0.000000     0.000000    12.630532
   O  Cu
  24   24 
Direct
    0.659781     0.253975     0.228952
    0.673663     0.633307     0.300957
    0.826739     0.668029     0.408557
    0.257011     0.327549     0.424818
    0.317418     0.139944     0.478827
    0.338860     0.218310     0.138360
    0.281824     0.471840     0.351208
    0.806561     0.237630     0.350958
    0.597994     0.898561     0.444928
    0.109890     0.617121     0.467246
    0.422459     0.729256     0.428954
    0.832415     0.522942     0.127630
    0.541997     0.386719     0.226180
    0.296888     0.146902     0.564657
    0.401692     0.477449     0.885917
    0.273262     0.829331     0.595291
    0.266924     0.630879     0.799832
    0.808162     0.681164     0.688842
    0.785957     0.215430     0.566904
    0.884808     0.483804     0.615741
    0.718761     0.353416     0.803729
    0.533405     0.233870     0.804780
    0.262308     0.275415     0.739269
    0.618327     0.880815     0.610792
    0.308510     0.601501     0.426836
    0.281874     0.233815     0.357327
    0.726812     0.161244     0.336847
    0.756066     0.725593     0.469905
    0.655936     0.499326     0.231167
    0.742268     0.327765     0.241267
    0.507308     0.237137     0.097269
    0.396525     0.376926     0.277886
    0.104249     0.468300     0.390256
    0.574257     0.731330     0.382076
    0.839270     0.661796     0.222292
    0.831541     0.501217     0.725969
    0.290303     0.450932     0.836958
    0.658860     0.814473     0.708604
    0.378313     0.657396     0.848790
    0.550994     0.344139     0.866155
    0.356108     0.191662     0.726852
    0.861429     0.663751     0.578615
    0.203088     0.230656     0.577073
    0.450559     0.871538     0.673219
    0.202407     0.736472     0.644144
    0.856813     0.308287     0.518052
    0.701173     0.243146     0.742353
    0.598308     0.522551     0.114083
EA128  11.046 11.353 11.617 90.00 90.00 90.00 Sym.group:    0
1.0000
   11.046027     0.000000     0.000000
    0.000000    11.353394     0.000000
    0.000000     0.000000    11.616991
   O  Cu
  24   24 
Direct
    0.723669     0.194234     0.469371
    0.142480     0.356462     0.442338
    0.318872     0.314681     0.378854
    0.541105     0.221060     0.522418
    0.286935     0.480022     0.454696
    0.670201     0.354822     0.515434
    0.655263     0.470399     0.368925
    0.538985     0.262588     0.200609
    0.675142     0.321560     0.798679
    0.300290     0.213225     0.683163
    0.784796     0.661126     0.425415
    0.378523     0.820958     0.295109
    0.228133     0.542004     0.584489
    0.208642     0.854416     0.416417
    0.151855     0.654766     0.103571
    0.508426     0.823385     0.792743
    0.484893     0.718033     0.207763
    0.751440     0.832050     0.551913
    0.604252     0.634111     0.651251
    0.697352     0.873887     0.194367
    0.575861     0.510699     0.896429
    0.202572     0.739235     0.718759
    0.392477     0.776680     0.576581
    0.736906     0.544924     0.286207
    0.325172     0.258361     0.252321
    0.487476     0.410691     0.870109
    0.487700     0.131225     0.619470
    0.506770     0.225928     0.281762
    0.661981     0.414359     0.806988
    0.318511     0.203671     0.594814
    0.794522     0.439022     0.699648
    0.670980     0.234554     0.357357
    0.195931     0.319677     0.548156
    0.445382     0.212987     0.491198
    0.390933     0.251284     0.390658
    0.767088     0.709022     0.578989
    0.633132     0.686211     0.258462
    0.258966     0.799350     0.268464
    0.347979     0.860343     0.754989
    0.327779     0.878993     0.437520
    0.894543     0.518178     0.325217
    0.767056     0.780175     0.393859
    0.242765     0.698402     0.565985
    0.346621     0.615258     0.219900
    0.526625     0.892930     0.157135
    0.159611     0.578538     0.750979
    0.539550     0.764838     0.622030
    0.613912     0.677889     0.872291
EA129  11.573 11.583 11.158 90.00 90.00 90.00 Sym.group:    0
1.0000
   11.572604     0.000000     0.000000
    0.000000    11.583083     0.000000
    0.000000     0.000000    11.158317
   O  Cu
  24   24 
Direct
    0.668342     0.167210     0.327552
    0.489074     0.670689     0.118430
    0.305225     0.719618     0.233505
    0.625520     0.840997     0.312919
    0.206316     0.278651     0.353160
    0.759502     0.620879     0.205630
    0.458963     0.192922     0.263790
    0.723630     0.406431     0.164788
    0.116053     0.615590     0.431094
    0.231266     0.453047     0.217651
    0.861732     0.353023     0.407696
    0.763070     0.835789     0.489477
    0.304546     0.784361     0.693206
    0.301719     0.347421     0.817409
    0.752887     0.329691     0.758775
    0.755714     0.766632     0.634573
    0.775542     0.537791     0.790924
    0.134585     0.494699     0.649150
    0.303891     0.619950     0.834191
    0.887831     0.549815     0.527255
    0.552576     0.156058     0.686126
    0.505399     0.351572     0.881803
    0.144104     0.336812     0.500362
    0.574034     0.806169     0.743312
    0.496894     0.117878     0.360174
    0.814921     0.451597     0.239885
    0.476350     0.767322     0.201330
    0.153723     0.449069     0.318279
    0.317265     0.621694     0.152896
    0.820425     0.237348     0.440804
    0.629324     0.240109     0.229951
    0.189845     0.714209     0.398388
    0.646004     0.883486     0.490794
    0.741049     0.790843     0.311162
    0.667907     0.576133     0.130811
    0.283478     0.282887     0.252164
    0.218951     0.641251     0.745832
    0.689947     0.394680     0.843550
    0.838482     0.472802     0.706149
    0.668521     0.183140     0.662093
    0.605039     0.854552     0.630921
    0.452394     0.259501     0.821061
    0.389486     0.763061     0.781565
    0.353895     0.861374     0.514313
    0.354724     0.439494     0.878150
    0.724709     0.718247     0.746965
    0.166520     0.381326     0.676768
    0.530160     0.111544     0.509720
EA130  10.382 10.517 10.259 90.00 90.00 90.00 Sym.group:    0
1.0000
   10.382124     0.000000     0.000000
    0.000000    10.516780     0.000000
    0.000000     0.000000    10.259040
   O  Cu
  24   24 
Direct
    0.231732     0.247690     0.391171
    0.123075     0.560141     0.466935
    0.211754     0.756926     0.452868
    0.461926     0.204889     0.239326
    0.654616     0.752258     0.329784
    0.446471     0.567185     0.187635
    0.460739     0.730401     0.177617
    0.677059     0.863698     0.446913
    0.583118     0.623558     0.124889
    0.799437     0.756854     0.394184
    0.664126     0.405066     0.163491
    0.829392     0.543358     0.294175
    0.773961     0.297729     0.686714
    0.436143     0.750078     0.757381
    0.593451     0.655138     0.725822
    0.626276     0.394344     0.744568
    0.466468     0.678435     0.597479
    0.337085     0.549375     0.582046
    0.642852     0.351826     0.571266
    0.868314     0.595759     0.669923
    0.375809     0.457973     0.867117
    0.191294     0.315326     0.566836
    0.177699     0.387257     0.593326
    0.640026     0.261275     0.782861
    0.143822     0.368018     0.483420
    0.526173     0.126001     0.413849
    0.184427     0.685783     0.353578
    0.348318     0.251842     0.230575
    0.282418     0.738317     0.327956
    0.447683     0.876608     0.458637
    0.752658     0.469767     0.285931
    0.635759     0.345360     0.248237
    0.821573     0.476358     0.445588
    0.384917     0.790823     0.444376
    0.450795     0.485472     0.366747
    0.612595     0.622140     0.492060
    0.542585     0.595133     0.371687
    0.715972     0.710913     0.755961
    0.556147     0.347693     0.857571
    0.799666     0.560914     0.723497
    0.459994     0.495521     0.855999
    0.820927     0.409331     0.659949
    0.391526     0.638886     0.790571
    0.605203     0.473426     0.787094
    0.642811     0.580983     0.760576
    0.624268     0.151312     0.648658
    0.538160     0.143945     0.689054
    0.203534     0.228400     0.551937
EA131  10.680 10.644 10.541 90.00 90.00 90.00 Sym.group:    0
1.0000
   10.680099     0.000000     0.000000
    0.000000    10.643695     0.000000
    0.000000     0.000000    10.541492
   O  Cu
  24   24 
Direct
    0.412490     0.749374     0.498715
    0.367073     0.699317     0.173114
    0.132239     0.352148     0.377255
    0.273656     0.765670     0.302119
    0.466125     0.131049     0.236139
    0.861633     0.431167     0.271562
    0.651645     0.248738     0.155482
    0.797843     0.768044     0.414045
    0.750958     0.604375     0.159040
    0.558797     0.823691     0.232594
    0.652507     0.706839     0.478361
    0.869849     0.602029     0.528341
    0.611519     0.132384     0.563154
    0.116864     0.503637     0.529938
    0.742893     0.323580     0.741364
    0.270204     0.439507     0.801665
    0.250336     0.213481     0.574926
    0.690889     0.830902     0.569952
    0.762947     0.587120     0.766317
    0.486268     0.744386     0.798613
    0.444777     0.209333     0.749715
    0.243703     0.689240     0.716922
    0.512769     0.494652     0.883355
    0.435036     0.881423     0.546541
    0.372315     0.467627     0.496919
    0.485709     0.520446     0.373125
    0.367238     0.675456     0.286860
    0.244302     0.356177     0.363524
    0.264899     0.162866     0.361865
    0.408216     0.857885     0.343394
    0.134303     0.546117     0.172386
    0.655494     0.157986     0.255322
    0.691526     0.847015     0.401485
    0.834346     0.619027     0.265149
    0.462277     0.221802     0.136299
    0.778245     0.416515     0.165453
    0.867761     0.286714     0.430478
    0.811072     0.646412     0.673217
    0.552743     0.176766     0.708032
    0.801670     0.279197     0.596487
    0.729606     0.429246     0.799642
    0.338383     0.762339     0.733518
    0.418090     0.421553     0.866759
    0.582922     0.863469     0.611634
    0.546110     0.652526     0.850030
    0.296891     0.227288     0.684622
    0.210362     0.531366     0.750248
    0.682060     0.614733     0.857287
EA132  11.397 10.947 11.206 90.00 90.00 90.00 Sym.group:    0
1.0000
   11.396541     0.000000     0.000000
    0.000000    10.947457     0.000000
    0.000000     0.000000    11.206189
   O  Cu
  24   24 
Direct
    0.351436     0.123934     0.498082
    0.773134     0.358211     0.738901
    0.262153     0.291243     0.267498
    0.134440     0.371841     0.485891
    0.720065     0.165776     0.514885
    0.882817     0.456732     0.517238
    0.285052     0.303740     0.763160
    0.750236     0.345713     0.243239
    0.524818     0.408503     0.121497
    0.527106     0.147628     0.693695
    0.544395     0.142082     0.319271
    0.492439     0.420070     0.881633
    0.603116     0.777372     0.780325
    0.169111     0.693903     0.642537
    0.741754     0.711662     0.230092
    0.354875     0.879687     0.557055
    0.573233     0.842810     0.284839
    0.822296     0.740120     0.509126
    0.248692     0.528573     0.174766
    0.388917     0.758589     0.819287
    0.293454     0.841907     0.345844
    0.409407     0.674012     0.139023
    0.637268     0.518032     0.882740
    0.834990     0.629151     0.702661
    0.851099     0.364097     0.594377
    0.429403     0.129820     0.353559
    0.723386     0.444696     0.812770
    0.608093     0.328130     0.164348
    0.184188     0.285356     0.412023
    0.427195     0.321324     0.842051
    0.642098     0.159890     0.659408
    0.293871     0.383878     0.190360
    0.686538     0.159665     0.398164
    0.384963     0.130045     0.614803
    0.201776     0.384114     0.720308
    0.734882     0.784968     0.334748
    0.302250     0.701934     0.196194
    0.577927     0.768535     0.181366
    0.441061     0.834288     0.730857
    0.114534     0.520713     0.624186
    0.552376     0.699870     0.867275
    0.406673     0.882567     0.382910
    0.769827     0.736432     0.683411
    0.223544     0.664220     0.752477
    0.885466     0.631830     0.526494
    0.824768     0.528212     0.262914
    0.242228     0.837431     0.521901
    0.355862     0.501136     0.117260
EA133  11.368 13.760  9.651 90.00 90.00 90.00 Sym.group:    0
1.0000
   11.368282     0.000000     0.000000
    0.000000    13.759771     0.000000
    0.000000     0.000000     9.651047
   O  Cu
  24   24 
Direct
    0.762225     0.139415     0.542638
    0.715934     0.145174     0.208072
    0.844006     0.177671     0.263871
    0.634152     0.106917     0.486840
    0.856292     0.131436     0.406169
    0.303741     0.377517     0.472618
    0.361693     0.404628     0.275069
    0.748752     0.291776     0.201865
    0.366715     0.384440     0.719170
    0.259233     0.478568     0.800654
    0.435761     0.267244     0.670415
    0.293344     0.245811     0.755101
    0.487813     0.380262     0.620709
    0.226064     0.774577     0.531331
    0.702178     0.806315     0.591294
    0.123943     0.519809     0.577803
    0.441491     0.880120     0.432232
    0.541162     0.607732     0.865538
    0.766589     0.604513     0.730408
    0.476749     0.809533     0.726425
    0.388571     0.736736     0.191024
    0.415844     0.576445     0.148403
    0.196575     0.505279     0.347164
    0.317634     0.692041     0.638595
    0.454519     0.310724     0.371412
    0.829357     0.405835     0.534717
    0.814042     0.265907     0.250851
    0.588828     0.186080     0.560086
    0.708080     0.216340     0.612043
    0.694788     0.235648     0.198896
    0.656222     0.422823     0.348279
    0.418179     0.443198     0.426259
    0.417302     0.495572     0.139826
    0.406153     0.129107     0.721243
    0.384454     0.250361     0.742113
    0.584651     0.389343     0.592249
    0.161897     0.685631     0.407865
    0.322010     0.841316     0.539694
    0.470389     0.853925     0.311587
    0.457851     0.726967     0.811039
    0.188110     0.608754     0.701271
    0.785487     0.687080     0.645794
    0.596230     0.848337     0.618963
    0.647108     0.565711     0.837870
    0.760218     0.753706     0.348993
    0.816004     0.594284     0.232376
    0.492134     0.691422     0.150540
    0.542562     0.611233     0.134462
EA134  12.326 12.087 10.489 90.00 90.00 90.00 Sym.group:    0
1.0000
   12.326134     0.000000     0.000000
    0.000000    12.087064     0.000000
    0.000000     0.000000    10.489444
   O  Cu
  24   24 
Direct
    0.581216     0.114054     0.581129
    0.750546     0.352453     0.211777
    0.677799     0.453982     0.881113
    0.113544     0.400910     0.496549
    0.528962     0.199158     0.238337
    0.213323     0.308698     0.320040
    0.265966     0.223208     0.664100
    0.204424     0.470238     0.766207
    0.737605     0.161693     0.432541
    0.875158     0.472132     0.346644
    0.710493     0.265891     0.775036
    0.433126     0.216001     0.807649
    0.362189     0.895464     0.633348
    0.715754     0.735052     0.866654
    0.101119     0.603895     0.394947
    0.389239     0.638942     0.573752
    0.639004     0.589531     0.607429
    0.352476     0.601376     0.439865
    0.462316     0.654536     0.629835
    0.575195     0.648902     0.610793
    0.343208     0.526413     0.380418
    0.375286     0.784019     0.517942
    0.673407     0.609887     0.794427
    0.213456     0.598632     0.503741
    0.174247     0.292502     0.499443
    0.155011     0.417837     0.316333
    0.621111     0.130882     0.402021
    0.612195     0.292230     0.846983
    0.696322     0.146704     0.613033
    0.369760     0.268899     0.206697
    0.425882     0.154211     0.695639
    0.809156     0.310066     0.315709
    0.273239     0.287204     0.774194
    0.775922     0.427834     0.808862
    0.579159     0.277390     0.152545
    0.462286     0.802584     0.584711
    0.202424     0.509385     0.432967
    0.597441     0.680570     0.798433
    0.287311     0.570909     0.509512
    0.626266     0.577379     0.722422
    0.409416     0.711269     0.506478
    0.568687     0.630952     0.725457
    0.278948     0.503264     0.455869
    0.475356     0.725340     0.557084
    0.282376     0.702485     0.511473
    0.749229     0.553182     0.691272
    0.531606     0.755668     0.702747
    0.440944     0.885946     0.433403
EA135   9.820 10.139 11.173 90.00 90.00 90.00 Sym.group:    0
1.0000
    9.819948     0.000000     0.000000
    0.000000    10.139106     0.000000
    0.000000     0.000000    11.173144
   O  Cu
  24   24 
Direct
    0.328888     0.472220     0.169911
    0.248592     0.731799     0.635000
    0.497396     0.720437     0.212165
    0.168395     0.580875     0.366389
    0.158366     0.371237     0.568731
    0.482895     0.148858     0.169601
    0.197248     0.244060     0.339410
    0.485998     0.714046     0.845405
    0.440571     0.800931     0.775142
    0.255823     0.629396     0.832204
    0.364556     0.670339     0.893488
    0.614819     0.741454     0.252526
    0.611116     0.135106     0.516483
    0.839711     0.454585     0.679944
    0.769196     0.600029     0.592795
    0.556931     0.242956     0.379209
    0.710480     0.608311     0.334289
    0.621023     0.318303     0.532719
    0.662010     0.462812     0.651254
    0.529215     0.604422     0.337604
    0.675538     0.864894     0.544033
    0.557446     0.380342     0.132753
    0.867871     0.374622     0.369402
    0.581752     0.661442     0.867247
    0.205517     0.705140     0.423433
    0.498569     0.259849     0.121304
    0.437063     0.834342     0.336143
    0.460273     0.596174     0.155120
    0.228726     0.466972     0.242410
    0.379980     0.855751     0.620209
    0.281735     0.138317     0.315208
    0.232919     0.620810     0.683298
    0.136918     0.357964     0.463389
    0.264797     0.565731     0.748588
    0.407817     0.233214     0.563008
    0.606119     0.215395     0.250041
    0.804144     0.731590     0.636573
    0.812412     0.543709     0.261197
    0.723161     0.797416     0.497763
    0.860847     0.461961     0.406977
    0.616768     0.797449     0.366751
    0.843906     0.401596     0.564403
    0.532421     0.466579     0.853449
    0.775884     0.599142     0.400413
    0.777692     0.645349     0.510846
    0.234249     0.690069     0.530241
    0.369294     0.279359     0.363829
    0.724660     0.510456     0.427290
EA136  10.898 11.121 10.559 90.00 90.00 90.00 Sym.group:    0
1.0000
   10.898018     0.000000     0.000000
    0.000000    11.121317     0.000000
    0.000000     0.000000    10.559096
   O  Cu
  24   24 
Direct
    0.768626     0.344806     0.629374
    0.752534     0.295315     0.413689
    0.644836     0.455096     0.164935
    0.538914     0.478547     0.134086
    0.620752     0.264770     0.771962
    0.474313     0.411016     0.865914
    0.336523     0.165856     0.369921
    0.499152     0.184278     0.221012
    0.275200     0.290327     0.704443
    0.199668     0.382548     0.243686
    0.154747     0.337846     0.523796
    0.668218     0.771171     0.262529
    0.266017     0.580359     0.181008
    0.489768     0.768402     0.799855
    0.873318     0.608900     0.489243
    0.694146     0.726032     0.766373
    0.489046     0.888303     0.539658
    0.260623     0.776130     0.643480
    0.772236     0.591095     0.221041
    0.203299     0.597077     0.746643
    0.846674     0.512326     0.686863
    0.111310     0.509320     0.490454
    0.454445     0.660679     0.126456
    0.415330     0.847169     0.334035
    0.661488     0.208129     0.346292
    0.806265     0.275820     0.517491
    0.716776     0.301543     0.728268
    0.698688     0.488127     0.761944
    0.858034     0.465450     0.494995
    0.699362     0.376968     0.240384
    0.511903     0.128117     0.332635
    0.134449     0.427239     0.346127
    0.649695     0.373276     0.828627
    0.232718     0.236993     0.532976
    0.445372     0.302510     0.809249
    0.323771     0.222017     0.258299
    0.197230     0.391181     0.695262
    0.158365     0.635821     0.635324
    0.560566     0.826633     0.716844
    0.623347     0.667802     0.849384
    0.801798     0.670570     0.312057
    0.368275     0.720668     0.189165
    0.638656     0.691695     0.171513
    0.831302     0.630547     0.666560
    0.531062     0.866656     0.362342
    0.373314     0.868815     0.511351
    0.305557     0.737386     0.754799
    0.352188     0.520370     0.118300
EA137  10.770 10.445 10.607 90.00 90.00 90.00 Sym.group:    0
1.0000
   10.769728     0.000000     0.000000
    0.000000    10.444637     0.000000
    0.000000     0.000000    10.606941
   O  Cu
  24   24 
Direct
    0.663906     0.290226     0.734458
    0.258263     0.334720     0.692887
    0.475135     0.136959     0.389420
    0.528359     0.284622     0.291336
    0.249668     0.492441     0.594603
    0.689819     0.468924     0.686065
    0.380983     0.498149     0.223922
    0.538669     0.381712     0.643154
    0.524782     0.293619     0.473962
    0.374280     0.363995     0.559383
    0.686528     0.456135     0.133249
    0.209196     0.294675     0.317982
    0.592435     0.665965     0.162971
    0.789193     0.702974     0.658351
    0.627873     0.865762     0.475643
    0.284511     0.671445     0.771869
    0.548997     0.526901     0.882469
    0.319536     0.559448     0.163294
    0.785380     0.705317     0.337781
    0.434927     0.826409     0.300834
    0.170776     0.686329     0.417741
    0.561265     0.767391     0.773589
    0.132469     0.519936     0.618720
    0.322818     0.837838     0.570891
    0.623197     0.263655     0.191403
    0.256897     0.450473     0.186347
    0.871066     0.464709     0.402052
    0.598293     0.432032     0.138496
    0.816187     0.341307     0.514598
    0.288755     0.298418     0.271950
    0.337654     0.402451     0.764473
    0.364665     0.194449     0.383390
    0.709358     0.263643     0.619031
    0.396349     0.403130     0.217661
    0.497203     0.342582     0.223359
    0.460967     0.752312     0.208735
    0.657726     0.789323     0.704114
    0.703759     0.649837     0.207255
    0.759340     0.779414     0.429880
    0.516548     0.881889     0.431359
    0.117606     0.557996     0.504961
    0.337681     0.799778     0.684649
    0.223075     0.537516     0.232768
    0.241197     0.782359     0.440365
    0.508093     0.639058     0.860809
    0.830097     0.590817     0.680011
    0.214090     0.575415     0.749245
    0.399780     0.741834     0.775782
EA138  10.587 11.109 10.993 90.00 90.00 90.00 Sym.group:    0
1.0000
   10.586895     0.000000     0.000000
    0.000000    11.109219     0.000000
    0.000000     0.000000    10.993152
   O  Cu
  24   24 
Direct
    0.641808     0.234882     0.287995
    0.642507     0.523384     0.172869
    0.856429     0.447310     0.405409
    0.778339     0.689841     0.371094
    0.175922     0.619902     0.219105
    0.263286     0.350997     0.161857
    0.487019     0.839955     0.338944
    0.361683     0.167088     0.418144
    0.347516     0.676160     0.185266
    0.436763     0.401459     0.126783
    0.277165     0.269130     0.433033
    0.553867     0.742084     0.278837
    0.704994     0.212296     0.697160
    0.249084     0.187754     0.566842
    0.520916     0.115647     0.621733
    0.460664     0.601288     0.885470
    0.797663     0.759639     0.597574
    0.132517     0.669604     0.556055
    0.598861     0.749567     0.799531
    0.372892     0.271459     0.805763
    0.792767     0.542125     0.776866
    0.251529     0.718964     0.732876
    0.882713     0.420162     0.619203
    0.237063     0.445052     0.802061
    0.476544     0.189946     0.286733
    0.581197     0.421829     0.155733
    0.594597     0.672831     0.204412
    0.758459     0.752912     0.469908
    0.733297     0.243353     0.370988
    0.826250     0.540393     0.339552
    0.250955     0.268042     0.301930
    0.133715     0.628905     0.378757
    0.226860     0.717559     0.265678
    0.367781     0.283803     0.173330
    0.138980     0.447720     0.271321
    0.315689     0.765983     0.280270
    0.472336     0.283823     0.177618
    0.635174     0.641540     0.850790
    0.179264     0.616998     0.720472
    0.695426     0.155899     0.587052
    0.345641     0.438990     0.865724
    0.530485     0.172044     0.731840
    0.820017     0.374593     0.716906
    0.424351     0.709315     0.834211
    0.204780     0.771570     0.568460
    0.264314     0.277521     0.742100
    0.348094     0.125296     0.520397
    0.855462     0.587693     0.679164
EA139  11.369 11.524 11.118 90.00 90.00 90.00 Sym.group:    0
1.0000
   11.369149     0.000000     0.000000
    0.000000    11.524482     0.000000
    0.000000     0.000000    11.118205
   O  Cu
  24   24 
Direct
    0.336268     0.234173     0.743364
    0.153606     0.518024     0.305167
    0.275458     0.476410     0.833797
    0.120159     0.514376     0.611137
    0.180969     0.272139     0.520704
    0.417458     0.776815     0.228251
    0.337711     0.263371     0.224532
    0.450598     0.882140     0.545198
    0.426779     0.123331     0.440671
    0.304952     0.752570     0.734286
    0.355644     0.540048     0.123688
    0.215420     0.754791     0.409730
    0.851472     0.339797     0.433887
    0.605756     0.552958     0.119380
    0.685702     0.745933     0.765225
    0.688766     0.233791     0.716165
    0.693033     0.547382     0.843009
    0.856356     0.653611     0.559572
    0.677703     0.844837     0.500298
    0.725897     0.167508     0.443290
    0.548508     0.308978     0.862140
    0.737197     0.403095     0.194607
    0.861977     0.602975     0.348013
    0.775548     0.520639     0.790753
    0.331849     0.368866     0.841407
    0.149188     0.652718     0.403209
    0.319407     0.821451     0.630756
    0.124578     0.379684     0.513094
    0.468903     0.324060     0.138974
    0.421876     0.642122     0.130209
    0.171935     0.547569     0.721188
    0.284492     0.200981     0.633313
    0.346612     0.815479     0.324171
    0.224452     0.479361     0.209247
    0.323256     0.194490     0.328062
    0.408474     0.681411     0.846894
    0.524003     0.878179     0.422020
    0.769333     0.662016     0.734401
    0.607900     0.629416     0.872883
    0.774477     0.224959     0.541708
    0.758978     0.521732     0.199927
    0.801977     0.284770     0.335143
    0.887453     0.527136     0.441809
    0.539742     0.111633     0.473310
    0.828322     0.729281     0.467004
    0.625184     0.854579     0.611439
    0.583758     0.434364     0.114380
    0.580480     0.182796     0.742319
EA140   9.719  9.989 10.370 90.00 90.00 90.00 Sym.group:    0
1.0000
    9.719099     0.000000     0.000000
    0.000000     9.988895     0.000000
    0.000000     0.000000    10.370174
   O  Cu
  24   24 
Direct
    0.614067     0.373994     0.844078
    0.863734     0.373905     0.536157
    0.541935     0.474993     0.872711
    0.838291     0.306980     0.440276
    0.159501     0.360740     0.655951
    0.387899     0.477219     0.127289
    0.375922     0.191052     0.706933
    0.604318     0.307530     0.178272
    0.136266     0.485526     0.387019
    0.580374     0.137315     0.491637
    0.288768     0.387791     0.223821
    0.509854     0.214445     0.275904
    0.198759     0.378116     0.409438
    0.704251     0.774946     0.617231
    0.819678     0.597727     0.654966
    0.461752     0.610084     0.198154
    0.846982     0.633249     0.378869
    0.567313     0.819512     0.388211
    0.864622     0.529693     0.359727
    0.527142     0.820865     0.737273
    0.319760     0.811403     0.636384
    0.274635     0.590914     0.788222
    0.788802     0.593033     0.821753
    0.186248     0.675814     0.341153
    0.469409     0.317358     0.757997
    0.413321     0.395893     0.780263
    0.753936     0.460443     0.385951
    0.762536     0.487914     0.642585
    0.429906     0.139205     0.580898
    0.712698     0.389703     0.248448
    0.139477     0.366920     0.512482
    0.142619     0.471169     0.626460
    0.644353     0.244258     0.261318
    0.566477     0.478394     0.141846
    0.240209     0.213679     0.599036
    0.620747     0.197107     0.335604
    0.325886     0.560698     0.203654
    0.551687     0.576330     0.127298
    0.803728     0.504487     0.755565
    0.619726     0.831388     0.677009
    0.539347     0.835157     0.503922
    0.818843     0.703111     0.472161
    0.660136     0.690289     0.242901
    0.492699     0.872637     0.629839
    0.354205     0.759633     0.743818
    0.136257     0.569815     0.369051
    0.190200     0.536686     0.708684
    0.185368     0.725089     0.509781
EA141  15.038 14.411  9.181 90.00 90.00 90.00 Sym.group:    0
1.0000
   15.037952     0.000000     0.000000
    0.000000    14.411368     0.000000
    0.000000     0.000000     9.181138
   O  Cu
  24   24 
Direct
    0.384270     0.318745     0.812331
    0.287659     0.366034     0.197514
    0.202456     0.488316     0.697501
    0.645326     0.375930     0.868075
    0.465681     0.185850     0.315426
    0.720535     0.272254     0.358062
    0.244288     0.280313     0.502447
    0.235720     0.338718     0.477693
    0.499488     0.205816     0.605920
    0.767795     0.364733     0.619276
    0.745232     0.502422     0.666367
    0.432710     0.812856     0.354850
    0.550090     0.881617     0.366914
    0.167999     0.682700     0.312206
    0.788497     0.813120     0.528375
    0.308807     0.783174     0.276628
    0.583536     0.605065     0.431415
    0.428393     0.568623     0.375644
    0.074714     0.637960     0.273314
    0.811540     0.917678     0.455985
    0.901166     0.540675     0.631112
    0.338553     0.912580     0.157294
    0.672189     0.599078     0.605224
    0.392898     0.696604     0.417423
    0.183918     0.290085     0.697779
    0.535719     0.188456     0.838633
    0.244753     0.197673     0.316355
    0.611994     0.102773     0.458878
    0.400535     0.354054     0.668125
    0.327877     0.436144     0.322592
    0.283750     0.499282     0.577414
    0.599755     0.378408     0.708389
    0.442165     0.289083     0.413322
    0.640379     0.323231     0.449492
    0.725154     0.499710     0.408229
    0.925286     0.694715     0.601361
    0.201846     0.872174     0.157456
    0.456633     0.527299     0.520779
    0.507773     0.609989     0.498771
    0.202413     0.576301     0.336074
    0.656945     0.695718     0.528480
    0.322730     0.623596     0.404996
    0.312235     0.856178     0.267278
    0.847714     0.596296     0.656053
    0.637272     0.806718     0.343459
    0.246495     0.508923     0.327056
    0.435308     0.642382     0.311101
    0.646269     0.562801     0.456714
EA142  16.691 11.860 11.149 90.00 90.00 90.00 Sym.group:    0
1.0000
   16.691038     0.000000     0.000000
    0.000000    11.860491     0.000000
    0.000000     0.000000    11.149309
   O  Cu
  24   24 
Direct
    0.464361     0.321082     0.281451
    0.446599     0.342298     0.370251
    0.321026     0.193112     0.139300
    0.066125     0.527881     0.591929
    0.363054     0.861809     0.779203
    0.339934     0.121118     0.220797
    0.085034     0.455887     0.673427
    0.381962     0.789814     0.860700
    0.251370     0.283394     0.502383
    0.282955     0.573678     0.773772
    0.213989     0.425727     0.341262
    0.245573     0.716010     0.612650
    0.406389     0.376542     0.427971
    0.371466     0.494648     0.561289
    0.348463     0.592205     0.670467
    0.790495     0.799902     0.353564
    0.514054     0.100950     0.472774
    0.599979     0.717971     0.536020
    0.591020     0.624660     0.898934
    0.670361     0.174519     0.566315
    0.671714     0.386892     0.451525
    0.837216     0.491970     0.282153
    0.615355     0.584381     0.328046
    0.819027     0.715473     0.665823
    0.492438     0.532729     0.500805
    0.497816     0.407302     0.393506
    0.390544     0.436874     0.359677
    0.355620     0.554977     0.492995
    0.420991     0.713910     0.686255
    0.367712     0.276259     0.279805
    0.214274     0.503602     0.577759
    0.198736     0.514768     0.769310
    0.279451     0.191974     0.412000
    0.158238     0.668963     0.594761
    0.238955     0.346170     0.237451
    0.280358     0.300738     0.396729
    0.386846     0.320108     0.372581
    0.655547     0.174024     0.457384
    0.880720     0.538887     0.698790
    0.606381     0.512805     0.849567
    0.531335     0.556331     0.151815
    0.663582     0.466173     0.323522
    0.805752     0.676616     0.246052
    0.515671     0.163986     0.578860
    0.650515     0.650019     0.659672
    0.612138     0.711674     0.406810
    0.784489     0.820801     0.547776
    0.874900     0.387473     0.399868
EA143  19.488 16.608 16.668 90.00 90.00 90.00 Sym.group:    0
1.0000
   19.487689     0.000000     0.000000
    0.000000    16.607963     0.000000
    0.000000     0.000000    16.667766
   O  Cu
  24   24 
Direct
    0.523052     0.698337     0.527540
    0.523052     0.535003     0.696464
    0.523052     0.323296     0.593881
    0.523052     0.355787     0.361558
    0.523052     0.587576     0.320557
    0.476948     0.506819     0.699420
    0.476948     0.692450     0.555162
    0.476948     0.612122     0.334672
    0.476948     0.376845     0.342660
    0.476948     0.311765     0.568086
    0.500000     0.427953     0.484753
    0.500000     0.492290     0.427013
    0.500000     0.567282     0.470139
    0.500000     0.549293     0.554532
    0.500000     0.463183     0.563563
    0.507809     0.538347     0.384250
    0.507809     0.622331     0.500571
    0.507809     0.537258     0.616103
    0.507809     0.400695     0.571185
    0.507809     0.401369     0.427892
    0.492191     0.380469     0.525939
    0.492191     0.487821     0.621288
    0.492191     0.612004     0.549022
    0.492191     0.581401     0.409009
    0.492191     0.438305     0.394743
    0.342382     0.368120     0.427093
    0.342382     0.528835     0.352495
    0.342382     0.649701     0.481744
    0.342382     0.563686     0.636222
    0.342382     0.389659     0.602446
    0.657618     0.440973     0.361710
    0.657618     0.349765     0.513203
    0.657618     0.466176     0.646449
    0.657618     0.629331     0.577308
    0.657618     0.613754     0.401330
    0.411956     0.425880     0.467543
    0.411956     0.508075     0.419730
    0.411956     0.579111     0.482848
    0.411956     0.540818     0.569669
    0.411956     0.446116     0.560210
    0.588044     0.475328     0.423165
    0.588044     0.419038     0.499637
    0.588044     0.474635     0.576611
    0.588044     0.565285     0.547711
    0.588044     0.565713     0.452876
    0.257085     0.500000     0.500000
    0.742915     0.500000     0.500000
    0.500000     0.500000     0.500000
EA144  18.181 15.584 15.584 90.00 90.00 90.00 Sym.group:    0
1.0000
   18.180814     0.000000     0.000000
    0.000000    15.584395     0.000000
    0.000000     0.000000    15.584395
   O  Cu
  24   24 
Direct
    0.477807     0.330004     0.629017
    0.477807     0.669996     0.370983
    0.531743     0.646321     0.344649
    0.531743     0.353679     0.655351
    0.477807     0.344649     0.353679
    0.477807     0.655351     0.646321
    0.531743     0.370983     0.330004
    0.531743     0.629017     0.669996
    0.591983     0.494150     0.609997
    0.591983     0.505850     0.390003
    0.417567     0.609997     0.505850
    0.417567     0.390003     0.494150
    0.630768     0.571165     0.580408
    0.630768     0.428835     0.419592
    0.378782     0.572406     0.579292
    0.378782     0.427594     0.420708
    0.630768     0.579292     0.427594
    0.630768     0.420708     0.572406
    0.378782     0.419592     0.571165
    0.378782     0.580408     0.428835
    0.275565     0.500000     0.500000
    0.611192     0.556583     0.374404
    0.611192     0.443417     0.625596
    0.398358     0.369110     0.542941
    0.398358     0.630890     0.457059
    0.611192     0.542941     0.630890
    0.611192     0.457059     0.369110
    0.398358     0.625596     0.556583
    0.398358     0.374404     0.443417
    0.695890     0.582895     0.459942
    0.695890     0.417105     0.540058
    0.313661     0.451375     0.578178
    0.313661     0.548625     0.421822
    0.695890     0.578178     0.548625
    0.695890     0.421822     0.451375
    0.313661     0.540058     0.582895
    0.313661     0.459942     0.417105
    0.429832     0.463639     0.321475
    0.429832     0.536361     0.678525
    0.579719     0.326340     0.444907
    0.579719     0.673660     0.555093
    0.429832     0.444907     0.673660
    0.429832     0.555093     0.326340
    0.579719     0.678525     0.463639
    0.579719     0.321475     0.536361
    0.426952     0.500000     0.500000
    0.582599     0.500000     0.500000
    0.504775     0.500000     0.500000
EA145  22.638 22.638 11.478 90.00 90.00 90.00 Sym.group:    0
1.0000
   22.638021     0.000000     0.000000
    0.000000    22.638021     0.000000
    0.000000     0.000000    11.477883
   O  Cu
  24   24 
Direct
    0.732887     0.626648     0.470287
    0.626648     0.267113     0.470287
    0.267113     0.373352     0.470287
    0.373352     0.732887     0.470287
    0.764466     0.481740     0.470287
    0.518260     0.764466     0.470287
    0.235534     0.518260     0.470287
    0.481740     0.235534     0.470287
    0.329609     0.537612     0.528866
    0.537612     0.670391     0.528866
    0.670391     0.462388     0.528866
    0.462388     0.329609     0.528866
    0.360710     0.394900     0.528866
    0.605100     0.360710     0.528866
    0.639290     0.605100     0.528866
    0.394900     0.639290     0.528866
    0.525317     0.623277     0.553443
    0.623277     0.474683     0.553443
    0.474683     0.376723     0.553443
    0.376723     0.525317     0.553443
    0.574316     0.398436     0.553443
    0.601564     0.574316     0.553443
    0.425684     0.601564     0.553443
    0.398436     0.425684     0.553443
    0.744519     0.386219     0.455223
    0.386219     0.255481     0.455223
    0.255481     0.613781     0.455223
    0.613781     0.744519     0.455223
    0.675002     0.705206     0.455223
    0.294794     0.675002     0.455223
    0.324998     0.294794     0.455223
    0.705206     0.324998     0.455223
    0.384637     0.574078     0.531853
    0.574078     0.615363     0.531853
    0.615363     0.425922     0.531853
    0.425922     0.384637     0.531853
    0.464607     0.778691     0.508009
    0.778691     0.535393     0.508009
    0.535393     0.221309     0.508009
    0.221309     0.464607     0.508009
    0.583778     0.231854     0.508009
    0.768146     0.583778     0.508009
    0.416222     0.768146     0.508009
    0.231854     0.416222     0.508009
    0.392358     0.569120     0.436492
    0.569120     0.607642     0.436492
    0.607642     0.430880     0.436492
    0.430880     0.392358     0.436492
EA146  22.226 20.661 12.414 90.00 90.00 90.00 Sym.group:    0
1.0000
   22.225875     0.000000     0.000000
    0.000000    20.661029     0.000000
    0.000000     0.000000    12.413690
   O  Cu
  24   24 
Direct
    0.599769     0.582933     0.493857
    0.400231     0.417067     0.493857
    0.400231     0.582933     0.506143
    0.599769     0.417067     0.506143
    0.638030     0.500000     0.500000
    0.361970     0.500000     0.500000
    0.584134     0.247879     0.494570
    0.415866     0.752121     0.494570
    0.415866     0.247879     0.505430
    0.584134     0.752121     0.505430
    0.699428     0.543572     0.564466
    0.300572     0.456428     0.564466
    0.300572     0.543572     0.435534
    0.699428     0.456428     0.435534
    0.452212     0.475897     0.493100
    0.547788     0.524103     0.493100
    0.547788     0.475897     0.506900
    0.452212     0.524103     0.506900
    0.478354     0.313149     0.520617
    0.521646     0.686851     0.520617
    0.521646     0.313149     0.479383
    0.478354     0.686851     0.479383
    0.339543     0.503967     0.403587
    0.660457     0.496033     0.403587
    0.660457     0.503967     0.596413
    0.339543     0.496033     0.596413
    0.585420     0.337629     0.458034
    0.414580     0.662371     0.458034
    0.414580     0.337629     0.541966
    0.585420     0.662371     0.541966
    0.368852     0.348733     0.540406
    0.631148     0.651267     0.540406
    0.631148     0.348733     0.459594
    0.368852     0.651267     0.459594
    0.522250     0.757514     0.487266
    0.477750     0.242486     0.487266
    0.477750     0.757514     0.512734
    0.522250     0.242486     0.512734
    0.257896     0.569691     0.522042
    0.742104     0.430309     0.522042
    0.742104     0.569691     0.477958
    0.257896     0.430309     0.477958
    0.678724     0.699273     0.526116
    0.321276     0.300727     0.526116
    0.321276     0.699273     0.473884
    0.678724     0.300727     0.473884
    0.225413     0.500000     0.500000
    0.774587     0.500000     0.500000
EA147  17.288 16.121 16.050 90.00 90.00 90.00 Sym.group:    0
1.0000
   17.287617     0.000000     0.000000
    0.000000    16.121340     0.000000
    0.000000     0.000000    16.050207
   O  Cu
  24   24 
Direct
    0.289803     0.485918     0.592873
    0.289803     0.573034     0.558686
    0.289803     0.587117     0.465813
    0.289803     0.514082     0.407127
    0.289803     0.426966     0.441314
    0.289803     0.412883     0.534187
    0.621011     0.514316     0.620876
    0.621011     0.611378     0.547985
    0.621011     0.597061     0.427109
    0.621011     0.485684     0.379124
    0.621011     0.388622     0.452015
    0.621011     0.402939     0.572891
    0.621011     0.571057     0.598610
    0.621011     0.450507     0.611114
    0.621011     0.379450     0.512505
    0.621011     0.428943     0.401390
    0.621011     0.549493     0.388886
    0.621011     0.620550     0.487495
    0.361145     0.310768     0.511024
    0.361145     0.414889     0.670118
    0.361145     0.604121     0.659094
    0.361145     0.689232     0.488976
    0.361145     0.585111     0.329882
    0.361145     0.395879     0.340906
    0.361145     0.646553     0.379254
    0.361145     0.677384     0.567109
    0.361145     0.530831     0.687855
    0.361145     0.353447     0.620746
    0.361145     0.322616     0.432891
    0.361145     0.469169     0.312145
    0.641159     0.431727     0.526792
    0.641159     0.488964     0.572784
    0.641159     0.557236     0.545992
    0.641159     0.568273     0.473208
    0.641159     0.511036     0.427216
    0.641159     0.442764     0.454008
    0.552363     0.365897     0.587762
    0.552363     0.508617     0.660532
    0.552363     0.642720     0.572770
    0.552363     0.634103     0.412238
    0.552363     0.491383     0.339468
    0.552363     0.357280     0.427230
    0.552363     0.657817     0.473205
    0.552363     0.602011     0.623882
    0.552363     0.444194     0.650677
    0.552363     0.342183     0.526795
    0.552363     0.397989     0.376118
    0.552363     0.555806     0.349323
EA148  12.131  9.167  9.387 90.00 90.00 90.00 Sym.group:    0
1.0000
   12.130964     0.000000     0.000000
    0.000000     9.166743     0.000000
    0.000000     0.000000     9.387036
   O  Cu
  24   24 
Direct
    0.144663     0.350729     0.613160
    0.148291     0.613439     0.395209
    0.148488     0.461736     0.355925
    0.142026     0.501163     0.655775
    0.111714     0.350540     0.463884
    0.108812     0.605471     0.545675
    0.465472     0.750319     0.699013
    0.472150     0.214886     0.293456
    0.468947     0.821178     0.508754
    0.468671     0.143999     0.483704
    0.263895     0.404757     0.710328
    0.271562     0.559157     0.292963
    0.891188     0.536960     0.624873
    0.886949     0.427516     0.386448
    0.776696     0.524853     0.594360
    0.773412     0.440102     0.409727
    0.719313     0.191900     0.508022
    0.717904     0.773294     0.492504
    0.714342     0.681484     0.292485
    0.722854     0.283722     0.708035
    0.771936     0.412537     0.755812
    0.762189     0.552461     0.247776
    0.765338     0.242044     0.384431
    0.768794     0.722940     0.619163
    0.365348     0.697261     0.575343
    0.367616     0.267296     0.422657
    0.233274     0.479322     0.308646
    0.226094     0.484460     0.696710
    0.229303     0.345300     0.654561
    0.234913     0.618567     0.350692
    0.413285     0.438661     0.615156
    0.417589     0.526196     0.380203
    0.495784     0.673709     0.563322
    0.497798     0.291650     0.427645
    0.535764     0.313290     0.140619
    0.532945     0.845590     0.329634
    0.565584     0.396837     0.533275
    0.563836     0.569011     0.457482
    0.695114     0.275505     0.466414
    0.695552     0.689784     0.532633
    0.691871     0.594856     0.325820
    0.698782     0.370446     0.673222
    0.883096     0.411055     0.657949
    0.877129     0.553459     0.352805
    0.879515     0.318470     0.456249
    0.880718     0.646045     0.554505
    0.536241     0.341203     0.859381
    0.531046     0.856001     0.632755
EA149  14.387 12.838 12.838 90.00 90.00 90.00 Sym.group:    0
1.0000
   14.386945     0.000000     0.000000
    0.000000    12.838235     0.000000
    0.000000     0.000000    12.838235
   O  Cu
  24   24 
Direct
    0.623784     0.505695     0.334957
    0.379262     0.520721     0.308823
    0.362751     0.572773     0.897182
    0.908250     0.631332     0.604190
    0.547130     0.324227     0.238597
    0.362751     0.427227     0.102818
    0.419468     0.603472     0.197881
    0.637161     0.665043     0.505695
    0.623784     0.494305     0.665043
    0.637161     0.334957     0.494305
    0.908250     0.368668     0.395810
    0.379262     0.479279     0.691177
    0.547130     0.675773     0.761403
    0.419468     0.396528     0.802119
    0.376137     0.897182     0.427227
    0.376137     0.102818     0.572773
    0.620571     0.604190     0.368668
    0.580436     0.761403     0.324227
    0.620571     0.395810     0.631332
    0.452799     0.197881     0.396528
    0.091750     0.691177     0.520721
    0.580436     0.238597     0.675773
    0.091750     0.308823     0.479279
    0.452799     0.802119     0.603472
    0.353691     0.476102     0.763337
    0.709696     0.476747     0.676999
    0.614725     0.400610     0.199107
    0.180811     0.377183     0.384154
    0.420975     0.671479     0.802413
    0.614725     0.599390     0.800893
    0.548612     0.410609     0.763314
    0.385197     0.236663     0.476102
    0.353691     0.523898     0.236663
    0.385197     0.763337     0.523898
    0.180811     0.622817     0.615846
    0.709696     0.523253     0.323001
    0.420975     0.328521     0.197587
    0.548612     0.589391     0.236686
    0.646220     0.199107     0.599390
    0.646220     0.800893     0.400610
    0.290201     0.384154     0.622817
    0.451292     0.197587     0.671479
    0.290201     0.615846     0.377183
    0.578954     0.763314     0.589391
    0.819125     0.323001     0.476747
    0.451292     0.802413     0.328521
    0.819125     0.676999     0.523253
    0.578954     0.236686     0.410609
EA150   9.384  9.754  9.754 90.00 90.00 90.00 Sym.group:    0
1.0000
    9.383773     0.000000     0.000000
    0.000000     9.754197     0.000000
    0.000000     0.000000     9.754197
   O  Cu
  24   24 
Direct
    0.859332     0.369126     0.494320
    0.846571     0.660479     0.548275
    0.141902     0.486916     0.656518
    0.140668     0.540871     0.365165
    0.254487     0.492306     0.622263
    0.253533     0.534086     0.396643
    0.745163     0.401036     0.496036
    0.735290     0.626656     0.537816
    0.685067     0.685382     0.232355
    0.683765     0.332600     0.772253
    0.314658     0.824692     0.441730
    0.304982     0.194268     0.577787
    0.684135     0.581219     0.817182
    0.684697     0.445162     0.186758
    0.305018     0.244040     0.332945
    0.314622     0.783938     0.685726
    0.263865     0.655967     0.770634
    0.259953     0.369001     0.248096
    0.734768     0.325400     0.278491
    0.729887     0.710528     0.733545
    0.263425     0.739240     0.315741
    0.260393     0.284186     0.700869
    0.730223     0.767201     0.364707
    0.734432     0.244663     0.651674
    0.462610     0.614693     0.526398
    0.461335     0.408909     0.488287
    0.532325     0.530819     0.404026
    0.532202     0.492709     0.609811
    0.660491     0.670999     0.339105
    0.662317     0.347591     0.674000
    0.335099     0.725692     0.417801
    0.330565     0.297196     0.599838
    0.660032     0.605286     0.719987
    0.662777     0.423249     0.291491
    0.330344     0.345160     0.347395
    0.335320     0.680055     0.670803
    0.152108     0.630201     0.660065
    0.148167     0.394982     0.361579
    0.846498     0.414332     0.347232
    0.841699     0.608795     0.673739
    0.151677     0.676268     0.413749
    0.148598     0.349761     0.608212
    0.842039     0.663178     0.392475
    0.846159     0.364692     0.627694
    0.495577     0.770684     0.864674
    0.495247     0.864674     0.251023
    0.498659     0.269257     0.135326
    0.498989     0.135326     0.752450
EA151  10.637 10.407 10.331 90.00 90.00 90.00 Sym.group:    0
1.0000
   10.636826     0.000000     0.000000
    0.000000    10.406836     0.000000
    0.000000     0.000000    10.331461
   O  Cu
  24   24 
Direct
    0.136011     0.332762     0.518496
    0.466189     0.316363     0.853557
    0.784998     0.206229     0.515237
    0.456310     0.243930     0.186315
    0.634545     0.126840     0.374571
    0.256049     0.503852     0.811949
    0.252456     0.241623     0.682940
    0.722655     0.339159     0.195756
    0.791615     0.388953     0.740350
    0.589573     0.184128     0.723224
    0.298405     0.187085     0.331529
    0.180453     0.440042     0.253772
    0.817107     0.562864     0.484713
    0.607307     0.806904     0.447321
    0.293214     0.748681     0.447704
    0.371650     0.873160     0.519761
    0.127811     0.586672     0.553822
    0.875903     0.447668     0.588830
    0.746820     0.805172     0.536892
    0.373156     0.850509     0.346845
    0.746857     0.784331     0.363718
    0.349764     0.674576     0.185216
    0.765884     0.509351     0.224382
    0.605116     0.713127     0.185732
    0.189836     0.352655     0.691892
    0.683570     0.138889     0.550062
    0.735610     0.194744     0.339816
    0.848811     0.362483     0.630088
    0.283492     0.266403     0.231793
    0.632857     0.278922     0.797911
    0.206010     0.226768     0.506860
    0.124097     0.465969     0.364622
    0.423098     0.220110     0.780664
    0.618506     0.348435     0.127765
    0.465180     0.151230     0.275044
    0.363911     0.490889     0.872235
    0.347826     0.749938     0.723469
    0.757053     0.568082     0.755614
    0.604498     0.775324     0.724941
    0.516518     0.652610     0.201231
    0.359937     0.568868     0.208818
    0.669170     0.560173     0.216601
    0.513229     0.717223     0.721028
    0.352888     0.641679     0.728615
    0.660910     0.617144     0.737202
    0.369258     0.565292     0.475058
    0.619310     0.594743     0.474989
    0.485001     0.651360     0.465059
EA152  14.100 12.436 12.626 90.00 90.00 90.00 Sym.group:    0
1.0000
   14.100423     0.000000     0.000000
    0.000000    12.435868     0.000000
    0.000000     0.000000    12.626112
   O  Cu
  24   24 
Direct
    0.369986     0.343417     0.499466
    0.500835     0.316226     0.296421
    0.906386     0.226604     0.526546
    0.476587     0.253795     0.895455
    0.698877     0.301594     0.663353
    0.898032     0.774723     0.704262
    0.362261     0.839789     0.495160
    0.281474     0.403666     0.104545
    0.453439     0.642602     0.368026
    0.093614     0.577904     0.603752
    0.683055     0.703963     0.192133
    0.381974     0.713363     0.688638
    0.762812     0.739818     0.471928
    0.390133     0.106145     0.377429
    0.654356     0.424658     0.682260
    0.701724     0.581119     0.389353
    0.583125     0.685752     0.715584
    0.835735     0.433861     0.178038
    0.683257     0.265306     0.340541
    0.410005     0.601762     0.173621
    0.562321     0.893855     0.268265
    0.601987     0.557260     0.852737
    0.427227     0.142433     0.685336
    0.318424     0.394464     0.594460
    0.888174     0.726300     0.511176
    0.486428     0.691493     0.851312
    0.351774     0.691026     0.484096
    0.510676     0.725833     0.252278
    0.387375     0.883580     0.331425
    0.414065     0.290775     0.358798
    0.718812     0.270582     0.503877
    0.668930     0.575234     0.748304
    0.858657     0.279246     0.695034
    0.741243     0.432262     0.359747
    0.368594     0.261088     0.710553
    0.669674     0.308933     0.214047
    0.318261     0.137157     0.527109
    0.696118     0.696027     0.617349
    0.296048     0.583788     0.170590
    0.133134     0.396063     0.574146
    0.548860     0.133894     0.290124
    0.328126     0.552323     0.601902
    0.454213     0.813461     0.652064
    0.632562     0.393449     0.881181
    0.569663     0.273845     0.737443
    0.440579     0.434875     0.202064
    0.710243     0.766146     0.307270
    0.845437     0.606699     0.185480
EA153  10.398 11.085 10.907 90.00 90.00 90.00 Sym.group:    0
1.0000
   10.397528     0.000000     0.000000
    0.000000    11.085447     0.000000
    0.000000     0.000000    10.906736
   O  Cu
  24   24 
Direct
    0.680763     0.508811     0.137044
    0.139155     0.544939     0.312158
    0.316297     0.664871     0.815968
    0.869646     0.622608     0.651243
    0.590462     0.258544     0.211216
    0.321599     0.349173     0.173986
    0.412184     0.593497     0.121026
    0.682729     0.865616     0.504390
    0.679497     0.501647     0.854708
    0.677531     0.159522     0.497109
    0.861272     0.385040     0.353573
    0.128084     0.459646     0.685514
    0.585244     0.742915     0.813656
    0.410267     0.417659     0.878231
    0.318590     0.827033     0.342365
    0.319307     0.195401     0.663236
    0.873047     0.650594     0.382287
    0.587860     0.797447     0.252032
    0.857871     0.357722     0.623747
    0.408799     0.119075     0.409491
    0.126953     0.686531     0.542569
    0.587846     0.204718     0.744339
    0.140285     0.319194     0.455877
    0.413651     0.864073     0.588210
    0.318103     0.501947     0.859154
    0.861350     0.461095     0.689165
    0.682042     0.345351     0.184317
    0.135164     0.383599     0.350636
    0.409047     0.748391     0.798328
    0.678218     0.661048     0.826299
    0.586919     0.416520     0.878974
    0.317226     0.146194     0.496120
    0.319794     0.509111     0.141490
    0.320670     0.852288     0.503401
    0.132074     0.621166     0.648306
    0.869568     0.546388     0.315809
    0.413404     0.264020     0.195888
    0.588787     0.592357     0.121769
    0.679972     0.187334     0.659327
    0.680288     0.818966     0.338457
    0.129812     0.356068     0.620033
    0.411076     0.209389     0.747290
    0.137427     0.648940     0.378572
    0.589826     0.880925     0.589592
    0.865410     0.319898     0.459251
    0.411375     0.802117     0.254983
    0.865508     0.687235     0.545943
    0.585880     0.135927     0.410874
EA154  10.939 10.591  9.596 90.00 90.00 90.00 Sym.group:    0
1.0000
   10.939337     0.000000     0.000000
    0.000000    10.591208     0.000000
    0.000000     0.000000     9.595711
   O  Cu
  24   24 
Direct
    0.520052     0.855358     0.381594
    0.145531     0.615152     0.642224
    0.664557     0.618276     0.222093
    0.299698     0.299248     0.285369
    0.323376     0.828664     0.703571
    0.151144     0.365752     0.575450
    0.364119     0.645510     0.183907
    0.481632     0.412380     0.156052
    0.279927     0.812902     0.424657
    0.180145     0.531835     0.317672
    0.291072     0.339077     0.826068
    0.879335     0.452134     0.610279
    0.826147     0.733436     0.597779
    0.653228     0.253151     0.733739
    0.681402     0.244129     0.332766
    0.543618     0.840870     0.708841
    0.830647     0.434395     0.427189
    0.451991     0.371149     0.862439
    0.777725     0.719745     0.414709
    0.407369     0.664572     0.849795
    0.593012     0.727745     0.751994
    0.660744     0.379157     0.765431
    0.674032     0.365020     0.280015
    0.236154     0.647766     0.508996
    0.223280     0.631666     0.799763
    0.593167     0.875368     0.536844
    0.120665     0.523856     0.566050
    0.202974     0.292005     0.659824
    0.688301     0.710781     0.299601
    0.227109     0.630587     0.272469
    0.250339     0.808393     0.548321
    0.696701     0.460498     0.231622
    0.431192     0.312698     0.208838
    0.430103     0.855306     0.741836
    0.412363     0.833891     0.343557
    0.220321     0.375758     0.323861
    0.447093     0.569963     0.137561
    0.403919     0.151278     0.454775
    0.586395     0.124632     0.531619
    0.707456     0.766178     0.708634
    0.781432     0.382039     0.723780
    0.839206     0.351191     0.557797
    0.380950     0.266332     0.797456
    0.752838     0.807633     0.538540
    0.821195     0.590247     0.724694
    0.476111     0.259514     0.787422
    0.793511     0.312809     0.472756
    0.698144     0.820314     0.451886
EA155  14.015 10.095  9.260 90.00 90.00 90.00 Sym.group:    0
1.0000
   14.015479     0.000000     0.000000
    0.000000    10.095238     0.000000
    0.000000     0.000000     9.260059
   O  Cu
  24   24 
Direct
    0.360682     0.425064     0.857249
    0.809687     0.429818     0.643377
    0.641889     0.130755     0.626120
    0.668766     0.626312     0.792125
    0.224245     0.566315     0.633992
    0.572492     0.352434     0.855030
    0.457139     0.700989     0.784219
    0.397242     0.837373     0.467806
    0.831581     0.682010     0.486767
    0.207187     0.284161     0.608841
    0.615353     0.869245     0.547387
    0.420057     0.131231     0.730454
    0.136065     0.395991     0.338672
    0.905818     0.371993     0.337696
    0.139204     0.379503     0.481834
    0.129332     0.627080     0.391086
    0.903111     0.495718     0.367260
    0.094182     0.520161     0.321845
    0.450701     0.584043     0.182471
    0.590421     0.191847     0.499497
    0.453654     0.419500     0.142548
    0.584858     0.211306     0.309516
    0.779413     0.455676     0.270936
    0.263078     0.311771     0.402394
    0.377225     0.599442     0.818047
    0.823163     0.605262     0.600965
    0.428067     0.338241     0.857452
    0.652058     0.450098     0.840402
    0.601687     0.716550     0.775054
    0.210425     0.390580     0.678047
    0.692975     0.857590     0.450684
    0.230925     0.644129     0.519219
    0.470779     0.855758     0.554896
    0.564745     0.142025     0.721894
    0.806134     0.322980     0.573362
    0.351848     0.505084     0.240848
    0.689148     0.263820     0.430052
    0.226491     0.337773     0.473846
    0.214717     0.652546     0.409805
    0.816098     0.505418     0.321521
    0.223431     0.352612     0.340598
    0.818611     0.390205     0.293971
    0.409028     0.376243     0.429039
    0.633229     0.462865     0.353116
    0.483510     0.487281     0.273697
    0.557805     0.299412     0.425387
    0.518379     0.266488     0.148520
    0.510323     0.715294     0.257410
EA156  10.320 10.935 11.171 90.00 90.00 90.00 Sym.group:    0
1.0000
   10.319624     0.000000     0.000000
    0.000000    10.934817     0.000000
    0.000000     0.000000    11.171232
   O  Cu
  24   24 
Direct
    0.685146     0.501829     0.158485
    0.127912     0.546445     0.317150
    0.314854     0.662349     0.804689
    0.872088     0.623041     0.647220
    0.585526     0.258923     0.194459
    0.314854     0.337651     0.195311
    0.414474     0.590259     0.118161
    0.685146     0.866922     0.505319
    0.685146     0.498171     0.841515
    0.685146     0.133078     0.494681
    0.872088     0.376959     0.352780
    0.127912     0.453555     0.682850
    0.585526     0.741077     0.805541
    0.414474     0.409741     0.881839
    0.314854     0.829057     0.345640
    0.314854     0.170943     0.654360
    0.872088     0.646503     0.384694
    0.585526     0.788746     0.255324
    0.872088     0.353497     0.615306
    0.414474     0.134834     0.413862
    0.127912     0.685594     0.539177
    0.585526     0.211254     0.744676
    0.127912     0.314406     0.460823
    0.414474     0.865166     0.586138
    0.319832     0.495434     0.853953
    0.870972     0.459880     0.681479
    0.680168     0.340755     0.182957
    0.129028     0.382031     0.356724
    0.408079     0.746097     0.792561
    0.680168     0.659245     0.817043
    0.591921     0.411036     0.868019
    0.319832     0.145784     0.497360
    0.319832     0.504566     0.146047
    0.319832     0.854216     0.502640
    0.129028     0.617969     0.643276
    0.870972     0.540120     0.318521
    0.408079     0.253903     0.207439
    0.591921     0.588964     0.131981
    0.680168     0.183564     0.657399
    0.680168     0.816436     0.342601
    0.129028     0.349468     0.620270
    0.408079     0.197993     0.739762
    0.129028     0.650532     0.379730
    0.591921     0.879285     0.587406
    0.870972     0.313005     0.454632
    0.408079     0.802007     0.260238
    0.870972     0.686995     0.545368
    0.591921     0.120715     0.412594
EA157  10.439  9.488  9.256 90.00 90.00 90.00 Sym.group:    0
1.0000
   10.439461     0.000000     0.000000
    0.000000     9.488201     0.000000
    0.000000     0.000000     9.255596
   O  Cu
  24   24 
Direct
    0.372805     0.560270     0.831527
    0.370810     0.774218     0.205317
    0.353304     0.139120     0.328258
    0.627195     0.560270     0.831527
    0.629190     0.774218     0.205317
    0.646696     0.139120     0.328258
    0.216285     0.365585     0.621173
    0.231972     0.705267     0.485969
    0.226085     0.420895     0.251750
    0.783715     0.365585     0.621173
    0.768028     0.705267     0.485969
    0.773915     0.420895     0.251750
    0.373092     0.604754     0.142616
    0.339589     0.164474     0.502258
    0.374234     0.688493     0.713227
    0.626908     0.604754     0.142616
    0.660411     0.164474     0.502258
    0.625766     0.688493     0.713227
    0.651045     0.739051     0.490891
    0.662020     0.390315     0.211480
    0.678185     0.324376     0.657009
    0.348955     0.739051     0.490891
    0.337980     0.390315     0.211480
    0.321815     0.324376     0.657009
    0.873557     0.503153     0.454836
    0.126443     0.503153     0.454836
    0.684368     0.424155     0.764106
    0.673599     0.788965     0.359580
    0.682219     0.265188     0.237593
    0.315632     0.424155     0.764106
    0.326401     0.788965     0.359580
    0.317781     0.265188     0.237593
    0.289941     0.695659     0.225331
    0.271334     0.200055     0.390564
    0.289666     0.587109     0.748623
    0.710059     0.695659     0.225331
    0.728666     0.200055     0.390564
    0.710334     0.587109     0.748623
    0.500000     0.182179     0.197294
    0.500000     0.437539     0.857384
    0.500000     0.860880     0.299026
    0.265545     0.637303     0.664087
    0.265624     0.600942     0.223373
    0.248042     0.247844     0.475983
    0.734455     0.637303     0.664087
    0.734376     0.600942     0.223373
    0.751958     0.247844     0.475983
    0.500000     0.488357     0.452403
EA158  12.111 11.056 10.898 90.00 90.00 90.00 Sym.group:    0
1.0000
   12.110546     0.000000     0.000000
    0.000000    11.056027     0.000000
    0.000000     0.000000    10.898424
   O  Cu
  24   24 
Direct
    0.145823     0.594807     0.447720
    0.394248     0.789182     0.291859
    0.262206     0.204516     0.194476
    0.108996     0.488536     0.405403
    0.246362     0.290814     0.211026
    0.444060     0.827236     0.322780
    0.529409     0.214425     0.266353
    0.436473     0.567096     0.121118
    0.177949     0.688076     0.637827
    0.162627     0.259427     0.559979
    0.362833     0.495478     0.137311
    0.117544     0.323266     0.549747
    0.262450     0.342563     0.716902
    0.891004     0.249248     0.554839
    0.210863     0.568470     0.703651
    0.778382     0.880608     0.499803
    0.489028     0.244419     0.685723
    0.563644     0.251297     0.370182
    0.389754     0.770838     0.594144
    0.563594     0.482359     0.878882
    0.528672     0.489193     0.798984
    0.389965     0.652022     0.681458
    0.527301     0.371484     0.320993
    0.491630     0.336493     0.656737
    0.203204     0.543928     0.568011
    0.405078     0.276708     0.261876
    0.190234     0.460110     0.547169
    0.555551     0.715002     0.299569
    0.379136     0.355922     0.226637
    0.247609     0.458398     0.260104
    0.193893     0.349751     0.404589
    0.344348     0.622420     0.267066
    0.406832     0.151762     0.375860
    0.255609     0.691680     0.478114
    0.256918     0.188206     0.452786
    0.473146     0.119392     0.504408
    0.300290     0.664233     0.689319
    0.653711     0.748598     0.359828
    0.383310     0.318864     0.736006
    0.648026     0.377448     0.452435
    0.698395     0.250197     0.603565
    0.286912     0.259946     0.651524
    0.608482     0.816202     0.504901
    0.630670     0.555794     0.241278
    0.315597     0.482022     0.780005
    0.288326     0.219668     0.568105
    0.621711     0.284535     0.628365
    0.534970     0.753821     0.534448
EA159  10.834 12.423 11.785 90.00 90.00 90.00 Sym.group:    0
1.0000
   10.834323     0.000000     0.000000
    0.000000    12.423058     0.000000
    0.000000     0.000000    11.785365
   O  Cu
  24   24 
Direct
    0.729167     0.649685     0.401098
    0.757960     0.407381     0.660938
    0.776803     0.433873     0.244510
    0.374077     0.520029     0.276978
    0.557183     0.728192     0.573294
    0.490471     0.612245     0.411858
    0.400326     0.709089     0.537602
    0.667216     0.781385     0.459774
    0.316030     0.387776     0.268653
    0.819494     0.567835     0.274144
    0.216007     0.233426     0.426109
    0.586860     0.126814     0.666978
    0.406583     0.675171     0.670142
    0.327003     0.198408     0.723826
    0.243431     0.404881     0.601173
    0.643433     0.637549     0.887997
    0.392910     0.134862     0.482014
    0.806955     0.532346     0.665739
    0.777336     0.344702     0.689539
    0.728779     0.162073     0.521107
    0.427127     0.326640     0.839875
    0.405052     0.582676     0.747838
    0.847468     0.364656     0.440323
    0.721211     0.431228     0.573710
    0.486465     0.342905     0.547757
    0.624093     0.236319     0.386883
    0.724520     0.492685     0.300369
    0.407838     0.446477     0.329658
    0.565124     0.694470     0.470812
    0.468870     0.590924     0.524270
    0.241624     0.646050     0.485853
    0.753082     0.691834     0.546314
    0.228850     0.430390     0.389886
    0.878165     0.518204     0.409390
    0.352442     0.893746     0.564564
    0.545300     0.434991     0.112003
    0.121835     0.711516     0.617117
    0.488810     0.507791     0.804450
    0.152400     0.552406     0.857108
    0.296229     0.158019     0.550541
    0.872290     0.388233     0.619136
    0.755419     0.165274     0.636354
    0.293066     0.182268     0.349267
    0.271941     0.291925     0.861635
    0.568609     0.106254     0.556600
    0.438997     0.185579     0.768727
    0.553205     0.693922     0.767347
    0.713654     0.488583     0.736879
EA160  15.405 13.208 14.812 90.00 90.00 90.00 Sym.group:    0
1.0000
   15.404578     0.000000     0.000000
    0.000000    13.207933     0.000000
    0.000000     0.000000    14.812109
   O  Cu
  24   24 
Direct
    0.617473     0.548970     0.382440
    0.438333     0.503807     0.292859
    0.386521     0.785265     0.529020
    0.580048     0.604542     0.533785
    0.549685     0.375490     0.259699
    0.387572     0.498591     0.089116
    0.417706     0.668280     0.206660
    0.622599     0.692566     0.482630
    0.644299     0.542957     0.910884
    0.639172     0.099940     0.477268
    0.914311     0.408519     0.318715
    0.085689     0.432220     0.567775
    0.587519     0.782023     0.703299
    0.481064     0.520699     0.764220
    0.402863     0.900060     0.387520
    0.371340     0.369930     0.623790
    0.653134     0.630093     0.310861
    0.594285     0.792631     0.325434
    0.858819     0.384285     0.488658
    0.445611     0.237080     0.416422
    0.159844     0.639588     0.481207
    0.542920     0.295153     0.687939
    0.364179     0.331281     0.417373
    0.453159     0.862359     0.548020
    0.419187     0.582107     0.783295
    0.845394     0.479879     0.546056
    0.609478     0.471956     0.155114
    0.228164     0.371383     0.346926
    0.466776     0.798077     0.669438
    0.652293     0.736922     0.627830
    0.597432     0.483863     0.820692
    0.380699     0.157545     0.462618
    0.355016     0.588119     0.254852
    0.393504     0.750171     0.467980
    0.295858     0.570774     0.566112
    0.666558     0.551467     0.271140
    0.431994     0.391544     0.225837
    0.539772     0.631443     0.263132
    0.606148     0.265194     0.620113
    0.655624     0.795324     0.383844
    0.178392     0.355690     0.538763
    0.426112     0.357624     0.674291
    0.345630     0.601498     0.360966
    0.572238     0.851046     0.564434
    0.767847     0.371938     0.378382
    0.472658     0.855102     0.311786
    0.744105     0.680245     0.442216
    0.564967     0.225768     0.432836
EA161  10.254 10.005  9.658 90.00 90.00 90.00 Sym.group:    0
1.0000
   10.254366     0.000000     0.000000
    0.000000    10.005390     0.000000
    0.000000     0.000000     9.657674
   O  Cu
  24   24 
Direct
    0.156355     0.661856     0.470051
    0.479021     0.842203     0.330243
    0.424324     0.223829     0.253499
    0.128726     0.545002     0.442000
    0.358465     0.315798     0.204976
    0.571622     0.868071     0.406216
    0.662048     0.226892     0.299825
    0.458159     0.650310     0.161026
    0.245763     0.750087     0.694135
    0.211111     0.258993     0.639786
    0.433269     0.546879     0.136679
    0.155329     0.343122     0.595482
    0.323768     0.356864     0.815998
    0.871274     0.437965     0.610202
    0.275113     0.610586     0.779733
    0.822841     0.700446     0.584743
    0.598493     0.248057     0.751217
    0.724229     0.248590     0.425002
    0.495707     0.797946     0.699061
    0.763159     0.424687     0.735193
    0.713057     0.691471     0.709840
    0.511140     0.687574     0.759162
    0.744523     0.364662     0.397426
    0.571289     0.363381     0.791339
    0.238709     0.594227     0.620445
    0.547479     0.346109     0.269274
    0.217116     0.503415     0.598689
    0.629549     0.707498     0.353679
    0.496458     0.417447     0.232225
    0.326082     0.489862     0.254587
    0.216323     0.384669     0.441251
    0.372663     0.696093     0.304999
    0.527467     0.206262     0.402493
    0.302050     0.753524     0.526191
    0.333007     0.224970     0.523377
    0.592991     0.131929     0.561404
    0.398477     0.689076     0.790294
    0.762305     0.724986     0.445535
    0.465194     0.328014     0.826671
    0.829249     0.371063     0.480032
    0.816722     0.345196     0.638630
    0.356013     0.265772     0.740342
    0.737573     0.769929     0.597054
    0.868903     0.563936     0.488917
    0.382277     0.503518     0.863321
    0.361734     0.231712     0.649895
    0.746863     0.310789     0.687915
    0.658891     0.784031     0.641313
EA162  20.249 20.249 20.249 90.00 90.00 90.00 Sym.group:    0
1.0000
   20.249305     0.000000     0.000000
    0.000000    20.249305     0.000000
    0.000000     0.000000    20.249305
   O  Cu
  24   24 
Direct
    0.407271     0.498039     0.306725
    0.687891     0.476653     0.399451
    0.592729     0.413586     0.672893
    0.312109     0.434972     0.580166
    0.454653     0.632584     0.337756
    0.592729     0.586414     0.327107
    0.545347     0.451869     0.296076
    0.407271     0.306725     0.501961
    0.407271     0.501961     0.693275
    0.407271     0.693275     0.498039
    0.312109     0.565028     0.419834
    0.687891     0.523347     0.600549
    0.454653     0.367416     0.662244
    0.545347     0.548131     0.703924
    0.592729     0.327107     0.413586
    0.592729     0.672893     0.586414
    0.312109     0.419834     0.434972
    0.454653     0.337756     0.367416
    0.312109     0.580166     0.565028
    0.545347     0.703924     0.451869
    0.687891     0.399451     0.523347
    0.454653     0.662244     0.632584
    0.687891     0.600549     0.476653
    0.545347     0.296076     0.548131
    0.592729     0.501961     0.693275
    0.312109     0.523347     0.600549
    0.407271     0.586414     0.327107
    0.687891     0.565028     0.419834
    0.545347     0.367416     0.662244
    0.407271     0.413586     0.672893
    0.454653     0.548131     0.703924
    0.592729     0.693275     0.498039
    0.592729     0.498039     0.306725
    0.592729     0.306725     0.501961
    0.687891     0.434972     0.580166
    0.312109     0.476653     0.399451
    0.545347     0.632584     0.337756
    0.454653     0.451869     0.296076
    0.407271     0.672893     0.586414
    0.407271     0.327107     0.413586
    0.687891     0.580166     0.565028
    0.545347     0.662244     0.632584
    0.687891     0.419834     0.434972
    0.454653     0.296076     0.548131
    0.312109     0.600549     0.476653
    0.545347     0.337756     0.367416
    0.312109     0.399451     0.523347
    0.454653     0.703924     0.451869
EA163  20.031 20.031 19.927 90.00 90.00 90.00 Sym.group:    0
1.0000
   20.031347     0.000000     0.000000
    0.000000    20.031347     0.000000
    0.000000     0.000000    19.926600
   O  Cu
  24   24 
Direct
    0.311209     0.368494     0.491421
    0.508534     0.368494     0.310217
    0.688791     0.368494     0.508579
    0.491466     0.368494     0.689783
    0.608665     0.318120     0.590585
    0.656478     0.631506     0.606525
    0.359022     0.681880     0.507360
    0.368761     0.448674     0.316971
    0.343522     0.631506     0.393475
    0.285970     0.551326     0.567925
    0.605968     0.631506     0.342699
    0.394032     0.631506     0.657301
    0.640978     0.681880     0.492640
    0.391335     0.318120     0.409415
    0.631239     0.448674     0.683029
    0.714030     0.551326     0.432075
    0.507322     0.681880     0.641718
    0.682072     0.448674     0.368071
    0.590112     0.318120     0.390764
    0.432430     0.551326     0.284845
    0.492678     0.681880     0.358282
    0.567570     0.551326     0.715155
    0.409888     0.318120     0.609236
    0.317928     0.448674     0.631929
    0.688791     0.631506     0.508579
    0.491466     0.631506     0.689783
    0.311209     0.631506     0.491421
    0.508534     0.631506     0.310217
    0.391335     0.681880     0.409415
    0.343522     0.368494     0.393475
    0.640978     0.318120     0.492640
    0.631239     0.551326     0.683029
    0.656478     0.368494     0.606525
    0.714030     0.448674     0.432075
    0.394032     0.368494     0.657301
    0.605968     0.368494     0.342699
    0.359022     0.318120     0.507360
    0.608665     0.681880     0.590585
    0.368761     0.551326     0.316971
    0.285970     0.448674     0.567925
    0.492678     0.318120     0.358282
    0.317928     0.551326     0.631929
    0.409888     0.681880     0.609236
    0.567570     0.448674     0.715155
    0.507322     0.318120     0.641718
    0.432430     0.448674     0.284845
    0.590112     0.681880     0.390764
    0.682072     0.551326     0.368071
EA164  19.942 20.596 20.255 90.00 90.00 90.00 Sym.group:    0
1.0000
   19.942176     0.000000     0.000000
    0.000000    20.595869     0.000000
    0.000000     0.000000    20.254994
   O  Cu
  24   24 
Direct
    0.540452     0.526819     0.346768
    0.562654     0.426403     0.374696
    0.367477     0.378283     0.543968
    0.321598     0.452129     0.477610
    0.334572     0.555263     0.504402
    0.417738     0.428556     0.363741
    0.496038     0.334383     0.479057
    0.423820     0.589559     0.383590
    0.410625     0.387256     0.397846
    0.390038     0.546198     0.376211
    0.500456     0.333889     0.533682
    0.605721     0.604496     0.381833
    0.518552     0.672917     0.592690
    0.558988     0.673722     0.456568
    0.690078     0.446269     0.545876
    0.370586     0.476667     0.670529
    0.507326     0.457718     0.703170
    0.652529     0.360147     0.495837
    0.645766     0.614948     0.548063
    0.650034     0.435817     0.379646
    0.602737     0.417506     0.655713
    0.637523     0.548738     0.632344
    0.413615     0.674110     0.562879
    0.388355     0.581896     0.663516
    0.342423     0.586063     0.566721
    0.296626     0.512269     0.490933
    0.312241     0.405050     0.508208
    0.373655     0.371624     0.601271
    0.618132     0.400497     0.410890
    0.565986     0.466723     0.334320
    0.571805     0.575598     0.350389
    0.484012     0.604787     0.382018
    0.464610     0.462198     0.342705
    0.527349     0.357922     0.433238
    0.467389     0.349103     0.579286
    0.382361     0.374495     0.449087
    0.350210     0.513099     0.408205
    0.403089     0.626311     0.497523
    0.680373     0.406515     0.467149
    0.593203     0.474934     0.678007
    0.549283     0.633967     0.377840
    0.674901     0.537677     0.581361
    0.615427     0.644251     0.460560
    0.432676     0.655700     0.617854
    0.662234     0.399902     0.574565
    0.516860     0.400290     0.680876
    0.608387     0.626009     0.599045
    0.499491     0.691326     0.537716
EA165  21.505 20.531 23.356 90.00 90.00 90.00 Sym.group:    0
1.0000
   21.505092     0.000000     0.000000
    0.000000    20.531352     0.000000
    0.000000     0.000000    23.355908
   O  Cu
  24   24 
Direct
    0.449500     0.709912     0.364886
    0.731064     0.543329     0.375493
    0.550500     0.290088     0.364886
    0.268936     0.456671     0.375493
    0.448282     0.351687     0.331068
    0.449507     0.290108     0.635103
    0.448280     0.648310     0.668942
    0.590663     0.598155     0.453644
    0.550493     0.709892     0.635103
    0.409328     0.598171     0.546350
    0.731039     0.456676     0.624500
    0.268961     0.543324     0.624500
    0.551720     0.351690     0.668942
    0.551718     0.648313     0.331068
    0.409337     0.401845     0.453644
    0.590672     0.401829     0.546350
    0.407766     0.445968     0.582463
    0.718297     0.365398     0.461930
    0.592229     0.445972     0.417549
    0.718292     0.634614     0.538069
    0.592234     0.554032     0.582463
    0.281708     0.365386     0.538069
    0.407771     0.554028     0.417549
    0.281703     0.634602     0.461930
    0.548722     0.306257     0.622205
    0.271682     0.438752     0.622881
    0.451278     0.693743     0.622205
    0.728318     0.561248     0.622881
    0.546201     0.635411     0.656628
    0.548717     0.693762     0.377790
    0.546202     0.364591     0.343381
    0.395263     0.384974     0.535676
    0.451283     0.306238     0.377790
    0.604746     0.384975     0.464317
    0.271663     0.561245     0.377110
    0.728337     0.438755     0.377110
    0.453798     0.635409     0.343381
    0.453799     0.364589     0.656628
    0.604737     0.615026     0.535676
    0.395254     0.615025     0.464317
    0.604640     0.539202     0.404315
    0.280663     0.636284     0.552742
    0.395358     0.539198     0.595703
    0.280660     0.363711     0.447257
    0.395360     0.460798     0.404315
    0.719340     0.636289     0.447257
    0.604642     0.460802     0.595703
    0.719337     0.363716     0.552742
EA166  22.713 29.681 15.653 90.00 90.00 90.00 Sym.group:    0
1.0000
   22.713064     0.000000     0.000000
    0.000000    29.681409     0.000000
    0.000000     0.000000    15.653220
   O  Cu
  24   24 
Direct
    0.928135     0.562262     0.494968
    0.670465     0.579082     0.500454
    0.815858     0.451167     0.484056
    0.474874     0.405480     0.510387
    0.583566     0.506148     0.541408
    0.781691     0.510851     0.521441
    0.554139     0.571297     0.514404
    0.677602     0.439887     0.446839
    0.682363     0.537409     0.556912
    0.458804     0.431607     0.535346
    0.543731     0.405618     0.496097
    0.343882     0.352236     0.461026
    0.149116     0.559688     0.439309
    0.432758     0.665596     0.463325
    0.348277     0.348752     0.534808
    0.153512     0.556204     0.513091
    0.437153     0.662112     0.537107
    0.281107     0.459775     0.562396
    0.331255     0.593361     0.564499
    0.272418     0.466663     0.416529
    0.322566     0.600248     0.418632
    0.426442     0.456411     0.534024
    0.405422     0.519518     0.530920
    0.393054     0.570971     0.529669
    0.514875     0.507062     0.523000
    0.681093     0.607475     0.520176
    0.923252     0.530799     0.507847
    0.508953     0.449934     0.532180
    0.553247     0.435778     0.484527
    0.624853     0.537077     0.510886
    0.724240     0.523408     0.460203
    0.772821     0.445397     0.464811
    0.866376     0.539028     0.468564
    0.641214     0.407834     0.478498
    0.783267     0.477652     0.446965
    0.529876     0.545779     0.537454
    0.422759     0.459331     0.472195
    0.401738     0.522437     0.469092
    0.468219     0.601240     0.504432
    0.387705     0.400875     0.500792
    0.272490     0.538152     0.487673
    0.253089     0.583358     0.563563
    0.297763     0.413581     0.570824
    0.243675     0.590820     0.405539
    0.288350     0.421043     0.412800
    0.654643     0.379120     0.525658
    0.311882     0.439516     0.516206
    0.405427     0.430962     0.528466
EA167  21.517 22.390 18.041 90.00 90.00 90.00 Sym.group:    0
1.0000
   21.516576     0.000000     0.000000
    0.000000    22.390286     0.000000
    0.000000     0.000000    18.040723
   O  Cu
  24   24 
Direct
    0.355537     0.426277     0.649851
    0.367032     0.431845     0.353330
    0.629640     0.423339     0.647008
    0.495369     0.347603     0.351401
    0.493776     0.350570     0.647922
    0.644463     0.573723     0.649851
    0.636935     0.416713     0.350488
    0.506224     0.649430     0.647922
    0.632968     0.568155     0.353330
    0.370360     0.576661     0.647008
    0.504631     0.652397     0.351401
    0.363065     0.583287     0.350488
    0.384889     0.344297     0.501723
    0.582763     0.326349     0.498590
    0.697874     0.482052     0.499687
    0.615111     0.655703     0.501723
    0.417237     0.673651     0.498590
    0.302126     0.517948     0.499687
    0.370290     0.377018     0.500790
    0.545974     0.330560     0.498788
    0.675686     0.453541     0.500422
    0.629710     0.622982     0.500790
    0.454026     0.669440     0.498788
    0.324314     0.546459     0.500422
    0.273833     0.517877     0.612469
    0.274881     0.512801     0.387040
    0.598926     0.306697     0.610655
    0.372711     0.321852     0.389591
    0.374001     0.317913     0.615020
    0.726167     0.482123     0.612469
    0.599071     0.302390     0.385226
    0.625999     0.682087     0.615020
    0.725119     0.487199     0.387040
    0.401074     0.693303     0.610655
    0.627289     0.678148     0.389591
    0.400929     0.697610     0.385226
    0.388009     0.458425     0.574044
    0.392109     0.460402     0.422654
    0.590547     0.430254     0.576956
    0.482283     0.387570     0.424696
    0.480928     0.388852     0.576086
    0.611991     0.541575     0.574044
    0.592545     0.427341     0.425565
    0.519072     0.611148     0.576086
    0.607891     0.539598     0.422654
    0.409453     0.569746     0.576956
    0.517717     0.612430     0.424696
    0.407455     0.572659     0.425565
EA168  19.741 19.092 19.340 90.00 90.00 90.00 Sym.group:    0
1.0000
   19.740568     0.000000     0.000000
    0.000000    19.092150     0.000000
    0.000000     0.000000    19.340300
   O  Cu
  24   24 
Direct
    0.677539     0.408968     0.469677
    0.509941     0.314919     0.398870
    0.538590     0.639147     0.359376
    0.691394     0.470311     0.455745
    0.572324     0.591092     0.336150
    0.462353     0.301632     0.436026
    0.414671     0.637568     0.383229
    0.520078     0.415493     0.314548
    0.629412     0.362513     0.580154
    0.647839     0.619162     0.552146
    0.532367     0.469897     0.302193
    0.677757     0.576541     0.531547
    0.590992     0.574670     0.635492
    0.304911     0.527846     0.538594
    0.617176     0.436030     0.622626
    0.331096     0.389206     0.525730
    0.447081     0.625357     0.609113
    0.382037     0.626891     0.445806
    0.500814     0.340858     0.582713
    0.360619     0.534809     0.600560
    0.387369     0.393180     0.587417
    0.492098     0.397657     0.610877
    0.372888     0.565517     0.430743
    0.460394     0.565521     0.626454
    0.637815     0.443886     0.542754
    0.474447     0.575231     0.367396
    0.648589     0.491584     0.531921
    0.431533     0.385245     0.410543
    0.500676     0.537861     0.349337
    0.589257     0.499552     0.362132
    0.644264     0.553420     0.453340
    0.564891     0.391675     0.386630
    0.484380     0.648959     0.434341
    0.601185     0.362703     0.496653
    0.584942     0.637929     0.494184
    0.450173     0.687498     0.513569
    0.551331     0.398036     0.628829
    0.362664     0.376532     0.456188
    0.516192     0.584086     0.646095
    0.327524     0.562583     0.473452
    0.333191     0.576476     0.552629
    0.572725     0.618419     0.602004
    0.375428     0.352842     0.531877
    0.307952     0.461304     0.477465
    0.563466     0.494450     0.664609
    0.569947     0.634763     0.557381
    0.369367     0.594386     0.576975
    0.416318     0.345796     0.553907
EA169  23.385 22.826 14.384 90.00 90.00 90.00 Sym.group:    0
1.0000
   23.385066     0.000000     0.000000
    0.000000    22.826495     0.000000
    0.000000     0.000000    14.384200
   O  Cu
  24   24 
Direct
    0.534496     0.264125     0.463572
    0.283357     0.587332     0.463572
    0.682146     0.648543     0.463572
    0.716643     0.412668     0.536428
    0.465504     0.735875     0.536428
    0.317854     0.351457     0.536428
    0.538258     0.404145     0.523444
    0.399842     0.513985     0.523444
    0.561902     0.581870     0.523444
    0.582604     0.440310     0.476556
    0.509156     0.603132     0.476556
    0.408240     0.456557     0.476556
    0.490844     0.396868     0.523444
    0.417396     0.559690     0.523444
    0.591760     0.543443     0.523444
    0.600158     0.486015     0.476556
    0.461742     0.595855     0.476556
    0.438098     0.418130     0.476556
    0.608911     0.626187     0.439371
    0.552216     0.340279     0.439371
    0.338873     0.533534     0.439371
    0.355541     0.419561     0.560629
    0.640227     0.412053     0.560629
    0.504232     0.668385     0.560629
    0.359773     0.587947     0.439371
    0.644459     0.580439     0.439371
    0.495768     0.331615     0.439371
    0.447784     0.659721     0.560629
    0.391089     0.373813     0.560629
    0.661127     0.466466     0.560629
    0.393372     0.441367     0.549663
    0.503749     0.623918     0.549663
    0.602879     0.434714     0.549663
    0.579685     0.593308     0.450337
    0.381281     0.524044     0.450337
    0.539035     0.382648     0.450337
    0.618719     0.475956     0.549663
    0.420315     0.406692     0.549663
    0.460965     0.617352     0.549663
    0.496251     0.376082     0.450337
    0.606628     0.558633     0.450337
    0.397121     0.565286     0.450337
    0.559871     0.655878     0.500000
    0.398166     0.631058     0.500000
    0.601834     0.368942     0.500000
    0.661706     0.524820     0.500000
    0.338294     0.475180     0.500000
    0.440129     0.344122     0.500000
