EA1    20.265 19.694 20.232 90.00 90.00 90.00 Sym.group:    0
1.0000
   20.264799     0.000000     0.000000
    0.000000    19.694285     0.000000
    0.000000     0.000000    20.232458
   O  Cu
  24   24 
Direct
    0.652483     0.407445     0.497072
    0.652483     0.592555     0.502928
    0.347517     0.413888     0.466845
    0.347517     0.586112     0.533155
    0.484589     0.364906     0.382017
    0.588667     0.547400     0.353595
    0.515411     0.672163     0.444069
    0.411333     0.483653     0.652677
    0.484589     0.635094     0.617983
    0.411333     0.516347     0.347323
    0.515411     0.327837     0.555931
    0.588667     0.452600     0.646405
    0.383301     0.494654     0.625950
    0.383301     0.505346     0.374050
    0.616699     0.546570     0.382375
    0.616699     0.453430     0.617625
    0.375818     0.613300     0.543808
    0.479542     0.600721     0.639716
    0.624182     0.378147     0.496318
    0.520458     0.649509     0.410819
    0.375818     0.386700     0.456192
    0.520458     0.350491     0.589181
    0.624182     0.621853     0.503682
    0.479542     0.399279     0.360284
    0.596463     0.416402     0.344845
    0.596463     0.583598     0.655155
    0.403537     0.359891     0.609976
    0.403537     0.640109     0.390024
    0.635172     0.426019     0.371494
    0.611020     0.383976     0.377894
    0.364828     0.620394     0.410749
    0.388980     0.343649     0.567099
    0.635172     0.573981     0.628506
    0.388980     0.656351     0.432901
    0.364828     0.379606     0.589251
    0.611020     0.616024     0.622106
    0.312669     0.444998     0.471308
    0.312669     0.555002     0.528692
    0.687331     0.437812     0.505024
    0.687331     0.562188     0.494976
    0.517189     0.700896     0.481080
    0.558158     0.443524     0.680220
    0.482811     0.323418     0.404847
    0.441842     0.521840     0.312784
    0.517189     0.299104     0.518920
    0.441842     0.478160     0.687216
    0.482811     0.676582     0.595153
    0.558158     0.556476     0.319780
EA2    20.431 20.389 17.846 90.00 90.00 90.00 Sym.group:    0
1.0000
   20.430917     0.000000     0.000000
    0.000000    20.388805     0.000000
    0.000000     0.000000    17.846170
   O  Cu
  24   24 
Direct
    0.689482     0.571461     0.460607
    0.626376     0.341503     0.460607
    0.388623     0.330583     0.460607
    0.304789     0.553791     0.460607
    0.490730     0.702662     0.460607
    0.689482     0.571461     0.539393
    0.626376     0.341503     0.539393
    0.388623     0.330583     0.539393
    0.304789     0.553791     0.539393
    0.490730     0.702662     0.539393
    0.500766     0.357377     0.577880
    0.364873     0.455198     0.577880
    0.415722     0.614933     0.577880
    0.583040     0.615836     0.577880
    0.635599     0.456656     0.577880
    0.500766     0.357377     0.422120
    0.364873     0.455198     0.422120
    0.415722     0.614933     0.422120
    0.583040     0.615836     0.422120
    0.635599     0.456656     0.422120
    0.520891     0.442954     0.533011
    0.452313     0.462462     0.533011
    0.449637     0.533847     0.533011
    0.516560     0.558457     0.533011
    0.560599     0.502282     0.533011
    0.520891     0.442954     0.466989
    0.452313     0.462462     0.466989
    0.449637     0.533847     0.466989
    0.516560     0.558457     0.466989
    0.560599     0.502282     0.466989
    0.500794     0.632967     0.500000
    0.626443     0.540332     0.500000
    0.577352     0.391960     0.500000
    0.421363     0.392896     0.500000
    0.374048     0.541845     0.500000
    0.367311     0.596490     0.584371
    0.550575     0.656273     0.584371
    0.663947     0.500092     0.584371
    0.550750     0.343784     0.584371
    0.367419     0.403361     0.584371
    0.367311     0.596490     0.415629
    0.550575     0.656273     0.415629
    0.663947     0.500092     0.415629
    0.550750     0.343784     0.415629
    0.367419     0.403361     0.415629
    0.500000     0.500000     0.645862
    0.500000     0.500000     0.354138
    0.500000     0.500000     0.500000
EA3    18.441 17.553 17.693 90.00 90.00 90.00 Sym.group:    0
1.0000
   18.441328     0.000000     0.000000
    0.000000    17.552675     0.000000
    0.000000     0.000000    17.692667
   O  Cu
  24   24 
Direct
    0.528494     0.383780     0.453246
    0.528494     0.482703     0.376770
    0.528494     0.598923     0.423524
    0.528494     0.616220     0.546754
    0.528494     0.517297     0.623230
    0.528494     0.401077     0.576476
    0.471506     0.383780     0.453246
    0.471506     0.482703     0.376770
    0.471506     0.598923     0.423524
    0.471506     0.616220     0.546754
    0.471506     0.517297     0.623230
    0.471506     0.401077     0.576476
    0.524585     0.643572     0.468031
    0.524585     0.599693     0.607368
    0.524585     0.456121     0.639338
    0.524585     0.356428     0.531969
    0.524585     0.400307     0.392632
    0.524585     0.543879     0.360662
    0.475415     0.643572     0.468031
    0.475415     0.599693     0.607368
    0.475415     0.456121     0.639338
    0.475415     0.356428     0.531969
    0.475415     0.400307     0.392632
    0.475415     0.543879     0.360662
    0.567300     0.581445     0.577581
    0.567300     0.472999     0.608766
    0.567300     0.391554     0.531184
    0.567300     0.418555     0.422419
    0.567300     0.527001     0.391234
    0.567300     0.608446     0.468816
    0.432700     0.581445     0.577581
    0.432700     0.472999     0.608766
    0.432700     0.391554     0.531184
    0.432700     0.418555     0.422419
    0.432700     0.527001     0.391234
    0.432700     0.608446     0.468816
    0.657291     0.540894     0.464150
    0.657291     0.551742     0.517209
    0.657291     0.510848     0.553060
    0.657291     0.459106     0.535850
    0.657291     0.448258     0.482791
    0.657291     0.489152     0.446940
    0.342709     0.540894     0.464150
    0.342709     0.551742     0.517209
    0.342709     0.510848     0.553060
    0.342709     0.459106     0.535850
    0.342709     0.448258     0.482791
    0.342709     0.489152     0.446940
EA4    32.489 17.503 17.830 90.00 90.00 90.00 Sym.group:    0
1.0000
   32.489435     0.000000     0.000000
    0.000000    17.502893     0.000000
    0.000000     0.000000    17.830459
   O  Cu
  24   24 
Direct
    0.491016     0.535484     0.585302
    0.491016     0.557515     0.427184
    0.491016     0.407002     0.487514
    0.515956     0.406143     0.498797
    0.515956     0.547990     0.420813
    0.515956     0.545867     0.580390
    0.491016     0.452010     0.579187
    0.491016     0.593857     0.501203
    0.491016     0.454133     0.419610
    0.515956     0.442485     0.572816
    0.515956     0.464516     0.414698
    0.515956     0.592998     0.512486
    0.371656     0.507812     0.397237
    0.371656     0.405433     0.544740
    0.371656     0.586755     0.558023
    0.635316     0.594567     0.455260
    0.635316     0.492188     0.602763
    0.635316     0.413245     0.441977
    0.617667     0.397841     0.548331
    0.617667     0.593719     0.562681
    0.617667     0.508439     0.388987
    0.389305     0.491561     0.611013
    0.389305     0.406281     0.437319
    0.389305     0.602159     0.451669
    0.719758     0.503276     0.456919
    0.719758     0.460355     0.518756
    0.719758     0.536370     0.524325
    0.287214     0.539645     0.481244
    0.287214     0.496724     0.543081
    0.287214     0.463630     0.475675
    0.808961     0.495330     0.561428
    0.808961     0.556529     0.473256
    0.808961     0.448142     0.465316
    0.198011     0.443471     0.526744
    0.198011     0.504670     0.438572
    0.198011     0.551858     0.534684
    0.336155     0.500000     0.500000
    0.503486     0.565018     0.632427
    0.503486     0.415677     0.621486
    0.503486     0.584323     0.378514
    0.503486     0.649341     0.510940
    0.503486     0.350659     0.489060
    0.503486     0.434982     0.367573
    0.555660     0.500000     0.500000
    0.451312     0.500000     0.500000
    0.381858     0.500000     0.500000
    0.625114     0.500000     0.500000
    0.503486     0.500000     0.500000
EA5    18.728 18.730 18.480 90.00 90.00 90.00 Sym.group:    0
1.0000
   18.728089     0.000000     0.000000
    0.000000    18.729682     0.000000
    0.000000     0.000000    18.480140
   O  Cu
  24   24 
Direct
    0.574298     0.592910     0.558441
    0.434589     0.599366     0.558441
    0.385276     0.468502     0.558441
    0.494508     0.381166     0.558441
    0.611329     0.458055     0.558441
    0.410195     0.421974     0.441559
    0.398035     0.561290     0.441559
    0.526787     0.615905     0.441559
    0.618520     0.510343     0.441559
    0.546462     0.390487     0.441559
    0.574298     0.592910     0.441559
    0.434589     0.599366     0.441559
    0.385276     0.468502     0.441559
    0.494508     0.381166     0.441559
    0.611329     0.458055     0.441559
    0.410195     0.421974     0.558441
    0.398035     0.561290     0.558441
    0.526787     0.615905     0.558441
    0.618520     0.510343     0.558441
    0.546462     0.390487     0.558441
    0.391091     0.379057     0.395192
    0.581378     0.359057     0.395192
    0.659204     0.533835     0.395192
    0.517015     0.661855     0.395192
    0.351312     0.566196     0.395192
    0.616402     0.613750     0.604808
    0.644163     0.424456     0.604808
    0.472695     0.339561     0.604808
    0.338962     0.476388     0.604808
    0.427778     0.645846     0.604808
    0.391091     0.379057     0.604808
    0.581378     0.359057     0.604808
    0.659204     0.533835     0.604808
    0.517015     0.661855     0.604808
    0.351312     0.566196     0.604808
    0.616402     0.613750     0.395192
    0.644163     0.424456     0.395192
    0.472695     0.339561     0.395192
    0.338962     0.476388     0.395192
    0.427778     0.645846     0.395192
    0.664139     0.477433     0.500000
    0.572185     0.649118     0.500000
    0.380475     0.614727     0.500000
    0.353944     0.421787     0.500000
    0.529257     0.336934     0.500000
    0.500000     0.500000     0.341989
    0.500000     0.500000     0.658011
    0.500000     0.500000     0.500000
EA6    21.435 18.969 17.340 90.00 90.00 90.00 Sym.group:    0
1.0000
   21.435309     0.000000     0.000000
    0.000000    18.969188     0.000000
    0.000000     0.000000    17.340102
   O  Cu
  24   24 
Direct
    0.473128     0.510206     0.570302
    0.473128     0.489794     0.429698
    0.522573     0.489794     0.570302
    0.522573     0.510206     0.429698
    0.423489     0.448622     0.539120
    0.423489     0.551378     0.460880
    0.572213     0.551378     0.539120
    0.572213     0.448622     0.460880
    0.292691     0.449202     0.468574
    0.292691     0.550798     0.531426
    0.703010     0.550798     0.468574
    0.703010     0.449202     0.531426
    0.493498     0.428612     0.635527
    0.493498     0.571388     0.364473
    0.502204     0.571388     0.635527
    0.502204     0.428612     0.364473
    0.436276     0.419324     0.469337
    0.436276     0.580676     0.530663
    0.559426     0.580676     0.469337
    0.559426     0.419324     0.530663
    0.609104     0.420348     0.583399
    0.609104     0.579652     0.416601
    0.386597     0.579652     0.583399
    0.386597     0.420348     0.416601
    0.601015     0.500000     0.500000
    0.397226     0.389479     0.458619
    0.397226     0.610521     0.541381
    0.598476     0.610521     0.458619
    0.598476     0.389479     0.541381
    0.415880     0.666828     0.582151
    0.415880     0.333172     0.417849
    0.579821     0.333172     0.582151
    0.579821     0.666828     0.417849
    0.593720     0.503623     0.386929
    0.593720     0.496377     0.613071
    0.401981     0.496377     0.386929
    0.401981     0.503623     0.613071
    0.322432     0.456283     0.554444
    0.322432     0.543717     0.445556
    0.673269     0.543717     0.554444
    0.673269     0.456283     0.445556
    0.380187     0.585079     0.424545
    0.380187     0.414921     0.575455
    0.615514     0.414921     0.424545
    0.615514     0.585079     0.575455
    0.497851     0.353180     0.500000
    0.497851     0.646820     0.500000
    0.497851     0.500000     0.500000
EA7    20.249 20.249 20.249 90.00 90.00 90.00 Sym.group:    0
1.0000
   20.249305     0.000000     0.000000
    0.000000    20.249305     0.000000
    0.000000     0.000000    20.249305
   O  Cu
  24   24 
Direct
    0.407271     0.498039     0.306725
    0.687891     0.476653     0.399451
    0.592729     0.413586     0.672893
    0.312109     0.434972     0.580166
    0.454653     0.632584     0.337756
    0.592729     0.586414     0.327107
    0.545347     0.451869     0.296076
    0.407271     0.306725     0.501961
    0.407271     0.501961     0.693275
    0.407271     0.693275     0.498039
    0.312109     0.565028     0.419834
    0.687891     0.523347     0.600549
    0.454653     0.367416     0.662244
    0.545347     0.548131     0.703924
    0.592729     0.327107     0.413586
    0.592729     0.672893     0.586414
    0.312109     0.419834     0.434972
    0.454653     0.337756     0.367416
    0.312109     0.580166     0.565028
    0.545347     0.703924     0.451869
    0.687891     0.399451     0.523347
    0.454653     0.662244     0.632584
    0.687891     0.600549     0.476653
    0.545347     0.296076     0.548131
    0.592729     0.501961     0.693275
    0.312109     0.523347     0.600549
    0.407271     0.586414     0.327107
    0.687891     0.565028     0.419834
    0.545347     0.367416     0.662244
    0.407271     0.413586     0.672893
    0.454653     0.548131     0.703924
    0.592729     0.693275     0.498039
    0.592729     0.498039     0.306725
    0.592729     0.306725     0.501961
    0.687891     0.434972     0.580166
    0.312109     0.476653     0.399451
    0.545347     0.632584     0.337756
    0.454653     0.451869     0.296076
    0.407271     0.672893     0.586414
    0.407271     0.327107     0.413586
    0.687891     0.580166     0.565028
    0.545347     0.662244     0.632584
    0.687891     0.419834     0.434972
    0.454653     0.296076     0.548131
    0.312109     0.600549     0.476653
    0.545347     0.337756     0.367416
    0.312109     0.399451     0.523347
    0.454653     0.703924     0.451869
EA8    19.568 19.628 17.931 90.00 90.00 90.00 Sym.group:    0
1.0000
   19.568356     0.000000     0.000000
    0.000000    19.628456     0.000000
    0.000000     0.000000    17.930648
   O  Cu
  24   24 
Direct
    0.614205     0.637062     0.586963
    0.561961     0.332869     0.586968
    0.323836     0.530072     0.586967
    0.438662     0.332639     0.413037
    0.676051     0.530721     0.413032
    0.385286     0.636636     0.413033
    0.323949     0.469279     0.586968
    0.561338     0.667361     0.586963
    0.614714     0.363364     0.586967
    0.438039     0.667131     0.413032
    0.385795     0.362938     0.413037
    0.676164     0.469928     0.413033
    0.546054     0.367069     0.352471
    0.361498     0.526700     0.352470
    0.592445     0.606225     0.352467
    0.638401     0.527216     0.647530
    0.407160     0.605886     0.647530
    0.454441     0.366903     0.647533
    0.592840     0.394114     0.352470
    0.361599     0.472784     0.352470
    0.545559     0.633097     0.352467
    0.638502     0.473300     0.647530
    0.453946     0.632931     0.647529
    0.407555     0.393775     0.647533
    0.404606     0.523462     0.624911
    0.568077     0.570633     0.624910
    0.527319     0.405911     0.624912
    0.431660     0.570378     0.375088
    0.473031     0.405807     0.375091
    0.595306     0.523811     0.375088
    0.526969     0.594193     0.624909
    0.568340     0.429622     0.624912
    0.404694     0.476189     0.624912
    0.431923     0.429367     0.375090
    0.595394     0.476538     0.375089
    0.472681     0.594089     0.375088
    0.359684     0.446286     0.441985
    0.523497     0.648002     0.441981
    0.616818     0.405711     0.441984
    0.475952     0.647915     0.558015
    0.383533     0.405281     0.558019
    0.640516     0.446807     0.558017
    0.616467     0.594719     0.441981
    0.524048     0.352085     0.441985
    0.359484     0.553193     0.441983
    0.476503     0.351998     0.558019
    0.640316     0.553714     0.558015
    0.383182     0.594289     0.558016
EA9    21.218 18.380 18.252 90.00 90.00 90.00 Sym.group:    0
1.0000
   21.217571     0.000000     0.000000
    0.000000    18.380126     0.000000
    0.000000     0.000000    18.251872
   O  Cu
  24   24 
Direct
    0.601265     0.480786     0.381371
    0.601265     0.382027     0.481744
    0.601265     0.446303     0.607345
    0.601265     0.584786     0.584600
    0.601265     0.606098     0.444940
    0.337187     0.379740     0.487929
    0.337187     0.451437     0.611448
    0.337187     0.590247     0.580949
    0.337187     0.604339     0.438582
    0.337187     0.474238     0.381092
    0.311452     0.498165     0.598022
    0.311452     0.592007     0.532048
    0.311452     0.558699     0.421785
    0.311452     0.444270     0.419612
    0.311452     0.406859     0.528533
    0.517837     0.587510     0.535683
    0.517837     0.560741     0.427215
    0.517837     0.450030     0.419334
    0.517837     0.408376     0.522931
    0.517837     0.493343     0.594838
    0.473711     0.584453     0.370361
    0.473711     0.403663     0.379056
    0.473711     0.356008     0.554892
    0.473711     0.507346     0.654869
    0.473711     0.648531     0.540822
    0.478564     0.480282     0.544947
    0.478564     0.536355     0.532774
    0.478564     0.542187     0.475308
    0.478564     0.489717     0.451966
    0.478564     0.451457     0.495005
    0.715720     0.500000     0.500000
    0.631747     0.575953     0.367384
    0.631747     0.398225     0.386276
    0.631747     0.361148     0.562331
    0.631747     0.515959     0.652246
    0.631747     0.648716     0.531763
    0.364798     0.500000     0.500000
    0.618406     0.498845     0.550415
    0.618406     0.547256     0.516685
    0.618406     0.530361     0.459898
    0.618406     0.471509     0.458530
    0.618406     0.452030     0.514472
    0.521164     0.338452     0.502634
    0.521164     0.452566     0.655534
    0.521164     0.632232     0.593492
    0.521164     0.629157     0.402247
    0.521164     0.447592     0.346094
    0.462816     0.500000     0.500000
EA10   24.889 24.442 15.032 90.00 90.00 90.00 Sym.group:    0
1.0000
   24.888769     0.000000     0.000000
    0.000000    24.441953     0.000000
    0.000000     0.000000    15.031979
   O  Cu
  24   24 
Direct
    0.533145     0.355022     0.530839
    0.374835     0.423101     0.530839
    0.389498     0.597452     0.530839
    0.556872     0.637128     0.530839
    0.645650     0.487298     0.530839
    0.598450     0.610035     0.469161
    0.427651     0.629346     0.469161
    0.356836     0.469905     0.469161
    0.483868     0.352054     0.469161
    0.633194     0.438659     0.469161
    0.533145     0.355022     0.469161
    0.374835     0.423101     0.469161
    0.389498     0.597452     0.469161
    0.556872     0.637128     0.469161
    0.645650     0.487298     0.469161
    0.598450     0.610035     0.530839
    0.427651     0.629346     0.530839
    0.356836     0.469905     0.530839
    0.483868     0.352054     0.530839
    0.633194     0.438659     0.530839
    0.385610     0.559921     0.450666
    0.520617     0.629296     0.450666
    0.627131     0.519988     0.450666
    0.557955     0.383058     0.450666
    0.408687     0.407737     0.450666
    0.371442     0.504590     0.549334
    0.455986     0.376916     0.549334
    0.601356     0.419340     0.549334
    0.606656     0.573232     0.549334
    0.464560     0.625920     0.549334
    0.385610     0.559921     0.549334
    0.520617     0.629296     0.549334
    0.627131     0.519988     0.549334
    0.557955     0.383058     0.549334
    0.408687     0.407737     0.549334
    0.371442     0.504590     0.450666
    0.455986     0.376916     0.450666
    0.601356     0.419340     0.450666
    0.606656     0.573232     0.450666
    0.464560     0.625920     0.450666
    0.664306     0.296203     0.500000
    0.360430     0.277903     0.500000
    0.249436     0.566534     0.500000
    0.484713     0.763218     0.500000
    0.741117     0.596144     0.500000
    0.500000     0.500000     0.420437
    0.500000     0.500000     0.579563
    0.500000     0.500000     0.500000
EA11   21.965 17.495 17.457 90.00 90.00 90.00 Sym.group:    0
1.0000
   21.965105     0.000000     0.000000
    0.000000    17.495426     0.000000
    0.000000     0.000000    17.457233
   O  Cu
  24   24 
Direct
    0.500000     0.621094     0.443817
    0.500000     0.484104     0.367219
    0.500000     0.369081     0.474120
    0.500000     0.434983     0.616787
    0.500000     0.590738     0.598059
    0.616225     0.465859     0.460726
    0.616225     0.452179     0.520405
    0.616225     0.504587     0.551886
    0.616225     0.550655     0.511662
    0.616225     0.526720     0.455322
    0.383775     0.465859     0.460726
    0.383775     0.452179     0.520405
    0.383775     0.504587     0.551886
    0.383775     0.550655     0.511662
    0.383775     0.526720     0.455322
    0.667247     0.591020     0.557946
    0.667247     0.583116     0.431152
    0.667247     0.460349     0.399504
    0.667247     0.392378     0.506738
    0.667247     0.473137     0.604661
    0.332753     0.591020     0.557946
    0.332753     0.583116     0.431152
    0.332753     0.460349     0.399504
    0.332753     0.392378     0.506738
    0.332753     0.473137     0.604661
    0.712271     0.589073     0.533505
    0.712271     0.559321     0.425456
    0.712271     0.447590     0.420424
    0.712271     0.408288     0.525363
    0.712271     0.495729     0.595252
    0.287729     0.589073     0.533505
    0.287729     0.559321     0.425456
    0.287729     0.447590     0.420424
    0.287729     0.408288     0.525363
    0.287729     0.495729     0.595252
    0.637098     0.639771     0.537998
    0.637098     0.579251     0.378521
    0.637098     0.409209     0.386924
    0.637098     0.364636     0.551594
    0.637098     0.507133     0.644963
    0.362902     0.639771     0.537998
    0.362902     0.579251     0.378521
    0.362902     0.409209     0.386924
    0.362902     0.364636     0.551594
    0.362902     0.507133     0.644963
    0.591068     0.500000     0.500000
    0.408932     0.500000     0.500000
    0.500000     0.500000     0.500000
EA12   20.420 19.308 18.961 90.00 90.00 90.00 Sym.group:    0
1.0000
   20.420416     0.000000     0.000000
    0.000000    19.308045     0.000000
    0.000000     0.000000    18.961355
   O  Cu
  24   24 
Direct
    0.431678     0.516347     0.684604
    0.431678     0.648828     0.393282
    0.431678     0.334825     0.422113
    0.568322     0.516347     0.684604
    0.568322     0.648828     0.393282
    0.568322     0.334825     0.422113
    0.359799     0.426986     0.574172
    0.359799     0.599589     0.527302
    0.359799     0.473425     0.398526
    0.640201     0.426986     0.574172
    0.640201     0.599589     0.527302
    0.640201     0.473425     0.398526
    0.430205     0.570756     0.357867
    0.430205     0.343741     0.508669
    0.430205     0.585502     0.633463
    0.569795     0.570756     0.357867
    0.569795     0.343741     0.508669
    0.569795     0.585502     0.633463
    0.582723     0.622814     0.527973
    0.582723     0.462384     0.377709
    0.582723     0.414803     0.594318
    0.417277     0.622814     0.527973
    0.417277     0.462384     0.377709
    0.417277     0.414803     0.594318
    0.690506     0.500000     0.500000
    0.309494     0.500000     0.500000
    0.591686     0.451721     0.646529
    0.591686     0.648758     0.469311
    0.591686     0.399520     0.384161
    0.408314     0.451721     0.646529
    0.408314     0.648758     0.469311
    0.408314     0.399520     0.384161
    0.389793     0.609834     0.399054
    0.389793     0.359231     0.453615
    0.389793     0.530935     0.647331
    0.610207     0.609834     0.399054
    0.610207     0.359231     0.453615
    0.610207     0.530935     0.647331
    0.500000     0.360292     0.370786
    0.500000     0.459961     0.687809
    0.500000     0.679747     0.441404
    0.377495     0.559002     0.609482
    0.377495     0.563611     0.393228
    0.377495     0.377388     0.497291
    0.622505     0.559002     0.609482
    0.622505     0.563611     0.393228
    0.622505     0.377388     0.497291
    0.500000     0.500000     0.500000
EA13   17.844 18.139 18.030 90.00 90.00 90.00 Sym.group:    0
1.0000
   17.844292     0.000000     0.000000
    0.000000    18.138774     0.000000
    0.000000     0.000000    18.029579
   O  Cu
  24   24 
Direct
    0.621244     0.434677     0.424284
    0.621244     0.532516     0.405228
    0.621244     0.597839     0.480944
    0.621244     0.565323     0.575716
    0.621244     0.467484     0.594772
    0.621244     0.402161     0.519056
    0.378756     0.571556     0.430220
    0.378756     0.475711     0.402765
    0.378756     0.404154     0.472545
    0.378756     0.428444     0.569780
    0.378756     0.524289     0.597235
    0.378756     0.595846     0.527455
    0.512202     0.484933     0.348165
    0.512202     0.623168     0.410954
    0.512202     0.638235     0.562790
    0.512202     0.515067     0.651835
    0.512202     0.376832     0.589046
    0.512202     0.361765     0.437210
    0.487798     0.527998     0.350032
    0.487798     0.384905     0.400623
    0.487798     0.356907     0.550590
    0.487798     0.472002     0.649968
    0.487798     0.615095     0.599377
    0.487798     0.643093     0.449410
    0.354175     0.402074     0.531702
    0.354175     0.423748     0.430531
    0.354175     0.521673     0.398829
    0.354175     0.597926     0.468298
    0.354175     0.576252     0.569469
    0.354175     0.478327     0.601171
    0.645825     0.594851     0.540061
    0.645825     0.581911     0.437390
    0.645825     0.487059     0.397329
    0.645825     0.405149     0.459939
    0.645825     0.418089     0.562610
    0.645825     0.512941     0.602671
    0.561153     0.402253     0.598529
    0.561153     0.366311     0.464102
    0.561153     0.464058     0.365572
    0.561153     0.597747     0.401471
    0.561153     0.633689     0.535898
    0.561153     0.535942     0.634428
    0.438847     0.588957     0.606626
    0.438847     0.636264     0.475808
    0.438847     0.547307     0.369182
    0.438847     0.411043     0.393374
    0.438847     0.363736     0.524192
    0.438847     0.452693     0.630818
EA14   21.659 18.794 19.113 90.00 90.00 90.00 Sym.group:    0
1.0000
   21.659266     0.000000     0.000000
    0.000000    18.793912     0.000000
    0.000000     0.000000    19.113110
   O  Cu
  24   24 
Direct
    0.429948     0.507056     0.393029
    0.429948     0.590685     0.559494
    0.429948     0.402259     0.547477
    0.570052     0.590685     0.440506
    0.570052     0.402259     0.452523
    0.570052     0.507056     0.606971
    0.570052     0.507056     0.393029
    0.570052     0.590685     0.559494
    0.570052     0.402259     0.547477
    0.429948     0.590685     0.440506
    0.429948     0.402259     0.452523
    0.429948     0.507056     0.606971
    0.366222     0.425933     0.568592
    0.366222     0.476622     0.402631
    0.366222     0.597445     0.528776
    0.633778     0.476622     0.597369
    0.633778     0.597445     0.471224
    0.633778     0.425933     0.431408
    0.633778     0.425933     0.568592
    0.633778     0.476622     0.402631
    0.633778     0.597445     0.528776
    0.366222     0.476622     0.597369
    0.366222     0.597445     0.471224
    0.366222     0.425933     0.431408
    0.291792     0.500000     0.500000
    0.708208     0.500000     0.500000
    0.560354     0.355248     0.426388
    0.560354     0.637209     0.413541
    0.560354     0.507543     0.660072
    0.439646     0.637209     0.586459
    0.439646     0.507543     0.339928
    0.439646     0.355248     0.573612
    0.439646     0.355248     0.426388
    0.439646     0.637209     0.413541
    0.439646     0.507543     0.660072
    0.560354     0.637209     0.586459
    0.560354     0.507543     0.339928
    0.560354     0.355248     0.573612
    0.500000     0.383065     0.377181
    0.500000     0.666638     0.461833
    0.500000     0.450296     0.660987
    0.500000     0.666638     0.538167
    0.500000     0.450296     0.339013
    0.500000     0.383065     0.622819
    0.500000     0.322212     0.500000
    0.500000     0.588894     0.348603
    0.500000     0.588894     0.651397
    0.500000     0.500000     0.500000
EA15   31.927 22.621 13.689 90.00 90.00 90.00 Sym.group:    0
1.0000
   31.927450     0.000000     0.000000
    0.000000    22.621483     0.000000
    0.000000     0.000000    13.688557
   O  Cu
  24   24 
Direct
    0.708452     0.581357     0.470483
    0.708452     0.418643     0.529517
    0.291548     0.581357     0.470483
    0.291548     0.418643     0.529517
    0.320363     0.424350     0.532693
    0.320363     0.575650     0.467307
    0.679637     0.424350     0.532693
    0.679637     0.575650     0.467307
    0.597185     0.707656     0.492446
    0.597185     0.292344     0.507554
    0.402815     0.707656     0.492446
    0.402815     0.292344     0.507554
    0.453903     0.361040     0.519243
    0.453903     0.638960     0.480757
    0.546097     0.361040     0.519243
    0.546097     0.638960     0.480757
    0.273946     0.392549     0.482184
    0.273946     0.607451     0.517816
    0.726054     0.392549     0.482184
    0.726054     0.607451     0.517816
    0.339529     0.500000     0.500000
    0.660471     0.500000     0.500000
    0.470385     0.608339     0.504349
    0.470385     0.391661     0.495651
    0.529615     0.608339     0.504349
    0.529615     0.391661     0.495651
    0.206684     0.399234     0.526776
    0.206684     0.600766     0.473224
    0.793316     0.399234     0.526776
    0.793316     0.600766     0.473224
    0.662837     0.555298     0.519134
    0.662837     0.444702     0.480866
    0.337163     0.555298     0.519134
    0.337163     0.444702     0.480866
    0.427846     0.672512     0.529040
    0.427846     0.327488     0.470960
    0.572154     0.672512     0.529040
    0.572154     0.327488     0.470960
    0.597057     0.500000     0.500000
    0.402943     0.500000     0.500000
    0.802051     0.500000     0.500000
    0.197949     0.500000     0.500000
    0.539889     0.465497     0.525010
    0.539889     0.534503     0.474990
    0.460111     0.465497     0.525010
    0.460111     0.534503     0.474990
    0.500000     0.720620     0.538301
    0.500000     0.279380     0.461699
EA16   20.215 20.215 20.215 90.00 90.00 90.00 Sym.group:    0
1.0000
   20.214705     0.000000     0.000000
    0.000000    20.214705     0.000000
    0.000000     0.000000    20.214705
   O  Cu
  24   24 
Direct
    0.389717     0.282761     0.381066
    0.733738     0.431284     0.618934
    0.610283     0.717239     0.381066
    0.266262     0.568716     0.618934
    0.316546     0.624869     0.655733
    0.595837     0.670920     0.312644
    0.465070     0.280848     0.344267
    0.404163     0.329080     0.312644
    0.534930     0.719152     0.344267
    0.690119     0.452535     0.687356
    0.683454     0.375131     0.655733
    0.309881     0.547465     0.687356
    0.610283     0.717239     0.618934
    0.266262     0.568716     0.381066
    0.389717     0.282761     0.618934
    0.733738     0.431284     0.381066
    0.683454     0.375131     0.344267
    0.404163     0.329080     0.687356
    0.534930     0.719152     0.655733
    0.595837     0.670920     0.687356
    0.465070     0.280848     0.655733
    0.309881     0.547465     0.312644
    0.316546     0.624869     0.344267
    0.690119     0.452535     0.312644
    0.455398     0.333657     0.531779
    0.651652     0.418385     0.468221
    0.544602     0.666343     0.531779
    0.348348     0.581615     0.468221
    0.486812     0.610723     0.635040
    0.636575     0.524350     0.393119
    0.571540     0.414469     0.364960
    0.363425     0.475650     0.393119
    0.428460     0.585531     0.364960
    0.611383     0.582700     0.606881
    0.513188     0.389277     0.635040
    0.388617     0.417300     0.606881
    0.544602     0.666343     0.468221
    0.348348     0.581615     0.531779
    0.455398     0.333657     0.468221
    0.651652     0.418385     0.531779
    0.513188     0.389277     0.364960
    0.363425     0.475650     0.606881
    0.428460     0.585531     0.635040
    0.636575     0.524350     0.606881
    0.571540     0.414469     0.635040
    0.388617     0.417300     0.393119
    0.486812     0.610723     0.364960
    0.611383     0.582700     0.393119
EA17   21.211 21.211 14.773 90.00 90.00 90.00 Sym.group:    0
1.0000
   21.211147     0.000000     0.000000
    0.000000    21.211147     0.000000
    0.000000     0.000000    14.772619
   O  Cu
  24   24 
Direct
    0.611600     0.472949     0.506332
    0.388400     0.527051     0.506332
    0.527051     0.611600     0.493668
    0.472949     0.388400     0.493668
    0.285678     0.510770     0.554928
    0.714322     0.489230     0.554928
    0.411443     0.304533     0.445072
    0.588557     0.695467     0.445072
    0.304533     0.588557     0.554928
    0.695467     0.411443     0.554928
    0.489230     0.285678     0.445072
    0.510770     0.714322     0.445072
    0.436572     0.551004     0.571615
    0.563428     0.448996     0.571615
    0.516302     0.420258     0.428385
    0.483698     0.579742     0.428385
    0.420258     0.483698     0.571615
    0.579742     0.516302     0.571615
    0.448996     0.436572     0.428385
    0.551004     0.563428     0.428385
    0.638131     0.513632     0.572181
    0.361869     0.486368     0.572181
    0.575366     0.616559     0.427819
    0.424634     0.383441     0.427819
    0.616559     0.424634     0.572181
    0.383441     0.575366     0.572181
    0.486368     0.638131     0.427819
    0.513632     0.361869     0.427819
    0.350969     0.409396     0.562027
    0.649031     0.590604     0.562027
    0.351214     0.408995     0.437973
    0.648786     0.591005     0.437973
    0.408995     0.648786     0.562027
    0.591005     0.351214     0.562027
    0.590604     0.350969     0.437973
    0.409396     0.649031     0.437973
    0.605160     0.560738     0.562535
    0.394840     0.439262     0.562535
    0.602147     0.565678     0.437465
    0.397853     0.434322     0.437465
    0.565678     0.397853     0.562535
    0.434322     0.602147     0.562535
    0.439262     0.605160     0.437465
    0.560738     0.394840     0.437465
    0.419198     0.632505     0.500000
    0.367495     0.419198     0.500000
    0.580802     0.367495     0.500000
    0.632505     0.580802     0.500000
EA18   19.249 17.763 17.675 90.00 90.00 90.00 Sym.group:    0
1.0000
   19.249260     0.000000     0.000000
    0.000000    17.762548     0.000000
    0.000000     0.000000    17.675141
   O  Cu
  24   24 
Direct
    0.523391     0.500000     0.500000
    0.476609     0.500000     0.500000
    0.500000     0.535368     0.561563
    0.500000     0.464632     0.561563
    0.500000     0.429264     0.500000
    0.500000     0.464632     0.438437
    0.500000     0.535368     0.438437
    0.500000     0.570736     0.500000
    0.328324     0.500000     0.500000
    0.671676     0.500000     0.500000
    0.500000     0.641735     0.456889
    0.500000     0.608019     0.601798
    0.500000     0.466284     0.644908
    0.500000     0.358265     0.543111
    0.500000     0.391981     0.398202
    0.500000     0.533716     0.355092
    0.500000     0.608019     0.398202
    0.500000     0.466284     0.355092
    0.500000     0.358265     0.456889
    0.500000     0.391981     0.601798
    0.500000     0.533716     0.644908
    0.500000     0.641735     0.543111
    0.651484     0.578227     0.418568
    0.651484     0.609289     0.527366
    0.651484     0.531061     0.608797
    0.651484     0.421773     0.581432
    0.651484     0.390711     0.472634
    0.651484     0.468939     0.391203
    0.348516     0.609289     0.472634
    0.348516     0.531061     0.391203
    0.348516     0.421773     0.418568
    0.348516     0.390711     0.527366
    0.348516     0.468939     0.608797
    0.348516     0.578227     0.581432
    0.348516     0.578227     0.418568
    0.348516     0.609289     0.527366
    0.348516     0.531061     0.608797
    0.348516     0.421773     0.581432
    0.348516     0.390711     0.472634
    0.348516     0.468939     0.391203
    0.651484     0.609289     0.472634
    0.651484     0.531061     0.391203
    0.651484     0.421773     0.418568
    0.651484     0.390711     0.527366
    0.651484     0.468939     0.608797
    0.651484     0.578227     0.581432
    0.418003     0.500000     0.500000
    0.581997     0.500000     0.500000
EA19   18.768 16.973 17.083 90.00 90.00 90.00 Sym.group:    0
1.0000
   18.767664     0.000000     0.000000
    0.000000    16.972551     0.000000
    0.000000     0.000000    17.082566
   O  Cu
  24   24 
Direct
    0.500000     0.369305     0.516237
    0.500000     0.420500     0.395662
    0.500000     0.551194     0.379425
    0.500000     0.630695     0.483763
    0.500000     0.579500     0.604338
    0.500000     0.448806     0.620575
    0.645009     0.611494     0.438186
    0.645009     0.609627     0.565028
    0.645009     0.498133     0.626842
    0.645009     0.388506     0.561814
    0.645009     0.390373     0.434972
    0.645009     0.501867     0.373158
    0.354991     0.611494     0.438186
    0.354991     0.609627     0.565028
    0.354991     0.498133     0.626842
    0.354991     0.388506     0.561814
    0.354991     0.390373     0.434972
    0.354991     0.501867     0.373158
    0.552789     0.604930     0.566943
    0.552789     0.494114     0.623758
    0.552789     0.389185     0.556815
    0.552789     0.395070     0.433057
    0.552789     0.505886     0.376242
    0.552789     0.610815     0.443185
    0.447211     0.604930     0.566943
    0.447211     0.494114     0.623758
    0.447211     0.389185     0.556815
    0.447211     0.395070     0.433057
    0.447211     0.505886     0.376242
    0.447211     0.610815     0.443185
    0.500000     0.560716     0.554003
    0.500000     0.483287     0.579245
    0.500000     0.422571     0.525241
    0.500000     0.439284     0.445997
    0.500000     0.516713     0.420755
    0.500000     0.577429     0.474759
    0.336749     0.456266     0.431350
    0.336749     0.537971     0.428044
    0.336749     0.581705     0.496695
    0.336749     0.543734     0.568650
    0.336749     0.462029     0.571956
    0.336749     0.418295     0.503305
    0.663251     0.456266     0.431350
    0.663251     0.537971     0.428044
    0.663251     0.581705     0.496695
    0.663251     0.543734     0.568650
    0.663251     0.462029     0.571956
    0.663251     0.418295     0.503305
EA20   21.308 20.261 17.695 90.00 90.00 90.00 Sym.group:    0
1.0000
   21.307949     0.000000     0.000000
    0.000000    20.261348     0.000000
    0.000000     0.000000    17.694657
   O  Cu
  24   24 
Direct
    0.657358     0.458638     0.603505
    0.612740     0.622635     0.396495
    0.455381     0.663997     0.603505
    0.342642     0.541362     0.396495
    0.387260     0.377365     0.603505
    0.544619     0.336003     0.396495
    0.476609     0.494796     0.452003
    0.492590     0.476094     0.547997
    0.515981     0.481299     0.452003
    0.523391     0.505204     0.547997
    0.507410     0.523906     0.452003
    0.484019     0.518701     0.547997
    0.493148     0.579793     0.585091
    0.430865     0.533655     0.414909
    0.437717     0.453862     0.585091
    0.506852     0.420207     0.414909
    0.569135     0.466345     0.585091
    0.562283     0.546138     0.414909
    0.520754     0.575185     0.492562
    0.448462     0.556495     0.507438
    0.427709     0.481309     0.492562
    0.479246     0.424815     0.507438
    0.551538     0.443505     0.492562
    0.572291     0.518691     0.507438
    0.621420     0.646151     0.572246
    0.440357     0.683660     0.427754
    0.318937     0.537509     0.572246
    0.378580     0.353849     0.427754
    0.559643     0.316340     0.572246
    0.681063     0.462491     0.427754
    0.699783     0.459458     0.478218
    0.633278     0.661683     0.521782
    0.433495     0.702225     0.478218
    0.300217     0.540542     0.521782
    0.366722     0.338317     0.478218
    0.566505     0.297775     0.521782
    0.499756     0.400279     0.357170
    0.581997     0.449917     0.642830
    0.582241     0.549637     0.357170
    0.500244     0.599721     0.642830
    0.418003     0.550083     0.357170
    0.417759     0.450363     0.642830
    0.451405     0.599720     0.533618
    0.393584     0.505601     0.466382
    0.442179     0.405882     0.533618
    0.548595     0.400280     0.466382
    0.606416     0.494399     0.533618
    0.557821     0.594118     0.466382
EA21   20.203 18.920 20.203 90.00 90.00 90.00 Sym.group:    0
1.0000
   20.202766     0.000000     0.000000
    0.000000    18.919831     0.000000
    0.000000     0.000000    20.202766
   O  Cu
  24   24 
Direct
    0.364782     0.447256     0.545394
    0.544054     0.405201     0.613849
    0.617607     0.428069     0.433552
    0.438335     0.470125     0.365097
    0.427430     0.606646     0.586851
    0.571664     0.529208     0.630001
    0.509016     0.369818     0.588542
    0.411863     0.431241     0.395742
    0.445947     0.595467     0.391053
    0.398867     0.611480     0.540703
    0.387056     0.569287     0.576273
    0.630555     0.555387     0.444782
    0.461085     0.418519     0.375714
    0.602469     0.605017     0.448892
    0.560555     0.373492     0.571283
    0.628716     0.583786     0.492271
    0.377457     0.406361     0.508806
    0.396021     0.402193     0.559856
    0.447934     0.633051     0.432563
    0.535089     0.572295     0.630266
    0.592644     0.381976     0.455450
    0.492494     0.622972     0.402709
    0.581965     0.578612     0.603181
    0.576396     0.402541     0.407169
    0.691749     0.529104     0.444070
    0.447359     0.591352     0.325218
    0.321428     0.564178     0.571683
    0.565818     0.501930     0.690535
    0.559583     0.344103     0.374408
    0.389645     0.501039     0.331301
    0.521811     0.686040     0.400963
    0.646946     0.586809     0.611519
    0.597179     0.405679     0.652947
    0.641981     0.347974     0.485499
    0.657805     0.447593     0.384554
    0.329018     0.459125     0.599693
    0.523831     0.637069     0.653601
    0.394775     0.332788     0.571028
    0.388380     0.663270     0.430712
    0.322693     0.401948     0.472270
    0.649813     0.641938     0.522932
    0.611952     0.635098     0.390006
    0.573810     0.307585     0.552157
    0.493212     0.403847     0.319766
    0.395829     0.681171     0.531632
    0.471462     0.346074     0.638003
    0.380548     0.369305     0.393279
    0.423374     0.614981     0.652225
EA22   18.155 19.536 19.536 90.00 90.00 90.00 Sym.group:    0
1.0000
   18.154755     0.000000     0.000000
    0.000000    19.535846     0.000000
    0.000000     0.000000    19.535846
   O  Cu
  24   24 
Direct
    0.393624     0.483822     0.626008
    0.393624     0.626008     0.516178
    0.393624     0.516178     0.373992
    0.393624     0.373992     0.483822
    0.474241     0.537153     0.654091
    0.474241     0.654091     0.462847
    0.474241     0.462847     0.345909
    0.474241     0.345909     0.537153
    0.520531     0.443335     0.597313
    0.520531     0.597313     0.556665
    0.520531     0.556665     0.402687
    0.520531     0.402687     0.443335
    0.388538     0.546128     0.571291
    0.388538     0.571291     0.453872
    0.388538     0.453872     0.428709
    0.388538     0.428709     0.546128
    0.692302     0.558983     0.459376
    0.692302     0.459376     0.441017
    0.692302     0.441017     0.540624
    0.692302     0.540624     0.558983
    0.398017     0.555126     0.501905
    0.398017     0.501905     0.444874
    0.398017     0.444874     0.498095
    0.398017     0.498095     0.555126
    0.550105     0.323508     0.570597
    0.550105     0.570597     0.676492
    0.550105     0.676492     0.429403
    0.550105     0.429403     0.323508
    0.480853     0.406808     0.624287
    0.480853     0.624287     0.593192
    0.480853     0.593192     0.375713
    0.480853     0.375713     0.406808
    0.653386     0.549214     0.527293
    0.653386     0.527293     0.450786
    0.653386     0.450786     0.472707
    0.653386     0.472707     0.549214
    0.423381     0.593778     0.419246
    0.423381     0.419246     0.406222
    0.423381     0.406222     0.580754
    0.423381     0.580754     0.593778
    0.604214     0.567545     0.403483
    0.604214     0.403483     0.432455
    0.604214     0.432455     0.596517
    0.604214     0.596517     0.567545
    0.420808     0.366183     0.526975
    0.420808     0.526975     0.633817
    0.420808     0.633817     0.473025
    0.420808     0.473025     0.366183
EA23   18.389 18.549 18.065 90.00 90.00 90.00 Sym.group:    0
1.0000
   18.389178     0.000000     0.000000
    0.000000    18.548999     0.000000
    0.000000     0.000000    18.065059
   O  Cu
  24   24 
Direct
    0.556670     0.541410     0.642522
    0.435491     0.527949     0.642522
    0.507841     0.430641     0.642522
    0.569450     0.488569     0.642522
    0.455290     0.446089     0.642522
    0.475262     0.565343     0.642522
    0.424253     0.346930     0.473928
    0.671588     0.511502     0.473926
    0.404159     0.641568     0.473927
    0.362473     0.602374     0.473928
    0.658193     0.566889     0.473926
    0.479334     0.330737     0.473927
    0.357812     0.495028     0.486309
    0.575436     0.380409     0.486308
    0.566751     0.624563     0.486308
    0.370998     0.440509     0.486309
    0.512532     0.640502     0.486308
    0.616469     0.418989     0.486308
    0.417024     0.528234     0.481544
    0.516824     0.414643     0.481544
    0.566152     0.557123     0.481544
    0.438961     0.437532     0.481544
    0.475951     0.583640     0.481544
    0.585088     0.478827     0.481544
    0.465886     0.601720     0.423502
    0.428198     0.419851     0.423502
    0.605915     0.478429     0.423502
    0.516123     0.394003     0.423502
    0.399344     0.539156     0.423502
    0.584532     0.566841     0.423502
    0.567219     0.429734     0.342215
    0.527770     0.592845     0.342215
    0.405009     0.477420     0.342215
    0.532676     0.465843     0.443011
    0.513500     0.545133     0.443011
    0.453824     0.489024     0.443011
    0.617355     0.559980     0.496966
    0.388927     0.570767     0.496966
    0.493718     0.369253     0.496966
    0.632031     0.499300     0.496966
    0.433373     0.386993     0.496966
    0.434595     0.613707     0.496966
    0.518815     0.364545     0.602617
    0.608920     0.583881     0.602617
    0.372266     0.551574     0.602618
    0.454810     0.629186     0.602617
    0.635446     0.474205     0.602617
    0.409745     0.396609     0.602618
EA24   20.265 19.532 19.532 90.00 90.00 90.00 Sym.group:    0
1.0000
   20.264955     0.000000     0.000000
    0.000000    19.531905     0.000000
    0.000000     0.000000    19.531905
   O  Cu
  24   24 
Direct
    0.563336     0.425710     0.674501
    0.444887     0.485226     0.308167
    0.535555     0.511835     0.696944
    0.456223     0.577229     0.320388
    0.308749     0.469822     0.501845
    0.521887     0.698783     0.516046
    0.329928     0.475893     0.592578
    0.472760     0.304597     0.463847
    0.693157     0.509527     0.494136
    0.562464     0.313889     0.461911
    0.668165     0.544759     0.411441
    0.442889     0.682730     0.558196
    0.687450     0.480920     0.454175
    0.320773     0.430015     0.528493
    0.673874     0.573365     0.451401
    0.317904     0.515699     0.565931
    0.409333     0.514565     0.323289
    0.484151     0.681997     0.583033
    0.491777     0.547890     0.305265
    0.496290     0.315064     0.422078
    0.592573     0.464783     0.672692
    0.538934     0.303423     0.503680
    0.506317     0.472762     0.698754
    0.480624     0.699516     0.491209
    0.472943     0.474431     0.609283
    0.527342     0.522487     0.390118
    0.578072     0.493351     0.582335
    0.421644     0.509731     0.418265
    0.401265     0.541902     0.533685
    0.506800     0.589514     0.572952
    0.412340     0.430094     0.515025
    0.522052     0.392265     0.535415
    0.588459     0.569402     0.487975
    0.496120     0.410924     0.426286
    0.597936     0.458602     0.463315
    0.475029     0.607297     0.465347
    0.578914     0.521571     0.421161
    0.421370     0.475347     0.578239
    0.607480     0.506433     0.530128
    0.392235     0.496649     0.470471
    0.467895     0.571542     0.415403
    0.544021     0.606072     0.506876
    0.481090     0.460676     0.392980
    0.561393     0.409766     0.465577
    0.521829     0.539762     0.606257
    0.456778     0.393423     0.496124
    0.529185     0.428019     0.585360
    0.437808     0.590739     0.531423
EA25   19.675 20.258 19.736 90.00 90.00 90.00 Sym.group:    0
1.0000
   19.675313     0.000000     0.000000
    0.000000    20.257905     0.000000
    0.000000     0.000000    19.736235
   O  Cu
  24   24 
Direct
    0.349114     0.466802     0.504980
    0.652996     0.478409     0.492414
    0.570182     0.536022     0.367525
    0.427708     0.518767     0.635081
    0.543892     0.632703     0.442171
    0.597164     0.425756     0.592854
    0.583907     0.375561     0.477625
    0.543769     0.569313     0.629794
    0.446245     0.623384     0.570009
    0.450583     0.577331     0.377181
    0.425955     0.368352     0.510194
    0.408483     0.427600     0.400171
    0.650886     0.533198     0.495020
    0.347004     0.521591     0.507586
    0.429818     0.463978     0.632475
    0.572292     0.481233     0.364919
    0.456108     0.367297     0.557829
    0.402836     0.574244     0.407146
    0.416093     0.624439     0.522375
    0.456231     0.430687     0.370206
    0.553755     0.376616     0.429991
    0.549417     0.422669     0.622819
    0.574045     0.631648     0.489806
    0.591517     0.572400     0.599829
    0.643553     0.375984     0.378784
    0.366785     0.355562     0.608447
    0.331091     0.624903     0.581157
    0.658571     0.643550     0.431611
    0.452882     0.330547     0.362455
    0.522472     0.487864     0.274788
    0.587272     0.672049     0.612345
    0.286741     0.518812     0.423805
    0.560468     0.322781     0.621056
    0.711485     0.527263     0.578387
    0.399378     0.674623     0.404143
    0.479302     0.466061     0.723021
    0.356447     0.624016     0.621216
    0.633215     0.644438     0.391553
    0.668909     0.375097     0.418843
    0.341429     0.356450     0.568389
    0.547118     0.669453     0.637545
    0.477528     0.512136     0.725212
    0.412728     0.327951     0.387655
    0.713259     0.481188     0.576195
    0.439532     0.677219     0.378944
    0.288515     0.472737     0.421613
    0.600622     0.325377     0.595857
    0.520698     0.533939     0.276979
EA26   25.652 18.813 18.813 90.00 90.00 90.00 Sym.group:    0
1.0000
   25.651511     0.000000     0.000000
    0.000000    18.813381     0.000000
    0.000000     0.000000    18.813381
   O  Cu
  24   24 
Direct
    0.731168     0.532821     0.561117
    0.731168     0.467179     0.438883
    0.268832     0.506789     0.430961
    0.268832     0.493211     0.569039
    0.731168     0.430961     0.493211
    0.731168     0.569039     0.506789
    0.268832     0.438883     0.532821
    0.268832     0.561117     0.467179
    0.753621     0.471488     0.542768
    0.753621     0.528512     0.457232
    0.246379     0.457232     0.471488
    0.246379     0.542768     0.528512
    0.536565     0.610836     0.411944
    0.536565     0.389164     0.588056
    0.463435     0.636178     0.538654
    0.463435     0.363822     0.461346
    0.536565     0.538654     0.363822
    0.536565     0.461346     0.636178
    0.463435     0.588056     0.610836
    0.463435     0.411944     0.389164
    0.342620     0.552757     0.420864
    0.342620     0.447243     0.579136
    0.657380     0.579136     0.552757
    0.657380     0.420864     0.447243
    0.598092     0.553001     0.420498
    0.598092     0.446999     0.579502
    0.401908     0.579502     0.553001
    0.401908     0.420498     0.446999
    0.679598     0.417150     0.481302
    0.679598     0.582850     0.518698
    0.320402     0.430715     0.549126
    0.320402     0.569285     0.450874
    0.679598     0.549126     0.569285
    0.679598     0.450874     0.430715
    0.320402     0.518698     0.417150
    0.320402     0.481302     0.582850
    0.568638     0.544572     0.529715
    0.568638     0.455428     0.470285
    0.431362     0.529715     0.455428
    0.431362     0.470285     0.544572
    0.519731     0.547102     0.429348
    0.519731     0.452898     0.570652
    0.480269     0.570652     0.547102
    0.480269     0.429348     0.452898
    0.500000     0.532814     0.664069
    0.500000     0.335931     0.532814
    0.500000     0.467186     0.335931
    0.500000     0.664069     0.467186
EA27   19.318 19.754 19.754 90.00 90.00 90.00 Sym.group:    0
1.0000
   19.318095     0.000000     0.000000
    0.000000    19.754196     0.000000
    0.000000     0.000000    19.754196
   O  Cu
  24   24 
Direct
    0.672846     0.486679     0.428068
    0.672846     0.513321     0.571932
    0.327154     0.571932     0.486679
    0.327154     0.428068     0.513321
    0.381910     0.555703     0.489685
    0.381910     0.444297     0.510315
    0.618090     0.489685     0.444297
    0.618090     0.510315     0.555703
    0.590980     0.366705     0.587098
    0.590980     0.633295     0.412902
    0.409020     0.466409     0.655645
    0.409020     0.533591     0.344355
    0.590980     0.655645     0.533591
    0.590980     0.344355     0.466409
    0.409020     0.412902     0.366705
    0.409020     0.587098     0.633295
    0.385747     0.629009     0.570849
    0.385747     0.370991     0.429151
    0.614253     0.387652     0.404916
    0.614253     0.612348     0.595084
    0.385747     0.404916     0.612348
    0.385747     0.595084     0.387652
    0.614253     0.429151     0.629009
    0.614253     0.570849     0.370991
    0.482928     0.509409     0.550806
    0.482928     0.490591     0.449194
    0.517072     0.449194     0.509409
    0.517072     0.550806     0.490591
    0.579802     0.417318     0.579846
    0.579802     0.582682     0.420154
    0.420198     0.455057     0.605791
    0.420198     0.544943     0.394209
    0.579802     0.605791     0.544943
    0.579802     0.394209     0.455057
    0.420198     0.420154     0.417318
    0.420198     0.579846     0.582682
    0.331454     0.573693     0.558073
    0.331454     0.426307     0.441927
    0.668546     0.419389     0.451989
    0.668546     0.580611     0.548011
    0.331454     0.451989     0.580611
    0.331454     0.548011     0.419389
    0.668546     0.441927     0.573693
    0.668546     0.558073     0.426307
    0.500000     0.680068     0.623797
    0.500000     0.376203     0.680068
    0.500000     0.319932     0.376203
    0.500000     0.623797     0.319932
EA28   27.333 27.901 13.878 90.00 90.00 90.00 Sym.group:    0
1.0000
   27.332546     0.000000     0.000000
    0.000000    27.900650     0.000000
    0.000000     0.000000    13.878071
   O  Cu
  24   24 
Direct
    0.545647     0.656474     0.518409
    0.615503     0.383036     0.518409
    0.338849     0.460489     0.518409
    0.469051     0.694396     0.521294
    0.687325     0.429058     0.521294
    0.343624     0.376545     0.521294
    0.468390     0.268149     0.527236
    0.310842     0.642743     0.527236
    0.720767     0.589108     0.527236
    0.628087     0.646832     0.507451
    0.565759     0.317916     0.507451
    0.306154     0.535252     0.507451
    0.555731     0.521297     0.457798
    0.490962     0.442071     0.457798
    0.453308     0.536632     0.457798
    0.418568     0.224888     0.515023
    0.297510     0.706642     0.515023
    0.783922     0.568470     0.515023
    0.614359     0.727729     0.467589
    0.644139     0.289114     0.467589
    0.241502     0.483156     0.467589
    0.386711     0.517684     0.531375
    0.572277     0.587272     0.531375
    0.541012     0.395044     0.531375
    0.218818     0.569377     0.493114
    0.701922     0.703863     0.493114
    0.579260     0.226760     0.493114
    0.640932     0.573892     0.503833
    0.494856     0.343489     0.503833
    0.364211     0.582620     0.503833
    0.472056     0.480833     0.518097
    0.497028     0.533291     0.518097
    0.530917     0.485876     0.518097
    0.424237     0.314437     0.498110
    0.373839     0.657059     0.498110
    0.701924     0.528505     0.498110
    0.619716     0.548051     0.522311
    0.482620     0.374408     0.522311
    0.397664     0.577541     0.522311
    0.602768     0.299527     0.516877
    0.271393     0.513048     0.516877
    0.625838     0.687424     0.516877
    0.418353     0.654508     0.459320
    0.677413     0.492015     0.459320
    0.404235     0.353477     0.459320
    0.533318     0.421242     0.442164
    0.413717     0.511113     0.442164
    0.552965     0.567645     0.442164
EA29   21.612 19.622 17.441 90.00 90.00 90.00 Sym.group:    0
1.0000
   21.612216     0.000000     0.000000
    0.000000    19.621896     0.000000
    0.000000     0.000000    17.440503
   O  Cu
  24   24 
Direct
    0.511827     0.322089     0.510645
    0.488173     0.677911     0.489355
    0.657366     0.506951     0.446909
    0.342634     0.493049     0.553091
    0.365050     0.489716     0.608809
    0.634950     0.510284     0.391191
    0.549303     0.645009     0.505244
    0.450697     0.354991     0.494756
    0.442073     0.388699     0.596197
    0.557927     0.611301     0.403803
    0.556669     0.656133     0.571401
    0.443331     0.343867     0.428599
    0.661170     0.564046     0.575708
    0.338830     0.435954     0.424292
    0.572812     0.410050     0.396289
    0.427188     0.589950     0.603711
    0.379836     0.591391     0.404286
    0.620164     0.408609     0.595714
    0.477416     0.353852     0.547830
    0.522584     0.646148     0.452170
    0.563362     0.548179     0.433494
    0.436638     0.451821     0.566506
    0.620900     0.632164     0.568374
    0.379100     0.367836     0.431626
    0.481442     0.447697     0.575359
    0.518558     0.552303     0.424641
    0.652388     0.447631     0.621090
    0.347612     0.552369     0.378910
    0.707573     0.544298     0.504454
    0.292427     0.455702     0.495546
    0.628642     0.457430     0.495003
    0.371358     0.542570     0.504997
    0.660511     0.377042     0.457645
    0.339489     0.622958     0.542355
    0.371856     0.452038     0.552582
    0.628144     0.547962     0.447418
    0.527665     0.489076     0.408088
    0.472335     0.510924     0.591912
    0.418197     0.501930     0.637625
    0.581803     0.498070     0.362375
    0.319444     0.531446     0.429071
    0.680556     0.468554     0.570929
    0.429196     0.545992     0.521338
    0.570804     0.454008     0.478662
    0.428041     0.488403     0.393335
    0.571959     0.511597     0.606665
    0.612931     0.389276     0.465344
    0.387069     0.610724     0.534656
EA30   20.273 20.273 20.273 90.00 90.00 90.00 Sym.group:    0
1.0000
   20.273233     0.000000     0.000000
    0.000000    20.273233     0.000000
    0.000000     0.000000    20.273233
   O  Cu
  24   24 
Direct
    0.539898     0.684248     0.543993
    0.441025     0.320944     0.456007
    0.558975     0.679056     0.456007
    0.460102     0.315752     0.543993
    0.454955     0.502014     0.311741
    0.670100     0.408114     0.509886
    0.545045     0.497986     0.311741
    0.306795     0.506987     0.490114
    0.460147     0.521091     0.688259
    0.329900     0.591886     0.509886
    0.539853     0.478909     0.688259
    0.693205     0.493013     0.490114
    0.661003     0.586931     0.413931
    0.594745     0.343467     0.586069
    0.405255     0.656533     0.586069
    0.338997     0.413069     0.413931
    0.617850     0.605273     0.373840
    0.644334     0.549919     0.367475
    0.382150     0.394727     0.373840
    0.400869     0.616178     0.632525
    0.548248     0.349524     0.626160
    0.355666     0.450081     0.367475
    0.451752     0.650476     0.626160
    0.599131     0.383822     0.632525
    0.473521     0.358286     0.388837
    0.548989     0.635589     0.611163
    0.451011     0.364411     0.611163
    0.526479     0.641714     0.388837
    0.610325     0.482064     0.643694
    0.390539     0.644996     0.488335
    0.389675     0.517936     0.643694
    0.667842     0.569528     0.511665
    0.604199     0.459553     0.356306
    0.609461     0.355004     0.488335
    0.395801     0.540447     0.356306
    0.332158     0.430472     0.511665
    0.579182     0.648344     0.559532
    0.493086     0.331989     0.440468
    0.506914     0.668011     0.440468
    0.420818     0.351656     0.559532
    0.452391     0.551767     0.336070
    0.642545     0.399509     0.462552
    0.547609     0.448233     0.336070
    0.326190     0.485604     0.537448
    0.432723     0.479499     0.663930
    0.357455     0.600491     0.462552
    0.567277     0.520501     0.663930
    0.673810     0.514396     0.537448
EA31   22.395 19.510 17.571 90.00 90.00 90.00 Sym.group:    0
1.0000
   22.395419     0.000000     0.000000
    0.000000    19.510460     0.000000
    0.000000     0.000000    17.571064
   O  Cu
  24   24 
Direct
    0.602410     0.426376     0.405148
    0.602410     0.573624     0.594852
    0.394760     0.426376     0.594852
    0.394760     0.573624     0.405148
    0.446710     0.536972     0.481361
    0.446710     0.463028     0.518639
    0.550460     0.536972     0.518639
    0.550460     0.463028     0.481361
    0.370543     0.536432     0.415348
    0.370543     0.463568     0.584652
    0.626627     0.536432     0.584652
    0.626627     0.463568     0.415348
    0.592162     0.551208     0.557793
    0.592162     0.448792     0.442207
    0.405008     0.551208     0.442207
    0.405008     0.448792     0.557793
    0.467514     0.619392     0.384943
    0.467514     0.380608     0.615057
    0.529656     0.619392     0.615057
    0.529656     0.380608     0.384943
    0.604319     0.676071     0.487002
    0.604319     0.323929     0.512998
    0.392851     0.676071     0.512998
    0.392851     0.323929     0.487002
    0.338079     0.500000     0.500000
    0.332403     0.395183     0.453469
    0.332403     0.604817     0.546531
    0.664768     0.395183     0.546531
    0.664768     0.604817     0.453469
    0.601376     0.657427     0.557816
    0.601376     0.342573     0.442184
    0.395794     0.657427     0.442184
    0.395794     0.342573     0.557816
    0.291407     0.503872     0.575164
    0.291407     0.496128     0.424836
    0.705763     0.503872     0.424836
    0.705763     0.496128     0.575164
    0.727006     0.500000     0.500000
    0.685522     0.376210     0.483455
    0.685522     0.623790     0.516545
    0.311648     0.376210     0.516545
    0.311648     0.623790     0.483455
    0.374861     0.614214     0.410427
    0.374861     0.385786     0.589573
    0.622309     0.614214     0.589573
    0.622309     0.385786     0.410427
    0.498585     0.500000     0.359682
    0.498585     0.500000     0.640318
EA32   24.022 25.737 14.046 90.00 90.00 90.00 Sym.group:    0
1.0000
   24.021613     0.000000     0.000000
    0.000000    25.737016     0.000000
    0.000000     0.000000    14.045839
   O  Cu
  24   24 
Direct
    0.421029     0.538192     0.534336
    0.495951     0.582929     0.534336
    0.574923     0.544737     0.534336
    0.578971     0.461808     0.534336
    0.504049     0.417071     0.534336
    0.425077     0.455263     0.534336
    0.533673     0.553927     0.434247
    0.566874     0.499745     0.434247
    0.533201     0.445818     0.434247
    0.466327     0.446073     0.434247
    0.433126     0.500255     0.434247
    0.466799     0.554182     0.434247
    0.344643     0.439438     0.489202
    0.366128     0.595295     0.489202
    0.521486     0.655857     0.489202
    0.655357     0.560562     0.489202
    0.633872     0.404705     0.489202
    0.478514     0.344143     0.489202
    0.338517     0.605738     0.465018
    0.517370     0.683396     0.465018
    0.678853     0.577657     0.465018
    0.661483     0.394262     0.465018
    0.482630     0.316604     0.465018
    0.321147     0.422343     0.465018
    0.317893     0.470704     0.528158
    0.381763     0.632550     0.528158
    0.563871     0.661845     0.528158
    0.682107     0.529296     0.528158
    0.618237     0.367450     0.528158
    0.436129     0.338155     0.528158
    0.772607     0.501876     0.514700
    0.638045     0.280590     0.514700
    0.365438     0.278712     0.514700
    0.227393     0.498124     0.514700
    0.361955     0.719410     0.514700
    0.634562     0.721288     0.514700
    0.562687     0.365830     0.502022
    0.406851     0.382245     0.502022
    0.344163     0.516415     0.502022
    0.437313     0.634170     0.502022
    0.593149     0.617755     0.502022
    0.655837     0.483585     0.502022
    0.339595     0.375775     0.532317
    0.304533     0.567543     0.532317
    0.464938     0.691769     0.532317
    0.660405     0.624225     0.532317
    0.695467     0.432457     0.532317
    0.535062     0.308231     0.532317
EA33   20.319 21.028 16.143 90.00 90.00 90.00 Sym.group:    0
1.0000
   20.319498     0.000000     0.000000
    0.000000    21.028258     0.000000
    0.000000     0.000000    16.142855
   O  Cu
  24   24 
Direct
    0.669603     0.375332     0.455714
    0.330397     0.624668     0.455714
    0.330397     0.375332     0.544286
    0.669603     0.624668     0.544286
    0.669603     0.375332     0.544286
    0.330397     0.624668     0.544286
    0.330397     0.375332     0.455714
    0.669603     0.624668     0.455714
    0.532469     0.469299     0.608496
    0.467531     0.530701     0.608496
    0.467531     0.469299     0.391504
    0.532469     0.530701     0.391504
    0.532469     0.469299     0.391504
    0.467531     0.530701     0.391504
    0.467531     0.469299     0.608496
    0.532469     0.530701     0.608496
    0.321755     0.311401     0.524787
    0.678245     0.688599     0.524787
    0.678245     0.311401     0.475213
    0.321755     0.688599     0.475213
    0.321755     0.311401     0.475213
    0.678245     0.688599     0.475213
    0.678245     0.311401     0.524787
    0.321755     0.688599     0.524787
    0.414460     0.415321     0.580745
    0.585540     0.584679     0.580745
    0.585540     0.415321     0.419255
    0.414460     0.584679     0.419255
    0.414460     0.415321     0.419255
    0.585540     0.584679     0.419255
    0.585540     0.415321     0.580745
    0.414460     0.584679     0.580745
    0.688969     0.443014     0.440335
    0.311031     0.556986     0.440335
    0.311031     0.443014     0.559665
    0.688969     0.556986     0.559665
    0.688969     0.443014     0.559665
    0.311031     0.556986     0.559665
    0.311031     0.443014     0.440335
    0.688969     0.556986     0.440335
    0.500000     0.500000     0.405151
    0.500000     0.500000     0.594849
    0.458442     0.300548     0.500000
    0.541558     0.699452     0.500000
    0.541558     0.300548     0.500000
    0.458442     0.699452     0.500000
    0.676194     0.500000     0.500000
    0.323806     0.500000     0.500000
EA34   20.141 18.496 18.496 90.00 90.00 90.00 Sym.group:    0
1.0000
   20.141304     0.000000     0.000000
    0.000000    18.495784     0.000000
    0.000000     0.000000    18.495784
   O  Cu
  24   24 
Direct
    0.393995     0.637181     0.489714
    0.393995     0.489714     0.362819
    0.393995     0.362819     0.510286
    0.393995     0.510286     0.637181
    0.491226     0.341700     0.490979
    0.491226     0.490979     0.658300
    0.491226     0.658300     0.509021
    0.491226     0.509021     0.341700
    0.562741     0.438926     0.415511
    0.562741     0.415511     0.561074
    0.562741     0.561074     0.584489
    0.562741     0.584489     0.438926
    0.739888     0.513867     0.427160
    0.739888     0.427160     0.486133
    0.739888     0.486133     0.572840
    0.739888     0.572840     0.513867
    0.499720     0.562912     0.474042
    0.499720     0.474042     0.437088
    0.499720     0.437088     0.525958
    0.499720     0.525958     0.562912
    0.371003     0.516388     0.450520
    0.371003     0.450520     0.483612
    0.371003     0.483612     0.549480
    0.371003     0.549480     0.516388
    0.523063     0.414994     0.353545
    0.523063     0.353545     0.585006
    0.523063     0.585006     0.646455
    0.523063     0.646455     0.414994
    0.576920     0.454464     0.514555
    0.576920     0.514555     0.545536
    0.576920     0.545536     0.485445
    0.576920     0.485445     0.454464
    0.616346     0.556200     0.547212
    0.616346     0.547212     0.443800
    0.616346     0.443800     0.452788
    0.616346     0.452788     0.556200
    0.390062     0.384116     0.427121
    0.390062     0.427121     0.615884
    0.390062     0.615884     0.572879
    0.390062     0.572879     0.384116
    0.467581     0.411289     0.610870
    0.467581     0.610870     0.588711
    0.467581     0.588711     0.389130
    0.467581     0.389130     0.411289
    0.367455     0.476545     0.410195
    0.367455     0.410195     0.523455
    0.367455     0.523455     0.589805
    0.367455     0.589805     0.476545
EA35   19.394 19.425 18.024 90.00 90.00 90.00 Sym.group:    0
1.0000
   19.394176     0.000000     0.000000
    0.000000    19.424811     0.000000
    0.000000     0.000000    18.023707
   O  Cu
  24   24 
Direct
    0.366765     0.565297     0.496817
    0.521028     0.646692     0.496817
    0.646231     0.525363     0.496817
    0.569348     0.368983     0.496817
    0.396628     0.393663     0.496817
    0.461428     0.643096     0.496817
    0.351773     0.507593     0.496817
    0.446963     0.361598     0.496817
    0.615448     0.406869     0.496817
    0.624388     0.580845     0.496817
    0.424278     0.591847     0.672063
    0.564090     0.600284     0.672063
    0.615331     0.470132     0.672063
    0.507188     0.381257     0.672063
    0.389111     0.456481     0.672063
    0.587908     0.586157     0.468763
    0.609234     0.443150     0.468763
    0.479603     0.378708     0.468763
    0.378160     0.481887     0.468763
    0.445096     0.610097     0.468763
    0.398419     0.430428     0.468763
    0.534882     0.382044     0.468763
    0.623139     0.496672     0.468763
    0.541222     0.615898     0.468763
    0.402338     0.574958     0.468763
    0.409082     0.464318     0.373361
    0.437916     0.575306     0.373361
    0.552548     0.582224     0.373361
    0.594560     0.475511     0.373361
    0.505894     0.402643     0.373361
    0.556874     0.485271     0.499264
    0.503545     0.441443     0.499264
    0.445316     0.478539     0.499264
    0.462659     0.545293     0.499264
    0.531605     0.549454     0.499264
    0.574417     0.529206     0.426991
    0.550816     0.438362     0.426991
    0.456990     0.432700     0.426991
    0.422602     0.520044     0.426991
    0.495176     0.579688     0.426991
    0.511210     0.314820     0.575094
    0.327069     0.432131     0.575094
    0.381912     0.643235     0.575094
    0.599948     0.656393     0.575094
    0.679860     0.453421     0.575094
    0.500000     0.500000     0.414123
    0.500000     0.500000     0.549203
    0.500000     0.500000     0.647009
EA36   21.138 21.087 16.914 90.00 90.00 90.00 Sym.group:    0
1.0000
   21.137695     0.000000     0.000000
    0.000000    21.086608     0.000000
    0.000000     0.000000    16.914335
   O  Cu
  24   24 
Direct
    0.519330     0.609101     0.373648
    0.603921     0.537769     0.373648
    0.584591     0.428669     0.373648
    0.480670     0.390899     0.373648
    0.396079     0.462231     0.373648
    0.415409     0.571331     0.373648
    0.389690     0.507157     0.626352
    0.438662     0.407816     0.626352
    0.548971     0.400660     0.626352
    0.610310     0.492843     0.626352
    0.561338     0.592184     0.626352
    0.451029     0.599340     0.626352
    0.519330     0.609101     0.626352
    0.603921     0.537769     0.626352
    0.584591     0.428669     0.626352
    0.480670     0.390899     0.626352
    0.396079     0.462231     0.626352
    0.415409     0.571331     0.626352
    0.389690     0.507157     0.373648
    0.438662     0.407816     0.373648
    0.548971     0.400660     0.373648
    0.610310     0.492843     0.373648
    0.561338     0.592184     0.373648
    0.451029     0.599340     0.373648
    0.489394     0.574580     0.500000
    0.559130     0.546498     0.500000
    0.569735     0.471917     0.500000
    0.510606     0.425420     0.500000
    0.440870     0.453502     0.500000
    0.430265     0.528083     0.500000
    0.692149     0.566674     0.500000
    0.653676     0.366527     0.500000
    0.461526     0.299854     0.500000
    0.307851     0.433326     0.500000
    0.346324     0.633473     0.500000
    0.538474     0.700146     0.500000
    0.389650     0.328799     0.500000
    0.592731     0.318602     0.500000
    0.703081     0.489803     0.500000
    0.610350     0.671201     0.500000
    0.407269     0.681398     0.500000
    0.296919     0.510197     0.500000
    0.471781     0.698439     0.500000
    0.657329     0.623717     0.500000
    0.685548     0.425278     0.500000
    0.528219     0.301561     0.500000
    0.342671     0.376283     0.500000
    0.314452     0.574722     0.500000
EA37   20.233 19.656 20.233 90.00 90.00 90.00 Sym.group:    0
1.0000
   20.233231     0.000000     0.000000
    0.000000    19.655913     0.000000
    0.000000     0.000000    20.233231
   O  Cu
  24   24 
Direct
    0.682099     0.475830     0.502908
    0.611555     0.424061     0.625828
    0.327339     0.477609     0.441392
    0.379007     0.622501     0.429872
    0.437159     0.654469     0.585160
    0.399225     0.343442     0.520796
    0.596388     0.399515     0.377935
    0.617966     0.571747     0.377747
    0.447307     0.384918     0.364190
    0.445462     0.406630     0.650059
    0.519146     0.561098     0.672714
    0.537347     0.678181     0.451398
    0.621458     0.465358     0.633549
    0.672196     0.434531     0.495188
    0.344995     0.480658     0.403356
    0.361351     0.619453     0.467908
    0.515170     0.667939     0.417098
    0.459581     0.353863     0.390770
    0.475392     0.378623     0.638602
    0.479314     0.547806     0.676451
    0.369296     0.371448     0.532253
    0.584115     0.430570     0.351356
    0.640143     0.581990     0.412047
    0.476990     0.667760     0.581424
    0.651578     0.342699     0.490042
    0.652325     0.553697     0.643187
    0.380489     0.499107     0.320716
    0.315609     0.604497     0.546055
    0.565399     0.692675     0.584346
    0.307268     0.430179     0.568413
    0.548578     0.490734     0.290272
    0.683500     0.615365     0.486069
    0.496643     0.286175     0.442852
    0.531998     0.311169     0.608404
    0.389380     0.530416     0.682529
    0.477233     0.643287     0.337114
    0.599579     0.333721     0.602065
    0.704324     0.562675     0.531165
    0.286444     0.482870     0.523318
    0.409653     0.620734     0.343453
    0.595355     0.697847     0.519811
    0.431269     0.451589     0.301277
    0.372580     0.460346     0.669430
    0.601545     0.601214     0.662625
    0.466687     0.281002     0.507388
    0.613952     0.325320     0.431848
    0.565378     0.560804     0.303371
    0.353234     0.621876     0.604250
EA38   17.968 18.986 19.098 90.00 90.00 90.00 Sym.group:    0
1.0000
   17.968057     0.000000     0.000000
    0.000000    18.986298     0.000000
    0.000000     0.000000    19.097759
   O  Cu
  24   24 
Direct
    0.624975     0.399549     0.505007
    0.624975     0.545864     0.411011
    0.624975     0.554587     0.583982
    0.371818     0.526481     0.596463
    0.371818     0.570789     0.428969
    0.371818     0.402731     0.474568
    0.350132     0.611212     0.491681
    0.350132     0.451641     0.599910
    0.350132     0.437147     0.408409
    0.646661     0.473336     0.392340
    0.646661     0.419548     0.576787
    0.646661     0.607116     0.530873
    0.555209     0.542187     0.334548
    0.555209     0.623034     0.619048
    0.555209     0.334780     0.546404
    0.441584     0.645024     0.408644
    0.441584     0.347906     0.420816
    0.441584     0.507069     0.670540
    0.630507     0.500000     0.500000
    0.443264     0.500000     0.500000
    0.415522     0.624459     0.368054
    0.415522     0.552710     0.673129
    0.415522     0.322831     0.458818
    0.581271     0.587388     0.341344
    0.581271     0.318099     0.504090
    0.581271     0.594513     0.654566
    0.622917     0.355049     0.550098
    0.622917     0.528835     0.350152
    0.622917     0.616116     0.599749
    0.373876     0.497229     0.652540
    0.373876     0.634265     0.426115
    0.373876     0.368506     0.421345
    0.566021     0.594945     0.437652
    0.566021     0.506839     0.612920
    0.566021     0.398216     0.449428
    0.430772     0.530045     0.390891
    0.430772     0.389931     0.528686
    0.430772     0.580023     0.580423
    0.498396     0.536547     0.581347
    0.498396     0.410865     0.490792
    0.498396     0.552588     0.427861
    0.592040     0.473983     0.464699
    0.592040     0.543759     0.495250
    0.592040     0.482258     0.540050
    0.404752     0.541842     0.513592
    0.404752     0.490919     0.457178
    0.404752     0.467238     0.529229
    0.498396     0.500000     0.500000
EA39   20.031 20.031 19.927 90.00 90.00 90.00 Sym.group:    0
1.0000
   20.031347     0.000000     0.000000
    0.000000    20.031347     0.000000
    0.000000     0.000000    19.926600
   O  Cu
  24   24 
Direct
    0.311209     0.368494     0.491421
    0.508534     0.368494     0.310217
    0.688791     0.368494     0.508579
    0.491466     0.368494     0.689783
    0.608665     0.318120     0.590585
    0.656478     0.631506     0.606525
    0.359022     0.681880     0.507360
    0.368761     0.448674     0.316971
    0.343522     0.631506     0.393475
    0.285970     0.551326     0.567925
    0.605968     0.631506     0.342699
    0.394032     0.631506     0.657301
    0.640978     0.681880     0.492640
    0.391335     0.318120     0.409415
    0.631239     0.448674     0.683029
    0.714030     0.551326     0.432075
    0.507322     0.681880     0.641718
    0.682072     0.448674     0.368071
    0.590112     0.318120     0.390764
    0.432430     0.551326     0.284845
    0.492678     0.681880     0.358282
    0.567570     0.551326     0.715155
    0.409888     0.318120     0.609236
    0.317928     0.448674     0.631929
    0.688791     0.631506     0.508579
    0.491466     0.631506     0.689783
    0.311209     0.631506     0.491421
    0.508534     0.631506     0.310217
    0.391335     0.681880     0.409415
    0.343522     0.368494     0.393475
    0.640978     0.318120     0.492640
    0.631239     0.551326     0.683029
    0.656478     0.368494     0.606525
    0.714030     0.448674     0.432075
    0.394032     0.368494     0.657301
    0.605968     0.368494     0.342699
    0.359022     0.318120     0.507360
    0.608665     0.681880     0.590585
    0.368761     0.551326     0.316971
    0.285970     0.448674     0.567925
    0.492678     0.318120     0.358282
    0.317928     0.551326     0.631929
    0.409888     0.681880     0.609236
    0.567570     0.448674     0.715155
    0.507322     0.318120     0.641718
    0.432430     0.448674     0.284845
    0.590112     0.681880     0.390764
    0.682072     0.551326     0.368071
EA40   18.973 18.995 13.810 90.00 90.00 90.00 Sym.group:    0
1.0000
   18.973342     0.000000     0.000000
    0.000000    18.995393     0.000000
    0.000000     0.000000    13.810174
   O  Cu
  24   24 
Direct
    0.597395     0.504797     0.500000
    0.552856     0.418150     0.500000
    0.455462     0.413352     0.500000
    0.402605     0.495203     0.500000
    0.447144     0.581850     0.500000
    0.544538     0.586648     0.500000
    0.374926     0.387810     0.500000
    0.340190     0.552096     0.500000
    0.465264     0.664286     0.500000
    0.625074     0.612190     0.500000
    0.659810     0.447904     0.500000
    0.534736     0.335714     0.500000
    0.346098     0.432452     0.500000
    0.481615     0.333097     0.500000
    0.635517     0.400645     0.500000
    0.653902     0.567548     0.500000
    0.518385     0.666903     0.500000
    0.364483     0.599355     0.500000
    0.460869     0.626126     0.457634
    0.589789     0.596911     0.457634
    0.628920     0.470786     0.457634
    0.539131     0.373874     0.457634
    0.410211     0.403089     0.457634
    0.371080     0.529214     0.457634
    0.598899     0.412383     0.542366
    0.625417     0.541741     0.542366
    0.526517     0.629359     0.542366
    0.401101     0.587617     0.542366
    0.374583     0.458259     0.542366
    0.473483     0.370641     0.542366
    0.460869     0.626126     0.542366
    0.589789     0.596911     0.542366
    0.628920     0.470786     0.542366
    0.539131     0.373874     0.542366
    0.410211     0.403089     0.542366
    0.371080     0.529214     0.542366
    0.598899     0.412383     0.457634
    0.625417     0.541741     0.457634
    0.526517     0.629359     0.457634
    0.401101     0.587617     0.457634
    0.374583     0.458259     0.457634
    0.473483     0.370641     0.457634
    0.337066     0.491974     0.500000
    0.411574     0.636929     0.500000
    0.574510     0.644955     0.500000
    0.662934     0.508026     0.500000
    0.588426     0.363071     0.500000
    0.425490     0.355045     0.500000
EA41   25.016 17.299 17.017 90.00 90.00 90.00 Sym.group:    0
1.0000
   25.015971     0.000000     0.000000
    0.000000    17.298571     0.000000
    0.000000     0.000000    17.016964
   O  Cu
  24   24 
Direct
    0.693984     0.500000     0.500000
    0.531739     0.507851     0.627527
    0.531739     0.604718     0.429325
    0.531739     0.387430     0.443148
    0.311635     0.427045     0.524156
    0.311635     0.557057     0.552149
    0.311635     0.515899     0.423696
    0.356170     0.541104     0.529371
    0.356170     0.504471     0.449128
    0.356170     0.454425     0.521501
    0.718404     0.481766     0.568566
    0.718404     0.567531     0.481770
    0.718404     0.450704     0.449664
    0.676086     0.571264     0.453135
    0.676086     0.424443     0.460695
    0.676086     0.504293     0.586170
    0.551577     0.472337     0.361661
    0.551577     0.395977     0.593522
    0.551577     0.631686     0.544816
    0.540252     0.484576     0.575479
    0.540252     0.572015     0.475840
    0.540252     0.443409     0.448681
    0.731494     0.500000     0.500000
    0.465958     0.563834     0.379257
    0.465958     0.365219     0.504175
    0.465958     0.570947     0.616568
    0.377435     0.463183     0.392737
    0.377435     0.427028     0.586043
    0.377435     0.609788     0.521219
    0.236771     0.404985     0.481659
    0.236771     0.531882     0.592817
    0.236771     0.563132     0.425524
    0.440598     0.530667     0.605045
    0.440598     0.574158     0.420480
    0.440598     0.395176     0.474475
    0.581550     0.408868     0.501599
    0.581550     0.546928     0.579430
    0.581550     0.544204     0.418972
    0.442856     0.620737     0.471701
    0.442856     0.415522     0.407858
    0.442856     0.463741     0.620442
    0.597136     0.598465     0.557232
    0.597136     0.499525     0.384700
    0.597136     0.402010     0.558068
    0.271156     0.500000     0.500000
    0.606288     0.607637     0.430925
    0.606288     0.387334     0.439778
    0.606288     0.505028     0.629297
EA42   25.227 17.402 17.402 90.00 90.00 90.00 Sym.group:    0
1.0000
   25.227163     0.000000     0.000000
    0.000000    17.402034     0.000000
    0.000000     0.000000    17.402034
   O  Cu
  24   24 
Direct
    0.709377     0.556176     0.552428
    0.290623     0.552428     0.443824
    0.709377     0.443824     0.447572
    0.290623     0.447572     0.556176
    0.392614     0.594023     0.400533
    0.607386     0.400533     0.405977
    0.392614     0.405977     0.599467
    0.607386     0.599467     0.594023
    0.512356     0.562496     0.548268
    0.487644     0.548268     0.437504
    0.512356     0.437504     0.451732
    0.487644     0.451732     0.562496
    0.250524     0.497363     0.469984
    0.749476     0.469984     0.502637
    0.250524     0.502637     0.530016
    0.749476     0.530016     0.497363
    0.449788     0.493187     0.602474
    0.550212     0.602474     0.506813
    0.449788     0.506813     0.397526
    0.550212     0.397526     0.493187
    0.495431     0.463991     0.636824
    0.504569     0.636824     0.536009
    0.495431     0.536009     0.363176
    0.504569     0.363176     0.463991
    0.426642     0.434529     0.567398
    0.573358     0.567398     0.565471
    0.426642     0.565471     0.432602
    0.573358     0.432602     0.434529
    0.382409     0.413666     0.421775
    0.617591     0.421775     0.586334
    0.382409     0.586334     0.578225
    0.617591     0.578225     0.413666
    0.458402     0.502102     0.458993
    0.541598     0.458993     0.497898
    0.458402     0.497898     0.541007
    0.541598     0.541007     0.502102
    0.535023     0.596024     0.433631
    0.464977     0.433631     0.403976
    0.535023     0.403976     0.566369
    0.464977     0.566369     0.596024
    0.372402     0.526129     0.534948
    0.627598     0.534948     0.473871
    0.372402     0.473871     0.465052
    0.627598     0.465052     0.526129
    0.646375     0.522312     0.554908
    0.353625     0.554908     0.477688
    0.646375     0.477688     0.445092
    0.353625     0.445092     0.522312
EA43   21.455 21.590 16.483 90.00 90.00 90.00 Sym.group:    0
1.0000
   21.455193     0.000000     0.000000
    0.000000    21.589933     0.000000
    0.000000     0.000000    16.482528
   O  Cu
  24   24 
Direct
    0.600700     0.596530     0.428424
    0.533773     0.365071     0.428424
    0.365528     0.538398     0.428424
    0.394950     0.591837     0.428424
    0.472493     0.363673     0.428424
    0.632557     0.544490     0.428424
    0.498827     0.550781     0.609941
    0.544840     0.475619     0.609941
    0.456332     0.473600     0.609941
    0.374657     0.424222     0.527064
    0.496633     0.645762     0.527064
    0.628710     0.430017     0.527064
    0.564018     0.538703     0.565692
    0.501719     0.425553     0.565692
    0.434262     0.535744     0.565692
    0.538510     0.284320     0.497009
    0.292788     0.574697     0.497009
    0.668702     0.640983     0.497009
    0.471489     0.282791     0.497009
    0.703545     0.584067     0.497009
    0.324966     0.633142     0.497009
    0.652790     0.364915     0.506981
    0.305884     0.436048     0.506981
    0.541327     0.699036     0.506981
    0.353609     0.358092     0.506981
    0.696864     0.444966     0.506981
    0.449528     0.696942     0.506981
    0.639707     0.465247     0.450270
    0.399861     0.397141     0.450270
    0.460433     0.637611     0.450270
    0.362044     0.458914     0.450270
    0.604783     0.401816     0.450270
    0.533173     0.639270     0.450270
    0.498019     0.585744     0.580116
    0.575713     0.458832     0.580116
    0.426267     0.455424     0.580116
    0.437545     0.462242     0.460492
    0.498322     0.572629     0.460492
    0.564133     0.465129     0.460492
    0.399211     0.343417     0.557257
    0.413938     0.665032     0.557257
    0.686851     0.491550     0.557257
    0.607912     0.348178     0.557257
    0.578352     0.668783     0.557257
    0.313735     0.483040     0.557257
    0.454109     0.472256     0.376814
    0.498767     0.553367     0.376814
    0.547124     0.474377     0.376814
EA44   19.954 19.002 17.708 90.00 90.00 90.00 Sym.group:    0
1.0000
   19.954115     0.000000     0.000000
    0.000000    19.001976     0.000000
    0.000000     0.000000    17.708409
   O  Cu
  24   24 
Direct
    0.620115     0.398143     0.500000
    0.644059     0.558307     0.500000
    0.523944     0.660163     0.500000
    0.379885     0.601857     0.500000
    0.355941     0.441693     0.500000
    0.476056     0.339837     0.500000
    0.407838     0.666359     0.454119
    0.316722     0.499366     0.454119
    0.408884     0.333007     0.454119
    0.592162     0.333641     0.454119
    0.683278     0.500634     0.454119
    0.591116     0.666993     0.454119
    0.407838     0.666359     0.545881
    0.316722     0.499366     0.545881
    0.408884     0.333007     0.545881
    0.592162     0.333641     0.545881
    0.683278     0.500634     0.545881
    0.591116     0.666993     0.545881
    0.409419     0.589740     0.643107
    0.380700     0.462494     0.643107
    0.471282     0.372754     0.643107
    0.590581     0.410260     0.643107
    0.619300     0.537506     0.643107
    0.528718     0.627246     0.643107
    0.409419     0.589740     0.356893
    0.380700     0.462494     0.356893
    0.471282     0.372754     0.356893
    0.590581     0.410260     0.356893
    0.619300     0.537506     0.356893
    0.528718     0.627246     0.356893
    0.490489     0.589762     0.637870
    0.421217     0.536231     0.637870
    0.430730     0.446469     0.637870
    0.509511     0.410238     0.637870
    0.578783     0.463769     0.637870
    0.569270     0.553531     0.637870
    0.490489     0.589762     0.362130
    0.421217     0.536231     0.362130
    0.430730     0.446469     0.362130
    0.509511     0.410238     0.362130
    0.578783     0.463769     0.362130
    0.569270     0.553531     0.362130
    0.431513     0.516178     0.500000
    0.452415     0.445805     0.500000
    0.520902     0.429627     0.500000
    0.568487     0.483822     0.500000
    0.547585     0.554195     0.500000
    0.479098     0.570373     0.500000
EA45   26.604 27.895 13.861 90.00 90.00 90.00 Sym.group:    0
1.0000
   26.604323     0.000000     0.000000
    0.000000    27.895214     0.000000
    0.000000     0.000000    13.861303
   O  Cu
  24   24 
Direct
    0.563142     0.559183     0.491813
    0.414689     0.522560     0.491813
    0.522170     0.418257     0.491813
    0.451366     0.429447     0.508187
    0.460252     0.575445     0.508187
    0.588382     0.495108     0.508187
    0.640439     0.642385     0.480636
    0.300488     0.544803     0.480636
    0.559073     0.312812     0.480636
    0.380771     0.340993     0.519364
    0.415229     0.677981     0.519364
    0.704000     0.481026     0.519364
    0.469141     0.697972     0.526622
    0.335662     0.375526     0.526622
    0.695198     0.426502     0.526622
    0.290378     0.490485     0.473378
    0.596172     0.677894     0.473378
    0.613451     0.331620     0.473378
    0.634318     0.673356     0.511240
    0.275425     0.524262     0.511240
    0.590257     0.302382     0.511240
    0.347727     0.340714     0.488760
    0.431497     0.705413     0.488760
    0.720775     0.453873     0.488760
    0.578274     0.380243     0.534751
    0.569607     0.624529     0.534751
    0.352118     0.495228     0.534751
    0.638362     0.449986     0.465249
    0.385404     0.410727     0.465249
    0.476234     0.639287     0.465249
    0.364867     0.599316     0.455946
    0.477383     0.338729     0.455946
    0.657751     0.561955     0.455946
    0.371638     0.607176     0.544054
    0.661502     0.552433     0.544054
    0.466861     0.340391     0.544054
    0.310689     0.638347     0.536306
    0.469029     0.274466     0.536306
    0.720281     0.587187     0.536306
    0.320984     0.650297     0.463694
    0.725984     0.572709     0.463694
    0.453031     0.276995     0.463694
    0.776572     0.638887     0.507270
    0.235598     0.658990     0.507270
    0.487831     0.202123     0.507270
    0.410766     0.214303     0.492730
    0.285191     0.716551     0.492730
    0.804043     0.569146     0.492730
EA46   19.176 19.176 18.720 90.00 90.00 90.00 Sym.group:    0
1.0000
   19.175661     0.000000     0.000000
    0.000000    19.175661     0.000000
    0.000000     0.000000    18.720132
   O  Cu
  24   24 
Direct
    0.400109     0.444649     0.500000
    0.555351     0.400109     0.500000
    0.599891     0.555351     0.500000
    0.444649     0.599891     0.500000
    0.626492     0.432069     0.368828
    0.567931     0.626492     0.368828
    0.373508     0.567931     0.368828
    0.432069     0.373508     0.368828
    0.626492     0.432069     0.631172
    0.567931     0.626492     0.631172
    0.373508     0.567931     0.631172
    0.432069     0.373508     0.631172
    0.515444     0.559352     0.337604
    0.440648     0.515444     0.337604
    0.484556     0.440648     0.337604
    0.559352     0.484556     0.337604
    0.515444     0.559352     0.662396
    0.440648     0.515444     0.662396
    0.484556     0.440648     0.662396
    0.559352     0.484556     0.662396
    0.489991     0.325756     0.417095
    0.674244     0.489991     0.417095
    0.510009     0.674244     0.417095
    0.325756     0.510009     0.417095
    0.489991     0.325756     0.582905
    0.674244     0.489991     0.582905
    0.510009     0.674244     0.582905
    0.325756     0.510009     0.582905
    0.443626     0.702515     0.446371
    0.297485     0.443626     0.446371
    0.556374     0.297485     0.446371
    0.702515     0.556374     0.446371
    0.443626     0.702515     0.553629
    0.297485     0.443626     0.553629
    0.556374     0.297485     0.553629
    0.702515     0.556374     0.553629
    0.376860     0.368539     0.407350
    0.631461     0.376860     0.407350
    0.623140     0.631461     0.407350
    0.368539     0.623140     0.407350
    0.376860     0.368539     0.592650
    0.631461     0.376860     0.592650
    0.623140     0.631461     0.592650
    0.368539     0.623140     0.592650
    0.574893     0.334593     0.500000
    0.665407     0.574893     0.500000
    0.425107     0.665407     0.500000
    0.334593     0.425107     0.500000
EA47   43.535 20.224 13.895 90.00 90.00 90.00 Sym.group:    0
1.0000
   43.534512     0.000000     0.000000
    0.000000    20.223772     0.000000
    0.000000     0.000000    13.894592
   O  Cu
  24   24 
Direct
    0.854828     0.572494     0.501955
    0.145172     0.427506     0.501955
    0.346804     0.362352     0.490025
    0.653196     0.637648     0.490025
    0.771931     0.386186     0.500399
    0.228069     0.613814     0.500399
    0.508724     0.348907     0.511054
    0.491276     0.651093     0.511054
    0.410123     0.483458     0.532133
    0.589877     0.516542     0.532133
    0.521230     0.634436     0.457447
    0.478770     0.365564     0.457447
    0.256338     0.501373     0.524595
    0.743662     0.498627     0.524595
    0.436805     0.360976     0.497151
    0.563195     0.639024     0.497151
    0.663497     0.384785     0.460078
    0.336503     0.615215     0.460078
    0.334005     0.440232     0.547741
    0.665995     0.559768     0.547741
    0.495729     0.398178     0.529419
    0.504271     0.601822     0.529419
    0.562025     0.340054     0.501930
    0.437975     0.659946     0.501930
    0.464289     0.472330     0.511307
    0.535711     0.527670     0.511307
    0.660777     0.687496     0.504835
    0.339223     0.312504     0.504835
    0.852812     0.515915     0.517613
    0.147188     0.484085     0.517613
    0.466064     0.575288     0.526950
    0.533936     0.424712     0.526950
    0.567753     0.393629     0.487904
    0.432247     0.606371     0.487904
    0.619809     0.567458     0.502533
    0.380191     0.432542     0.502533
    0.303501     0.470124     0.463800
    0.696499     0.529876     0.463800
    0.261943     0.618256     0.481163
    0.738057     0.381744     0.481163
    0.806929     0.538972     0.477449
    0.193071     0.461028     0.477449
    0.637471     0.331156     0.491144
    0.362529     0.668844     0.491144
    0.744234     0.439069     0.461188
    0.255766     0.560931     0.461188
    0.546085     0.595722     0.520187
    0.453915     0.404278     0.520187
EA48   23.387 17.411 17.381 90.00 90.00 90.00 Sym.group:    0
1.0000
   23.387489     0.000000     0.000000
    0.000000    17.411405     0.000000
    0.000000     0.000000    17.381205
   O  Cu
  24   24 
Direct
    0.602455     0.575852     0.606287
    0.602455     0.624349     0.460580
    0.602455     0.501000     0.369350
    0.602455     0.376269     0.458674
    0.602455     0.422530     0.605109
    0.573007     0.403165     0.535014
    0.573007     0.503319     0.603076
    0.573007     0.598887     0.528691
    0.573007     0.557797     0.414655
    0.573007     0.436833     0.418564
    0.282982     0.543508     0.527103
    0.282982     0.539177     0.466926
    0.282982     0.480705     0.452455
    0.282982     0.448898     0.503691
    0.282982     0.487713     0.549825
    0.392871     0.405512     0.542884
    0.392871     0.511516     0.603271
    0.392871     0.601606     0.520942
    0.392871     0.551280     0.409671
    0.392871     0.430087     0.423232
    0.513989     0.395119     0.401041
    0.513989     0.373637     0.569341
    0.513989     0.526785     0.641813
    0.513989     0.642916     0.518304
    0.513989     0.561541     0.369499
    0.497547     0.586938     0.591322
    0.497547     0.613566     0.445394
    0.497547     0.483250     0.374930
    0.497547     0.376082     0.477309
    0.497547     0.440164     0.611046
    0.682938     0.521691     0.627599
    0.682938     0.627847     0.518765
    0.682938     0.557322     0.383997
    0.682938     0.407580     0.409542
    0.682938     0.385559     0.560096
    0.364916     0.479009     0.429352
    0.364916     0.426439     0.498167
    0.364916     0.475528     0.569516
    0.364916     0.558436     0.544796
    0.364916     0.560587     0.458170
    0.622811     0.500000     0.500000
    0.480643     0.594677     0.500059
    0.480643     0.529313     0.409819
    0.480643     0.423439     0.444206
    0.480643     0.423370     0.555698
    0.480643     0.529201     0.590219
    0.677921     0.500000     0.500000
    0.742522     0.500000     0.500000
EA49   19.424 20.304 18.087 90.00 90.00 90.00 Sym.group:    0
1.0000
   19.424065     0.000000     0.000000
    0.000000    20.304457     0.000000
    0.000000     0.000000    18.087095
   O  Cu
  24   24 
Direct
    0.624151     0.488857     0.650580
    0.448012     0.608428     0.650580
    0.427837     0.402715     0.650580
    0.389369     0.444962     0.349420
    0.505491     0.619174     0.349420
    0.605141     0.435864     0.349420
    0.606339     0.417694     0.447231
    0.521340     0.629252     0.447231
    0.372321     0.453054     0.447231
    0.433878     0.385450     0.552769
    0.429362     0.612056     0.552769
    0.636761     0.502494     0.552769
    0.444140     0.496137     0.405474
    0.531427     0.455654     0.405474
    0.524432     0.548210     0.405474
    0.553270     0.516540     0.594526
    0.488338     0.447597     0.594526
    0.458392     0.535862     0.594526
    0.600378     0.346550     0.579310
    0.588726     0.659885     0.579310
    0.310896     0.493565     0.579310
    0.467399     0.321688     0.420690
    0.354878     0.616165     0.420690
    0.677723     0.562147     0.420690
    0.305279     0.468807     0.469719
    0.625599     0.354275     0.469719
    0.569122     0.676918     0.469719
    0.692669     0.541235     0.530281
    0.440994     0.319761     0.530281
    0.366336     0.639005     0.530281
    0.625479     0.381785     0.559911
    0.544278     0.663064     0.559911
    0.330242     0.455152     0.559911
    0.430278     0.345290     0.440089
    0.394804     0.635117     0.440089
    0.674917     0.519593     0.440089
    0.508690     0.621510     0.630650
    0.385653     0.446444     0.630650
    0.605656     0.432045     0.630650
    0.444128     0.609440     0.369350
    0.627009     0.491569     0.369350
    0.428862     0.398991     0.369350
    0.405835     0.385002     0.511010
    0.651188     0.479486     0.511010
    0.442977     0.635513     0.511010
    0.632494     0.427379     0.488990
    0.368010     0.426542     0.488990
    0.499496     0.646079     0.488990
EA50   20.275 20.275 20.275 90.00 90.00 90.00 Sym.group:    0
1.0000
   20.275266     0.000000     0.000000
    0.000000    20.275266     0.000000
    0.000000     0.000000    20.275266
   O  Cu
  24   24 
Direct
    0.407109     0.500480     0.459530
    0.407575     0.490696     0.540470
    0.592891     0.499520     0.459530
    0.592425     0.509304     0.540470
    0.493183     0.540192     0.407237
    0.455163     0.590733     0.495102
    0.502967     0.540658     0.592763
    0.544837     0.409267     0.495102
    0.497033     0.459342     0.592763
    0.536012     0.594583     0.504898
    0.506817     0.459808     0.407237
    0.463988     0.405417     0.504898
    0.409267     0.455163     0.504898
    0.405417     0.536012     0.495102
    0.594583     0.463988     0.495102
    0.590733     0.544837     0.504898
    0.499520     0.407109     0.540470
    0.459808     0.493183     0.592763
    0.500480     0.592891     0.540470
    0.540658     0.497033     0.407237
    0.490696     0.592425     0.459530
    0.540192     0.506817     0.592763
    0.509304     0.407575     0.459530
    0.459342     0.502967     0.407237
    0.492770     0.541552     0.311710
    0.496752     0.457949     0.688290
    0.507230     0.458448     0.311710
    0.503248     0.542051     0.688290
    0.449242     0.686086     0.494755
    0.311673     0.496283     0.458151
    0.532846     0.690068     0.505245
    0.688327     0.503717     0.458151
    0.467154     0.309932     0.505245
    0.687828     0.514195     0.541849
    0.550758     0.313914     0.494755
    0.312172     0.485805     0.541849
    0.503717     0.311673     0.541849
    0.485805     0.687828     0.458151
    0.514195     0.312172     0.458151
    0.496283     0.688327     0.541849
    0.458448     0.492770     0.688290
    0.313914     0.449242     0.505245
    0.541552     0.507230     0.688290
    0.690068     0.467154     0.494755
    0.457949     0.503248     0.311710
    0.686086     0.550758     0.505245
    0.542051     0.496752     0.311710
    0.309932     0.532846     0.494755
EA51   21.447 22.340 17.989 90.00 90.00 90.00 Sym.group:    0
1.0000
   21.446738     0.000000     0.000000
    0.000000    22.340476     0.000000
    0.000000     0.000000    17.989428
   O  Cu
  24   24 
Direct
    0.561737     0.639252     0.648683
    0.561737     0.639252     0.351317
    0.343510     0.481701     0.648683
    0.405247     0.620953     0.351317
    0.405247     0.620953     0.648683
    0.438263     0.360748     0.648683
    0.343510     0.481701     0.351317
    0.594753     0.379047     0.648683
    0.438263     0.360748     0.351317
    0.656490     0.518299     0.648683
    0.594753     0.379047     0.351317
    0.656490     0.518299     0.351317
    0.487714     0.691060     0.500000
    0.321499     0.585316     0.500000
    0.333785     0.394256     0.500000
    0.512286     0.308940     0.500000
    0.678501     0.414684     0.500000
    0.666215     0.605744     0.500000
    0.520572     0.674381     0.500000
    0.352975     0.604294     0.500000
    0.332401     0.429913     0.500000
    0.479428     0.325619     0.500000
    0.647025     0.395706     0.500000
    0.667599     0.570087     0.500000
    0.686178     0.624582     0.613036
    0.686178     0.624582     0.386964
    0.294524     0.592493     0.613036
    0.480702     0.717075     0.386964
    0.480702     0.717075     0.613036
    0.313822     0.375418     0.613036
    0.294524     0.592493     0.386964
    0.519298     0.282925     0.613036
    0.313822     0.375418     0.386964
    0.705476     0.407507     0.613036
    0.519298     0.282925     0.386964
    0.705476     0.407507     0.386964
    0.559188     0.598173     0.575911
    0.559188     0.598173     0.424089
    0.381843     0.500121     0.575911
    0.441031     0.598294     0.424089
    0.441031     0.598294     0.575911
    0.440812     0.401827     0.575911
    0.381843     0.500121     0.424089
    0.558969     0.401706     0.575911
    0.440812     0.401827     0.424089
    0.618157     0.499879     0.575911
    0.558969     0.401706     0.424089
    0.618157     0.499879     0.424089
EA52   28.385 28.385 13.341 90.00 90.00 90.00 Sym.group:    0
1.0000
   28.385024     0.000000     0.000000
    0.000000    28.385024     0.000000
    0.000000     0.000000    13.341330
   O  Cu
  24   24 
Direct
    0.318363     0.553698     0.517375
    0.681637     0.446302     0.517375
    0.446302     0.318363     0.517375
    0.553698     0.681637     0.517375
    0.340892     0.503807     0.498110
    0.659108     0.496193     0.498110
    0.496193     0.340892     0.498110
    0.503807     0.659108     0.498110
    0.206561     0.441990     0.487704
    0.793439     0.558010     0.487704
    0.558010     0.206561     0.487704
    0.441990     0.793439     0.487704
    0.291668     0.319135     0.511157
    0.708332     0.680865     0.511157
    0.680865     0.291668     0.511157
    0.319135     0.708332     0.511157
    0.447468     0.409433     0.498018
    0.552532     0.590567     0.498018
    0.590567     0.447468     0.498018
    0.409433     0.552532     0.498018
    0.436460     0.437157     0.510974
    0.563540     0.562843     0.510974
    0.562843     0.436460     0.510974
    0.437157     0.563540     0.510974
    0.370820     0.467093     0.494664
    0.629180     0.532907     0.494664
    0.532907     0.370820     0.494664
    0.467093     0.629180     0.494664
    0.278238     0.526873     0.503642
    0.721762     0.473127     0.503642
    0.473127     0.278238     0.503642
    0.526873     0.721762     0.503642
    0.264323     0.426527     0.473703
    0.735677     0.573473     0.473703
    0.573473     0.264323     0.473703
    0.426527     0.735677     0.473703
    0.216425     0.546899     0.478023
    0.783575     0.453101     0.478023
    0.453101     0.216425     0.478023
    0.546899     0.783575     0.478023
    0.233868     0.385601     0.526271
    0.766132     0.614399     0.526271
    0.614399     0.233868     0.526271
    0.385601     0.766132     0.526271
    0.209646     0.339865     0.500359
    0.790354     0.660135     0.500359
    0.660135     0.209646     0.500359
    0.339865     0.790354     0.500359
EA53   26.252 26.252 26.252 90.00 90.00 90.00 Sym.group:    0
1.0000
   26.252473     0.000000     0.000000
    0.000000    26.252473     0.000000
    0.000000     0.000000    26.252473
   O  Cu
  24   24 
Direct
    0.240739     0.340296     0.487001
    0.240739     0.659704     0.512999
    0.660232     0.521033     0.241594
    0.339768     0.478967     0.758406
    0.660232     0.478967     0.758406
    0.759261     0.340296     0.487001
    0.759261     0.659704     0.512999
    0.500000     0.228594     0.638670
    0.500000     0.745407     0.680737
    0.339768     0.521033     0.241594
    0.500000     0.771406     0.361330
    0.500000     0.254593     0.319263
    0.320085     0.389173     0.490979
    0.320085     0.610827     0.509021
    0.611194     0.514596     0.320678
    0.388806     0.485404     0.679322
    0.611194     0.485404     0.679322
    0.679915     0.389173     0.490979
    0.679915     0.610827     0.509021
    0.500000     0.311658     0.596231
    0.500000     0.670301     0.625423
    0.388806     0.514596     0.320678
    0.500000     0.688342     0.403769
    0.500000     0.329699     0.374577
    0.366414     0.417712     0.493302
    0.366414     0.582288     0.506698
    0.582560     0.510838     0.366855
    0.417440     0.489162     0.633145
    0.582560     0.489162     0.633145
    0.633586     0.417712     0.493302
    0.633586     0.582288     0.506698
    0.500000     0.360157     0.571451
    0.500000     0.626447     0.593126
    0.417440     0.510838     0.366855
    0.500000     0.639843     0.428549
    0.500000     0.373553     0.406874
    0.417088     0.448927     0.495843
    0.417088     0.551073     0.504157
    0.551242     0.506727     0.417361
    0.448758     0.493273     0.582639
    0.551242     0.493273     0.582639
    0.582912     0.448927     0.495843
    0.582912     0.551073     0.504157
    0.500000     0.413205     0.544347
    0.500000     0.578481     0.557800
    0.448758     0.506727     0.417361
    0.500000     0.586795     0.455653
    0.500000     0.421519     0.442200
EA54   22.713 29.681 15.653 90.00 90.00 90.00 Sym.group:    0
1.0000
   22.713064     0.000000     0.000000
    0.000000    29.681409     0.000000
    0.000000     0.000000    15.653220
   O  Cu
  24   24 
Direct
    0.928135     0.562262     0.494968
    0.670465     0.579082     0.500454
    0.815858     0.451167     0.484056
    0.474874     0.405480     0.510387
    0.583566     0.506148     0.541408
    0.781691     0.510851     0.521441
    0.554139     0.571297     0.514404
    0.677602     0.439887     0.446839
    0.682363     0.537409     0.556912
    0.458804     0.431607     0.535346
    0.543731     0.405618     0.496097
    0.343882     0.352236     0.461026
    0.149116     0.559688     0.439309
    0.432758     0.665596     0.463325
    0.348277     0.348752     0.534808
    0.153512     0.556204     0.513091
    0.437153     0.662112     0.537107
    0.281107     0.459775     0.562396
    0.331255     0.593361     0.564499
    0.272418     0.466663     0.416529
    0.322566     0.600248     0.418632
    0.426442     0.456411     0.534024
    0.405422     0.519518     0.530920
    0.393054     0.570971     0.529669
    0.514875     0.507062     0.523000
    0.681093     0.607475     0.520176
    0.923252     0.530799     0.507847
    0.508953     0.449934     0.532180
    0.553247     0.435778     0.484527
    0.624853     0.537077     0.510886
    0.724240     0.523408     0.460203
    0.772821     0.445397     0.464811
    0.866376     0.539028     0.468564
    0.641214     0.407834     0.478498
    0.783267     0.477652     0.446965
    0.529876     0.545779     0.537454
    0.422759     0.459331     0.472195
    0.401738     0.522437     0.469092
    0.468219     0.601240     0.504432
    0.387705     0.400875     0.500792
    0.272490     0.538152     0.487673
    0.253089     0.583358     0.563563
    0.297763     0.413581     0.570824
    0.243675     0.590820     0.405539
    0.288350     0.421043     0.412800
    0.654643     0.379120     0.525658
    0.311882     0.439516     0.516206
    0.405427     0.430962     0.528466
EA55   19.605 18.852 20.205 90.00 90.00 90.00 Sym.group:    0
1.0000
   19.605397     0.000000     0.000000
    0.000000    18.851837     0.000000
    0.000000     0.000000    20.204877
   O  Cu
  24   24 
Direct
    0.565711     0.609246     0.625229
    0.376534     0.569023     0.359048
    0.592902     0.555868     0.351324
    0.613624     0.549417     0.439561
    0.379045     0.590936     0.447523
    0.556060     0.625328     0.536442
    0.452487     0.548113     0.407529
    0.539888     0.503448     0.405004
    0.502787     0.560813     0.577320
    0.680020     0.508470     0.557792
    0.390199     0.670229     0.565959
    0.517727     0.690687     0.416814
    0.439911     0.401421     0.494583
    0.591665     0.440792     0.487749
    0.495642     0.352339     0.373657
    0.354861     0.495425     0.375649
    0.504955     0.356505     0.613104
    0.364174     0.499591     0.615096
    0.507183     0.438245     0.342576
    0.561086     0.520495     0.635513
    0.446539     0.487572     0.640749
    0.518712     0.443402     0.639021
    0.343579     0.420396     0.422042
    0.568618     0.340112     0.415265
    0.360786     0.659604     0.467592
    0.681647     0.532078     0.457771
    0.548308     0.695095     0.515232
    0.660025     0.549351     0.540275
    0.364180     0.632473     0.549851
    0.555599     0.665357     0.433441
    0.607123     0.561326     0.606324
    0.386529     0.580216     0.614116
    0.554195     0.606141     0.370095
    0.582627     0.624308     0.497531
    0.354339     0.582054     0.486516
    0.619597     0.578743     0.476852
    0.349465     0.423029     0.573380
    0.574504     0.342745     0.566603
    0.352017     0.347451     0.450253
    0.638888     0.349210     0.439094
    0.355825     0.349155     0.548150
    0.642695     0.350913     0.536990
    0.452826     0.320446     0.411316
    0.332655     0.545543     0.579977
    0.459404     0.323389     0.580444
    0.670018     0.460309     0.568967
    0.393897     0.350714     0.497594
    0.638944     0.392477     0.487087
EA56   19.578 20.454 19.667 90.00 90.00 90.00 Sym.group:    0
1.0000
   19.578432     0.000000     0.000000
    0.000000    20.453656     0.000000
    0.000000     0.000000    19.666698
   O  Cu
  24   24 
Direct
    0.664993     0.502856     0.399748
    0.482808     0.417148     0.346913
    0.462099     0.398031     0.634615
    0.498733     0.384691     0.550006
    0.441428     0.417529     0.430196
    0.651057     0.487772     0.491122
    0.504259     0.463992     0.591967
    0.581409     0.488774     0.430048
    0.490334     0.486893     0.403444
    0.588211     0.341664     0.447562
    0.647991     0.422580     0.619324
    0.323200     0.468773     0.461538
    0.357724     0.604879     0.442426
    0.379076     0.476010     0.473124
    0.405811     0.581409     0.458325
    0.640340     0.623581     0.441357
    0.368383     0.493499     0.618560
    0.610838     0.645217     0.556654
    0.397345     0.607681     0.602528
    0.400583     0.650566     0.539309
    0.607605     0.601014     0.618910
    0.445366     0.617726     0.364298
    0.346806     0.438557     0.569078
    0.686222     0.472688     0.470025
    0.541017     0.329122     0.540693
    0.691471     0.439775     0.525085
    0.373315     0.402551     0.432290
    0.541803     0.346669     0.452894
    0.378670     0.401778     0.521806
    0.656712     0.464772     0.602759
    0.532282     0.393480     0.380913
    0.651936     0.562115     0.415088
    0.411466     0.418534     0.600290
    0.658013     0.508023     0.533780
    0.440356     0.392283     0.470720
    0.485861     0.371848     0.505585
    0.475923     0.522844     0.539614
    0.532949     0.556741     0.492897
    0.466801     0.565171     0.377019
    0.390782     0.480898     0.573649
    0.587670     0.599716     0.562480
    0.420728     0.598958     0.557071
    0.342196     0.606190     0.511221
    0.666321     0.562733     0.586585
    0.376098     0.581330     0.378733
    0.312990     0.491049     0.527389
    0.578150     0.627709     0.330036
    0.503869     0.682181     0.620324
EA57   19.942 20.596 20.255 90.00 90.00 90.00 Sym.group:    0
1.0000
   19.942176     0.000000     0.000000
    0.000000    20.595869     0.000000
    0.000000     0.000000    20.254994
   O  Cu
  24   24 
Direct
    0.540452     0.526819     0.346768
    0.562654     0.426403     0.374696
    0.367477     0.378283     0.543968
    0.321598     0.452129     0.477610
    0.334572     0.555263     0.504402
    0.417738     0.428556     0.363741
    0.496038     0.334383     0.479057
    0.423820     0.589559     0.383590
    0.410625     0.387256     0.397846
    0.390038     0.546198     0.376211
    0.500456     0.333889     0.533682
    0.605721     0.604496     0.381833
    0.518552     0.672917     0.592690
    0.558988     0.673722     0.456568
    0.690078     0.446269     0.545876
    0.370586     0.476667     0.670529
    0.507326     0.457718     0.703170
    0.652529     0.360147     0.495837
    0.645766     0.614948     0.548063
    0.650034     0.435817     0.379646
    0.602737     0.417506     0.655713
    0.637523     0.548738     0.632344
    0.413615     0.674110     0.562879
    0.388355     0.581896     0.663516
    0.342423     0.586063     0.566721
    0.296626     0.512269     0.490933
    0.312241     0.405050     0.508208
    0.373655     0.371624     0.601271
    0.618132     0.400497     0.410890
    0.565986     0.466723     0.334320
    0.571805     0.575598     0.350389
    0.484012     0.604787     0.382018
    0.464610     0.462198     0.342705
    0.527349     0.357922     0.433238
    0.467389     0.349103     0.579286
    0.382361     0.374495     0.449087
    0.350210     0.513099     0.408205
    0.403089     0.626311     0.497523
    0.680373     0.406515     0.467149
    0.593203     0.474934     0.678007
    0.549283     0.633967     0.377840
    0.674901     0.537677     0.581361
    0.615427     0.644251     0.460560
    0.432676     0.655700     0.617854
    0.662234     0.399902     0.574565
    0.516860     0.400290     0.680876
    0.608387     0.626009     0.599045
    0.499491     0.691326     0.537716
EA58   19.728 20.758 22.854 90.00 90.00 90.00 Sym.group:    0
1.0000
   19.727621     0.000000     0.000000
    0.000000    20.757580     0.000000
    0.000000     0.000000    22.853716
   O  Cu
  24   24 
Direct
    0.598882     0.518844     0.644297
    0.278008     0.519549     0.559131
    0.398067     0.665704     0.552563
    0.380013     0.424310     0.620176
    0.695458     0.452511     0.555569
    0.446829     0.556721     0.648291
    0.532066     0.386433     0.616181
    0.572696     0.320747     0.487562
    0.263562     0.396654     0.495465
    0.707201     0.589797     0.544661
    0.417501     0.306786     0.519792
    0.555965     0.665273     0.594908
    0.757983     0.535603     0.435130
    0.210869     0.547079     0.435605
    0.755303     0.543109     0.493098
    0.761828     0.422852     0.457333
    0.212920     0.486943     0.447448
    0.787346     0.475077     0.428579
    0.534301     0.444826     0.372147
    0.434528     0.635854     0.501246
    0.531576     0.524725     0.356412
    0.438089     0.625880     0.424227
    0.300935     0.506561     0.408134
    0.667930     0.577132     0.461262
    0.590280     0.433396     0.626970
    0.269407     0.434100     0.541804
    0.549655     0.561164     0.651614
    0.388615     0.509758     0.637504
    0.429240     0.381990     0.612859
    0.704059     0.537960     0.572896
    0.362429     0.311660     0.480769
    0.689613     0.415066     0.509229
    0.520327     0.311230     0.523114
    0.453139     0.660830     0.591586
    0.281150     0.571386     0.530896
    0.604414     0.483817     0.396332
    0.364455     0.600230     0.472594
    0.693570     0.564099     0.490124
    0.701047     0.411024     0.464915
    0.274849     0.482352     0.428669
    0.696065     0.557110     0.436147
    0.272940     0.538349     0.417643
    0.563823     0.546755     0.472760
    0.404641     0.503452     0.441050
    0.510897     0.492000     0.409275
    0.457870     0.583473     0.471022
    0.485115     0.598880     0.359046
    0.492546     0.380947     0.401963
EA59   19.952 20.065 19.823 90.00 90.00 90.00 Sym.group:    0
1.0000
   19.951598     0.000000     0.000000
    0.000000    20.064797     0.000000
    0.000000     0.000000    19.822591
   O  Cu
  24   24 
Direct
    0.598320     0.633230     0.590470
    0.593634     0.486010     0.338135
    0.622003     0.510193     0.425351
    0.574400     0.399328     0.579548
    0.580766     0.616815     0.499038
    0.546820     0.461268     0.410246
    0.466374     0.508134     0.403252
    0.531881     0.576634     0.562500
    0.555993     0.489311     0.591451
    0.695153     0.510952     0.550402
    0.627373     0.343237     0.458812
    0.535030     0.635743     0.363302
    0.480540     0.340312     0.525516
    0.343928     0.452895     0.571440
    0.356510     0.595975     0.417702
    0.479432     0.486288     0.664898
    0.390039     0.610160     0.591891
    0.417119     0.403393     0.382744
    0.451331     0.462136     0.650335
    0.413557     0.385167     0.418968
    0.338368     0.492121     0.567924
    0.418454     0.595342     0.616666
    0.374524     0.576938     0.387272
    0.518069     0.343871     0.507162
    0.687423     0.496598     0.444968
    0.574220     0.672693     0.456473
    0.629682     0.359969     0.564060
    0.676190     0.542894     0.521329
    0.591330     0.335427     0.486003
    0.571454     0.616344     0.385569
    0.633484     0.580605     0.584996
    0.561112     0.540532     0.342578
    0.536843     0.340355     0.419010
    0.555049     0.363812     0.552461
    0.601835     0.600338     0.459858
    0.632720     0.549497     0.452142
    0.500591     0.679754     0.587078
    0.313981     0.476780     0.414229
    0.310997     0.443918     0.449834
    0.297066     0.488405     0.457690
    0.533025     0.375458     0.633746
    0.477883     0.697022     0.548444
    0.435322     0.331841     0.540402
    0.349784     0.408681     0.583485
    0.337693     0.624611     0.448416
    0.425800     0.418025     0.338887
    0.505214     0.517779     0.685177
    0.351686     0.623211     0.568141
EA60   20.586 19.818 20.667 90.00 90.00 90.00 Sym.group:    0
1.0000
   20.586338     0.000000     0.000000
    0.000000    19.817807     0.000000
    0.000000     0.000000    20.666969
   O  Cu
  24   24 
Direct
    0.312036     0.424458     0.512542
    0.482634     0.414617     0.678797
    0.646031     0.360145     0.510326
    0.475434     0.369986     0.344070
    0.568536     0.316115     0.441107
    0.372636     0.511553     0.658994
    0.372736     0.374542     0.593178
    0.612169     0.422583     0.345700
    0.650544     0.453580     0.624703
    0.547992     0.344146     0.616383
    0.393279     0.346512     0.417902
    0.334259     0.480556     0.379990
    0.663294     0.545250     0.496486
    0.554815     0.671390     0.477318
    0.392480     0.641069     0.477363
    0.432841     0.706295     0.513799
    0.306927     0.556181     0.530433
    0.693714     0.485312     0.549092
    0.626235     0.670861     0.523129
    0.434118     0.694658     0.427333
    0.627512     0.659224     0.436663
    0.423455     0.604914     0.345579
    0.635460     0.511042     0.363021
    0.555963     0.619176     0.346918
    0.338555     0.431380     0.599869
    0.595053     0.323037     0.528435
    0.619514     0.353223     0.422998
    0.680112     0.440318     0.569449
    0.388666     0.390088     0.369340
    0.569403     0.394515     0.653528
    0.346217     0.367620     0.505851
    0.304692     0.493817     0.435244
    0.461223     0.364247     0.641651
    0.556576     0.429050     0.315246
    0.480048     0.326410     0.392633
    0.428228     0.505085     0.689448
    0.419471     0.641213     0.615272
    0.631476     0.547339     0.632716
    0.551979     0.655474     0.616612
    0.508880     0.589644     0.354673
    0.426266     0.549409     0.357948
    0.585490     0.537679     0.363342
    0.505041     0.624613     0.614498
    0.422429     0.584379     0.617773
    0.581652     0.572649     0.623167
    0.431623     0.544688     0.490949
    0.560821     0.560099     0.492057
    0.491485     0.589859     0.486475
EA61   23.251 20.745 23.497 90.00 90.00 90.00 Sym.group:    0
1.0000
   23.251411     0.000000     0.000000
    0.000000    20.744586     0.000000
    0.000000     0.000000    23.497213
   O  Cu
  24   24 
Direct
    0.423997     0.584742     0.676689
    0.304895     0.556465     0.407968
    0.519313     0.685118     0.552785
    0.334108     0.666202     0.523523
    0.484202     0.671245     0.387677
    0.393519     0.563976     0.366416
    0.352453     0.577424     0.633567
    0.318737     0.585795     0.533630
    0.508380     0.592934     0.373898
    0.541046     0.609123     0.578405
    0.623547     0.371864     0.512483
    0.583174     0.287364     0.515778
    0.727704     0.549266     0.514928
    0.423140     0.225878     0.511658
    0.355330     0.314889     0.491823
    0.685150     0.435178     0.507301
    0.475369     0.409730     0.467832
    0.550326     0.492214     0.468487
    0.766970     0.609040     0.507777
    0.449525     0.160488     0.510156
    0.270417     0.313904     0.464627
    0.720422     0.352898     0.492241
    0.411740     0.386144     0.504835
    0.604963     0.450893     0.514200
    0.436965     0.742662     0.481592
    0.494225     0.620630     0.631027
    0.293971     0.592370     0.478311
    0.575205     0.611452     0.373174
    0.339753     0.617492     0.404602
    0.609872     0.644230     0.434078
    0.403933     0.638361     0.636758
    0.497694     0.497271     0.683269
    0.374368     0.650396     0.601282
    0.388833     0.638307     0.393149
    0.583824     0.661599     0.476312
    0.303405     0.225295     0.485266
    0.778912     0.434466     0.505725
    0.652569     0.507049     0.499458
    0.510862     0.510278     0.497706
    0.459615     0.474928     0.496166
    0.511028     0.446160     0.501046
    0.675659     0.587320     0.493703
    0.482390     0.254019     0.498277
    0.455752     0.340874     0.505160
    0.707519     0.398980     0.515774
    0.632899     0.599931     0.469160
    0.574929     0.448996     0.463858
    0.427392     0.404160     0.456469
EA62   20.321 19.983 19.473 90.00 90.00 90.00 Sym.group:    0
1.0000
   20.321178     0.000000     0.000000
    0.000000    19.982825     0.000000
    0.000000     0.000000    19.473379
   O  Cu
  24   24 
Direct
    0.399377     0.324901     0.441283
    0.288890     0.540937     0.486292
    0.410403     0.308351     0.516505
    0.299917     0.524386     0.561515
    0.521510     0.342988     0.542936
    0.376553     0.424043     0.575415
    0.405404     0.593873     0.593368
    0.499711     0.375708     0.394220
    0.354753     0.456763     0.426699
    0.383605     0.626593     0.444652
    0.523760     0.442420     0.510629
    0.454468     0.452887     0.522442
    0.442631     0.525292     0.533732
    0.653881     0.420016     0.403905
    0.674615     0.426822     0.490536
    0.623703     0.648759     0.514910
    0.493175     0.441652     0.667666
    0.551025     0.512060     0.674502
    0.542965     0.686989     0.516592
    0.434379     0.680097     0.455764
    0.681237     0.556262     0.561221
    0.460889     0.663825     0.401182
    0.670933     0.507319     0.591983
    0.648896     0.561183     0.614146
    0.514520     0.456289     0.447593
    0.445228     0.466756     0.459405
    0.363380     0.529997     0.513163
    0.428709     0.384650     0.484238
    0.386642     0.370184     0.573336
    0.361563     0.567055     0.602964
    0.572844     0.334634     0.540619
    0.363025     0.405632     0.412226
    0.337946     0.602503     0.441853
    0.549227     0.370082     0.379509
    0.471009     0.535282     0.351280
    0.491423     0.504641     0.490546
    0.615271     0.465627     0.352961
    0.634097     0.417476     0.562318
    0.465781     0.671931     0.547081
    0.539306     0.612064     0.365709
    0.660066     0.584345     0.472814
    0.651898     0.474031     0.400912
    0.633401     0.392605     0.504904
    0.620073     0.626568     0.462889
    0.535864     0.558026     0.333625
    0.524851     0.411532     0.631334
    0.512889     0.548166     0.664350
    0.524308     0.665796     0.562276
EA63   19.877 20.418 19.738 90.00 90.00 90.00 Sym.group:    0
1.0000
   19.877357     0.000000     0.000000
    0.000000    20.417810     0.000000
    0.000000     0.000000    19.738115
   O  Cu
  24   24 
Direct
    0.539555     0.577050     0.511591
    0.593680     0.438683     0.490988
    0.636676     0.516893     0.383161
    0.508438     0.337140     0.591999
    0.621632     0.482346     0.624683
    0.467835     0.595762     0.634448
    0.508231     0.410268     0.634315
    0.539710     0.481974     0.648865
    0.464461     0.514410     0.649623
    0.432982     0.442704     0.635073
    0.591239     0.360274     0.398621
    0.637135     0.578467     0.439650
    0.557533     0.617241     0.375441
    0.569722     0.409849     0.344555
    0.376869     0.501651     0.346411
    0.359020     0.501022     0.437627
    0.570534     0.605723     0.466939
    0.473046     0.609609     0.561127
    0.379901     0.399113     0.523129
    0.541037     0.536135     0.414996
    0.445470     0.519208     0.406389
    0.507687     0.448168     0.399468
    0.312594     0.542274     0.565819
    0.414692     0.662007     0.440624
    0.581731     0.338438     0.551271
    0.627626     0.556632     0.592300
    0.655454     0.370229     0.432270
    0.619250     0.638610     0.476706
    0.649303     0.356105     0.531015
    0.613099     0.624485     0.575451
    0.669369     0.473509     0.414217
    0.508770     0.633427     0.607186
    0.471921     0.309620     0.548332
    0.658743     0.449108     0.584810
    0.645362     0.400363     0.487671
    0.577808     0.625839     0.522587
    0.303319     0.538080     0.461024
    0.359525     0.339222     0.491450
    0.428470     0.662175     0.545088
    0.314895     0.502318     0.541532
    0.458089     0.661119     0.461557
    0.366038     0.380412     0.412911
    0.357507     0.462261     0.604957
    0.391975     0.441044     0.356948
    0.496223     0.629008     0.392207
    0.497996     0.632218     0.526686
    0.356604     0.415807     0.484743
    0.341243     0.472001     0.471542
EA64   19.741 19.092 19.340 90.00 90.00 90.00 Sym.group:    0
1.0000
   19.740568     0.000000     0.000000
    0.000000    19.092150     0.000000
    0.000000     0.000000    19.340300
   O  Cu
  24   24 
Direct
    0.677539     0.408968     0.469677
    0.509941     0.314919     0.398870
    0.538590     0.639147     0.359376
    0.691394     0.470311     0.455745
    0.572324     0.591092     0.336150
    0.462353     0.301632     0.436026
    0.414671     0.637568     0.383229
    0.520078     0.415493     0.314548
    0.629412     0.362513     0.580154
    0.647839     0.619162     0.552146
    0.532367     0.469897     0.302193
    0.677757     0.576541     0.531547
    0.590992     0.574670     0.635492
    0.304911     0.527846     0.538594
    0.617176     0.436030     0.622626
    0.331096     0.389206     0.525730
    0.447081     0.625357     0.609113
    0.382037     0.626891     0.445806
    0.500814     0.340858     0.582713
    0.360619     0.534809     0.600560
    0.387369     0.393180     0.587417
    0.492098     0.397657     0.610877
    0.372888     0.565517     0.430743
    0.460394     0.565521     0.626454
    0.637815     0.443886     0.542754
    0.474447     0.575231     0.367396
    0.648589     0.491584     0.531921
    0.431533     0.385245     0.410543
    0.500676     0.537861     0.349337
    0.589257     0.499552     0.362132
    0.644264     0.553420     0.453340
    0.564891     0.391675     0.386630
    0.484380     0.648959     0.434341
    0.601185     0.362703     0.496653
    0.584942     0.637929     0.494184
    0.450173     0.687498     0.513569
    0.551331     0.398036     0.628829
    0.362664     0.376532     0.456188
    0.516192     0.584086     0.646095
    0.327524     0.562583     0.473452
    0.333191     0.576476     0.552629
    0.572725     0.618419     0.602004
    0.375428     0.352842     0.531877
    0.307952     0.461304     0.477465
    0.563466     0.494450     0.664609
    0.569947     0.634763     0.557381
    0.369367     0.594386     0.576975
    0.416318     0.345796     0.553907
EA65   20.261 20.321 20.198 90.00 90.00 90.00 Sym.group:    0
1.0000
   20.260560     0.000000     0.000000
    0.000000    20.320750     0.000000
    0.000000     0.000000    20.198255
   O  Cu
  24   24 
Direct
    0.566207     0.609101     0.359813
    0.673288     0.574804     0.453871
    0.414610     0.628446     0.420442
    0.437525     0.465371     0.341137
    0.554196     0.524161     0.343614
    0.404176     0.635050     0.552317
    0.663585     0.489126     0.439700
    0.598113     0.594394     0.570856
    0.468461     0.635920     0.456973
    0.489972     0.433308     0.366453
    0.609914     0.454399     0.605443
    0.478501     0.466245     0.655390
    0.354267     0.406942     0.460036
    0.586215     0.366995     0.473015
    0.483486     0.379901     0.373606
    0.343320     0.492734     0.572832
    0.439606     0.613247     0.616318
    0.496524     0.500953     0.662195
    0.591890     0.419690     0.598638
    0.467122     0.360606     0.403551
    0.359970     0.459885     0.586253
    0.404932     0.611386     0.596093
    0.337617     0.439791     0.446615
    0.602577     0.386289     0.443071
    0.351232     0.538551     0.380125
    0.648575     0.595671     0.528160
    0.504875     0.641696     0.401938
    0.514694     0.585274     0.341355
    0.687421     0.529952     0.493075
    0.604766     0.637755     0.438956
    0.365949     0.615107     0.501725
    0.490066     0.543189     0.335490
    0.682067     0.481693     0.504139
    0.546622     0.346207     0.592897
    0.545395     0.571007     0.677804
    0.296986     0.512544     0.427534
    0.441687     0.314575     0.470982
    0.390563     0.382971     0.607246
    0.332455     0.616833     0.547307
    0.449393     0.386128     0.641560
    0.642624     0.531087     0.629140
    0.301875     0.557942     0.535762
    0.517146     0.626740     0.655034
    0.385674     0.337573     0.499017
    0.543805     0.320055     0.530547
    0.670386     0.563823     0.578336
    0.661542     0.481716     0.382595
    0.598129     0.333165     0.501044
EA66   19.859 20.413 19.695 90.00 90.00 90.00 Sym.group:    0
1.0000
   19.859470     0.000000     0.000000
    0.000000    20.412938     0.000000
    0.000000     0.000000    19.694703
   O  Cu
  24   24 
Direct
    0.461455     0.358098     0.564977
    0.609608     0.359743     0.558902
    0.599306     0.669800     0.581130
    0.683833     0.497455     0.576441
    0.672109     0.451783     0.400787
    0.452812     0.366979     0.477797
    0.606756     0.592681     0.618366
    0.604159     0.368659     0.471591
    0.608719     0.439082     0.383343
    0.623564     0.485836     0.600172
    0.444183     0.483845     0.607527
    0.615163     0.608064     0.419787
    0.581955     0.550948     0.399704
    0.260443     0.466704     0.482553
    0.258929     0.510739     0.460291
    0.262211     0.523405     0.542213
    0.262472     0.474532     0.533184
    0.387476     0.518756     0.581291
    0.386417     0.431279     0.528891
    0.381910     0.450639     0.427839
    0.380183     0.550081     0.417787
    0.383623     0.592179     0.512626
    0.519597     0.627426     0.518598
    0.516476     0.439696     0.385998
    0.729471     0.524413     0.471575
    0.635292     0.423871     0.594640
    0.612928     0.475705     0.329638
    0.618764     0.670094     0.503628
    0.436475     0.421664     0.602792
    0.412634     0.381730     0.534630
    0.645828     0.631802     0.574303
    0.651612     0.384383     0.524831
    0.538483     0.384015     0.613012
    0.660845     0.402508     0.479966
    0.661457     0.586296     0.580613
    0.514524     0.578675     0.382901
    0.496834     0.502660     0.378151
    0.498237     0.607553     0.444165
    0.351230     0.565949     0.481635
    0.354421     0.540088     0.549385
    0.355101     0.469162     0.543465
    0.352331     0.451189     0.472056
    0.349939     0.511007     0.433842
    0.479851     0.471708     0.416600
    0.479073     0.562809     0.426497
    0.482687     0.583783     0.518879
    0.711771     0.421383     0.506901
    0.406850     0.629149     0.584102
EA67   20.639 20.106 20.831 90.00 90.00 90.00 Sym.group:    0
1.0000
   20.638973     0.000000     0.000000
    0.000000    20.105757     0.000000
    0.000000     0.000000    20.831324
   O  Cu
  24   24 
Direct
    0.547784     0.336304     0.576075
    0.466431     0.471280     0.678459
    0.350374     0.413447     0.568693
    0.368388     0.588053     0.598745
    0.454841     0.360344     0.392201
    0.348619     0.499230     0.408307
    0.378148     0.407950     0.597243
    0.375939     0.520569     0.385942
    0.451697     0.510241     0.671961
    0.349600     0.554137     0.582847
    0.559109     0.332690     0.537247
    0.419054     0.378568     0.401973
    0.493919     0.592945     0.353921
    0.623186     0.499346     0.377859
    0.610035     0.639574     0.455050
    0.647543     0.404046     0.483372
    0.538753     0.664838     0.574113
    0.504739     0.557366     0.339023
    0.611084     0.412298     0.613183
    0.573403     0.647865     0.585474
    0.623712     0.385440     0.457112
    0.647018     0.517952     0.404119
    0.575384     0.656546     0.443688
    0.339131     0.512420     0.547040
    0.328388     0.611323     0.479351
    0.404303     0.311043     0.501431
    0.449854     0.293227     0.502916
    0.353783     0.630468     0.442311
    0.559366     0.566141     0.685213
    0.425930     0.305417     0.543749
    0.358197     0.650806     0.486327
    0.542779     0.339746     0.622369
    0.317049     0.468985     0.427869
    0.314099     0.424186     0.541514
    0.388101     0.623701     0.624284
    0.517340     0.477870     0.304807
    0.685419     0.454600     0.596341
    0.703065     0.548176     0.463954
    0.500147     0.698944     0.428720
    0.576580     0.351403     0.392041
    0.653298     0.615650     0.601070
    0.459715     0.667378     0.384166
    0.653557     0.559382     0.640219
    0.468736     0.706054     0.540556
    0.703515     0.450505     0.531913
    0.518051     0.323931     0.411916
    0.576129     0.449075     0.324083
    0.684709     0.608540     0.489234
EA68   20.992 20.853 20.985 90.00 90.00 90.00 Sym.group:    0
1.0000
   20.992233     0.000000     0.000000
    0.000000    20.853421     0.000000
    0.000000     0.000000    20.985114
   O  Cu
  24   24 
Direct
    0.462444     0.689710     0.464859
    0.292029     0.521106     0.498341
    0.458058     0.466496     0.292572
    0.617666     0.537223     0.644169
    0.361182     0.607312     0.588413
    0.511323     0.564377     0.674596
    0.612584     0.646774     0.551042
    0.698440     0.531779     0.524593
    0.362545     0.639231     0.450327
    0.312778     0.474966     0.400279
    0.507825     0.630761     0.342621
    0.604632     0.659880     0.442648
    0.444559     0.395006     0.475820
    0.517441     0.394463     0.434622
    0.445547     0.472358     0.577846
    0.555308     0.491321     0.579239
    0.597849     0.469818     0.461750
    0.548249     0.411931     0.545782
    0.453651     0.409608     0.425143
    0.508350     0.379860     0.485301
    0.584483     0.448351     0.536248
    0.410931     0.444534     0.525374
    0.519074     0.454901     0.588774
    0.570707     0.448001     0.420606
    0.590011     0.594311     0.634214
    0.383755     0.659776     0.505243
    0.570872     0.627178     0.355239
    0.441233     0.669165     0.409945
    0.410971     0.570079     0.654510
    0.562796     0.684008     0.484945
    0.306212     0.554067     0.446088
    0.654421     0.622646     0.508745
    0.514391     0.551661     0.296811
    0.325789     0.553807     0.585750
    0.367038     0.468527     0.637155
    0.316922     0.489338     0.565225
    0.677944     0.472625     0.404693
    0.610229     0.457115     0.657946
    0.603229     0.375032     0.623130
    0.425277     0.300941     0.443915
    0.500850     0.300246     0.401609
    0.572944     0.419638     0.667758
    0.640514     0.412508     0.613319
    0.650015     0.450174     0.362357
    0.434633     0.315968     0.391767
    0.491495     0.285220     0.453758
    0.331106     0.439642     0.582686
    0.659696     0.536562     0.382228
EA69   18.586 29.791 20.395 90.00 90.00 90.00 Sym.group:    0
1.0000
   18.586455     0.000000     0.000000
    0.000000    29.791414     0.000000
    0.000000     0.000000    20.395269
   O  Cu
  24   24 
Direct
    0.552527     0.494854     0.491368
    0.802053     0.584672     0.488596
    0.425702     0.602579     0.500897
    0.039728     0.578784     0.477166
    0.162744     0.481623     0.450513
   -0.001635     0.566275     0.524481
    0.387069     0.521741     0.468429
    0.933218     0.601326     0.487596
    0.268685     0.586815     0.532133
    0.783771     0.526955     0.428053
    0.274724     0.465808     0.437516
    0.021641     0.542691     0.455608
    0.117623     0.594897     0.489680
    0.830781     0.518774     0.630280
    0.968315     0.435303     0.615015
    0.243510     0.422377     0.607368
    0.892689     0.399840     0.508295
    0.656270     0.478248     0.560839
    0.276805     0.372791     0.428785
    0.665455     0.471338     0.458370
    0.182832     0.350684     0.530216
    0.986661     0.421947     0.406864
    0.449908     0.416732     0.495439
    0.624712     0.562578     0.436774
    0.976334     0.532000     0.468105
    0.788913     0.615036     0.477750
    0.547275     0.530590     0.480549
    0.078358     0.532313     0.458420
    0.128145     0.561691     0.499410
    0.852568     0.543618     0.473941
    0.321275     0.497039     0.520391
    0.376758     0.600768     0.517178
    0.482377     0.510023     0.513791
    0.227919     0.615161     0.505135
    0.388261     0.565603     0.532258
    0.650507     0.507568     0.428801
    0.856576     0.463764     0.622308
    0.437904     0.437980     0.533337
    0.956639     0.494710     0.347479
    0.279622     0.358454     0.493355
    0.217715     0.477388     0.615340
    0.630473     0.533259     0.568811
    0.158724     0.393359     0.606331
    0.915567     0.547792     0.631317
    0.889871     0.414178     0.443725
    0.447089     0.431070     0.430869
    0.177071     0.380003     0.398179
    0.668273     0.457000     0.522940
EA70   20.908 20.749 20.613 90.00 90.00 90.00 Sym.group:    0
1.0000
   20.907891     0.000000     0.000000
    0.000000    20.748696     0.000000
    0.000000     0.000000    20.613033
   O  Cu
  24   24 
Direct
    0.664120     0.585641     0.447420
    0.610721     0.563930     0.454778
    0.614167     0.450627     0.347706
    0.411706     0.539510     0.320620
    0.553070     0.673398     0.548912
    0.386185     0.632560     0.404663
    0.354960     0.631170     0.480463
    0.584604     0.673071     0.473230
    0.402345     0.458396     0.324414
    0.623342     0.531827     0.345659
    0.355884     0.367974     0.416494
    0.529597     0.316705     0.573838
    0.338457     0.619312     0.552171
    0.392700     0.357158     0.593204
    0.335572     0.526116     0.615755
    0.564698     0.545941     0.677940
    0.435976     0.305311     0.463782
    0.673004     0.544730     0.581475
    0.665109     0.432515     0.581060
    0.609318     0.329491     0.495565
    0.429187     0.430130     0.670716
    0.456385     0.572398     0.679114
    0.684619     0.438235     0.436207
    0.616545     0.486328     0.543638
    0.477066     0.534835     0.444892
    0.524293     0.466763     0.453521
    0.592364     0.488660     0.379911
    0.425840     0.505062     0.360401
    0.552510     0.633971     0.511156
    0.399452     0.601274     0.447298
    0.313159     0.565879     0.457026
    0.645777     0.630568     0.504106
    0.338893     0.472046     0.372276
    0.675103     0.523643     0.407532
    0.456566     0.725661     0.471772
    0.520819     0.491382     0.260173
    0.306438     0.566099     0.537201
    0.480151     0.514830     0.694544
    0.367591     0.579329     0.630725
    0.385017     0.327990     0.495048
    0.692302     0.467403     0.534364
    0.614144     0.347816     0.557233
    0.406843     0.345295     0.385227
    0.373402     0.434485     0.640315
    0.524771     0.298380     0.512170
    0.448485     0.352803     0.623605
    0.540932     0.603508     0.662509
    0.645810     0.509842     0.628172
EA71   19.335 19.343 22.201 90.00 90.00 90.00 Sym.group:    0
1.0000
   19.335172     0.000000     0.000000
    0.000000    19.343286     0.000000
    0.000000     0.000000    22.200970
   O  Cu
  24   24 
Direct
    0.256148     0.436771     0.547645
    0.258702     0.553845     0.456245
    0.259236     0.484246     0.434153
    0.255614     0.506370     0.569736
    0.234418     0.440450     0.484974
    0.233578     0.550029     0.519757
    0.458272     0.622708     0.584104
    0.462664     0.369089     0.412495
    0.460460     0.656353     0.503680
    0.460476     0.335445     0.492920
    0.332014     0.458648     0.588735
    0.336812     0.532416     0.412390
    0.725451     0.521786     0.552764
    0.722857     0.470006     0.451918
    0.653626     0.516014     0.539843
    0.651617     0.475918     0.461749
    0.617734     0.358235     0.503216
    0.616678     0.633766     0.496846
    0.614502     0.590328     0.412245
    0.619910     0.401673     0.587816
    0.650654     0.462721     0.608069
    0.644564     0.529220     0.393306
    0.646613     0.382066     0.450984
    0.648605     0.609875     0.550391
    0.395491     0.597561     0.531781
    0.397054     0.393863     0.467123
    0.313480     0.493818     0.417171
    0.308983     0.497112     0.584787
    0.309480     0.432305     0.564217
    0.312983     0.558624     0.437741
    0.425653     0.475026     0.548562
    0.428355     0.516577     0.449239
    0.477337     0.586461     0.526715
    0.478726     0.405439     0.469253
    0.502570     0.415781     0.347902
    0.500635     0.668005     0.427963
    0.521222     0.455284     0.513942
    0.520085     0.536905     0.481950
    0.602532     0.397862     0.485648
    0.602674     0.594167     0.513783
    0.600424     0.549254     0.426308
    0.604782     0.442775     0.573123
    0.720410     0.462104     0.566707
    0.716664     0.529699     0.437732
    0.718215     0.418300     0.481395
    0.718858     0.573503     0.523044
    0.502790     0.428759     0.651801
    0.499391     0.672840     0.556131
EA72   20.023 20.275 20.191 90.00 90.00 90.00 Sym.group:    0
1.0000
   20.022710     0.000000     0.000000
    0.000000    20.274749     0.000000
    0.000000     0.000000    20.190742
   O  Cu
  24   24 
Direct
    0.527635     0.465754     0.676534
    0.661629     0.540469     0.576228
    0.410825     0.377215     0.593224
    0.495346     0.357042     0.401134
    0.634136     0.454260     0.388372
    0.576767     0.351522     0.562462
    0.583478     0.377858     0.592058
    0.476594     0.385213     0.379520
    0.665880     0.552080     0.537553
    0.614657     0.420012     0.397045
    0.489599     0.453406     0.669522
    0.442232     0.357472     0.576643
    0.626956     0.550041     0.358796
    0.378379     0.533410     0.639479
    0.327163     0.500837     0.415072
    0.536501     0.687852     0.521912
    0.454153     0.684750     0.482337
    0.382575     0.484790     0.346185
    0.316897     0.575093     0.515412
    0.651930     0.637366     0.512793
    0.347945     0.616188     0.550216
    0.649028     0.631950     0.451463
    0.344396     0.623529     0.489149
    0.368154     0.581711     0.576532
    0.386805     0.341504     0.471895
    0.677943     0.400400     0.496583
    0.370099     0.367957     0.435466
    0.350738     0.372460     0.479858
    0.684373     0.420466     0.539825
    0.697539     0.444001     0.499539
    0.572995     0.472242     0.686407
    0.657871     0.534889     0.622612
    0.654204     0.492468     0.370673
    0.377775     0.397771     0.619528
    0.564561     0.317112     0.533971
    0.522380     0.324330     0.419796
    0.578808     0.614894     0.381409
    0.419692     0.603185     0.619649
    0.416213     0.639291     0.422685
    0.578976     0.643990     0.579720
    0.458530     0.510405     0.322193
    0.322241     0.477505     0.494740
    0.573399     0.563358     0.348484
    0.430355     0.551238     0.650434
    0.339352     0.453360     0.441382
    0.520854     0.661842     0.567953
    0.472276     0.661998     0.435289
    0.409165     0.533514     0.350268
EA73   20.065 20.557 20.100 90.00 90.00 90.00 Sym.group:    0
1.0000
   20.064982     0.000000     0.000000
    0.000000    20.557207     0.000000
    0.000000     0.000000    20.099903
   O  Cu
  24   24 
Direct
    0.297100     0.566797     0.505349
    0.457612     0.565824     0.319613
    0.643531     0.641988     0.466786
    0.483018     0.642961     0.652521
    0.568743     0.687591     0.539157
    0.347530     0.471648     0.361830
    0.350847     0.608041     0.412208
    0.638973     0.541846     0.361927
    0.530235     0.641764     0.367802
    0.423604     0.388425     0.345998
    0.389354     0.653868     0.583564
    0.335148     0.528706     0.643267
    0.661281     0.463363     0.499605
    0.561621     0.341845     0.542936
    0.398119     0.369514     0.556508
    0.438480     0.301956     0.521378
    0.683546     0.515420     0.436451
    0.628573     0.337424     0.488463
    0.447132     0.324117     0.609003
    0.692198     0.537581     0.524075
    0.637223     0.359585     0.576088
    0.439266     0.421531     0.685259
    0.644046     0.513037     0.636299
    0.572041     0.408975     0.671726
    0.316013     0.552181     0.415489
    0.587655     0.672975     0.449297
    0.624618     0.656604     0.556646
    0.675048     0.561456     0.413127
    0.390595     0.617618     0.638045
    0.550036     0.591167     0.334090
    0.331934     0.622656     0.502068
    0.368968     0.383161     0.382992
    0.299073     0.509097     0.592067
    0.437811     0.616420     0.353326
    0.481779     0.679212     0.598038
    0.402166     0.476912     0.324836
    0.412282     0.352410     0.411950
    0.617061     0.443916     0.362991
    0.545055     0.339854     0.398418
    0.522794     0.436203     0.665644
    0.437961     0.474006     0.666746
    0.583596     0.574650     0.622916
    0.595610     0.486526     0.643729
    0.496797     0.369611     0.402337
    0.569613     0.419934     0.380423
    0.430746     0.462005     0.528969
    0.560300     0.448324     0.516127
    0.493266     0.419296     0.531919
EA74   20.430 20.017 20.499 90.00 90.00 90.00 Sym.group:    0
1.0000
   20.430140     0.000000     0.000000
    0.000000    20.016691     0.000000
    0.000000     0.000000    20.498842
   O  Cu
  24   24 
Direct
    0.489946     0.332451     0.434949
    0.693238     0.458875     0.557499
    0.410989     0.456419     0.360908
    0.610649     0.626969     0.388424
    0.596208     0.347442     0.586585
    0.689610     0.591807     0.523871
    0.571859     0.443325     0.343995
    0.510718     0.564247     0.328107
    0.618512     0.356935     0.455858
    0.671790     0.506046     0.404312
    0.612371     0.605446     0.641888
    0.297114     0.547046     0.542268
    0.325601     0.396258     0.536602
    0.419261     0.651361     0.600195
    0.404539     0.655057     0.412304
    0.477717     0.341935     0.588568
    0.322024     0.556617     0.456878
    0.525753     0.589486     0.660204
    0.351124     0.402579     0.451090
    0.554854     0.435447     0.654416
    0.450584     0.401738     0.609504
    0.416094     0.584308     0.616365
    0.407831     0.590733     0.386832
    0.642369     0.443449     0.493699
    0.654205     0.448359     0.630103
    0.450913     0.321935     0.507554
    0.705387     0.508100     0.521044
    0.660976     0.630045     0.563279
    0.398840     0.407193     0.397363
    0.642912     0.455798     0.382644
    0.635241     0.357957     0.513980
    0.395212     0.540126     0.363735
    0.539597     0.614495     0.349775
    0.538696     0.335431     0.604325
    0.547458     0.344461     0.417209
    0.656013     0.589753     0.407139
    0.526496     0.480540     0.325280
    0.553141     0.703765     0.467569
    0.454798     0.719293     0.505722
    0.389466     0.380204     0.588502
    0.351238     0.582557     0.596106
    0.319166     0.600233     0.517656
    0.564896     0.644571     0.629040
    0.365116     0.357005     0.508516
    0.327806     0.472863     0.597011
    0.514050     0.648821     0.625060
    0.343272     0.620444     0.478114
    0.394350     0.350074     0.467954
EA75   18.912 19.299 22.604 90.00 90.00 90.00 Sym.group:    0
1.0000
   18.912120     0.000000     0.000000
    0.000000    19.298806     0.000000
    0.000000     0.000000    22.604009
   O  Cu
  24   24 
Direct
    0.251519     0.572896     0.436992
    0.318404     0.350977     0.492836
    0.512683     0.671724     0.425393
    0.254162     0.581875     0.500931
    0.321048     0.359956     0.556774
    0.515327     0.680703     0.489332
    0.393792     0.615045     0.531627
    0.317378     0.472822     0.561976
    0.388566     0.597293     0.405220
    0.312152     0.455070     0.435568
    0.473663     0.548553     0.513527
    0.761891     0.471483     0.442010
    0.754618     0.492689     0.551202
    0.766313     0.538599     0.464341
    0.780819     0.427406     0.478713
    0.787781     0.533077     0.513873
    0.431875     0.408958     0.581112
    0.545785     0.652848     0.514629
    0.519246     0.343295     0.484010
    0.437750     0.498132     0.610783
    0.537498     0.620314     0.576182
    0.527534     0.375830     0.422457
    0.681747     0.523815     0.430152
    0.663575     0.452479     0.565118
    0.414195     0.501379     0.522037
    0.459106     0.433828     0.484886
    0.471448     0.541029     0.459946
    0.411980     0.493855     0.468456
    0.497058     0.612409     0.471768
    0.331380     0.540895     0.481224
    0.385212     0.396718     0.517978
    0.437792     0.649652     0.530835
    0.284016     0.517424     0.555278
    0.278355     0.498192     0.418335
    0.413457     0.339027     0.462361
    0.485325     0.471693     0.382603
    0.610358     0.591234     0.531141
    0.597416     0.394801     0.465783
    0.688798     0.425333     0.543200
    0.703951     0.484816     0.430658
    0.692916     0.487828     0.563993
    0.574838     0.515527     0.460864
    0.564603     0.475347     0.536881
    0.459100     0.470851     0.560353
    0.518739     0.586738     0.528597
    0.507237     0.412171     0.470513
    0.486811     0.578320     0.624240
    0.470785     0.335092     0.543311
EA76   21.437 26.287 21.810 90.00 90.00 90.00 Sym.group:    0
1.0000
   21.437134     0.000000     0.000000
    0.000000    26.286567     0.000000
    0.000000     0.000000    21.809988
   O  Cu
  24   24 
Direct
    0.220807     0.484035     0.432172
    0.210690     0.539167     0.563047
    0.207369     0.577560     0.499603
    0.224128     0.445641     0.495616
    0.183346     0.539929     0.450204
    0.188574     0.479480     0.550093
    0.485545     0.415667     0.582641
    0.462315     0.640412     0.368567
    0.553955     0.662667     0.499410
    0.476023     0.481943     0.630427
    0.558367     0.611654     0.583704
    0.303204     0.590495     0.541654
    0.493957     0.387298     0.475936
    0.728190     0.580132     0.488104
    0.589573     0.361586     0.473713
    0.776520     0.422644     0.475198
    0.393872     0.387780     0.481151
    0.774216     0.517998     0.491062
    0.598209     0.503246     0.515897
    0.798291     0.368144     0.479064
    0.418544     0.319049     0.499291
    0.849693     0.571176     0.516153
    0.674451     0.524798     0.477672
    0.455643     0.445107     0.471713
    0.397162     0.466658     0.575403
    0.387442     0.579027     0.389719
    0.642092     0.612412     0.513008
    0.273915     0.594421     0.505925
    0.294419     0.437494     0.477631
    0.291327     0.473243     0.418556
    0.277008     0.558671     0.565000
    0.425498     0.566255     0.508738
    0.500583     0.479531     0.556208
    0.539298     0.597666     0.516011
    0.503436     0.691085     0.421679
    0.515472     0.551946     0.651598
    0.883163     0.497106     0.498555
    0.309732     0.330640     0.485221
    0.707972     0.470670     0.489974
    0.568731     0.548942     0.485378
    0.542782     0.500367     0.482565
    0.702582     0.404461     0.489477
    0.666400     0.471343     0.479656
    0.814105     0.540754     0.487471
    0.399530     0.352126     0.474154
    0.649996     0.403172     0.510077
    0.644615     0.529995     0.526183
    0.437259     0.484405     0.449723
EA77   20.057 20.754 20.586 90.00 90.00 90.00 Sym.group:    0
1.0000
   20.056865     0.000000     0.000000
    0.000000    20.754240     0.000000
    0.000000     0.000000    20.585700
   O  Cu
  24   24 
Direct
    0.492678     0.521730     0.602685
    0.399154     0.482034     0.440258
    0.512308     0.413197     0.548640
    0.397135     0.461569     0.548976
    0.398471     0.545094     0.545579
    0.494988     0.601313     0.525859
    0.523814     0.556760     0.579835
    0.536452     0.474537     0.587049
    0.444243     0.596590     0.511991
    0.418081     0.514787     0.582299
    0.447589     0.407174     0.530952
    0.377525     0.491878     0.512256
    0.398194     0.508623     0.355598
    0.606968     0.402705     0.587269
    0.543013     0.581675     0.361459
    0.537740     0.424312     0.360821
    0.624409     0.608484     0.476879
    0.515706     0.338212     0.471888
    0.408306     0.546563     0.356098
    0.641699     0.533011     0.588984
    0.555112     0.348483     0.473457
    0.595114     0.636152     0.475809
    0.572307     0.554007     0.362528
    0.498334     0.414042     0.359253
    0.310693     0.549196     0.592823
    0.309129     0.462768     0.596016
    0.517603     0.316689     0.563906
    0.617253     0.524510     0.647956
    0.491091     0.698265     0.513030
    0.539776     0.537453     0.687698
    0.438874     0.693405     0.498758
    0.450421     0.310436     0.545545
    0.330872     0.518009     0.630606
    0.571815     0.573499     0.664185
    0.288951     0.493954     0.558233
    0.585214     0.488463     0.671468
    0.419876     0.631165     0.361563
    0.696026     0.510472     0.523611
    0.642768     0.501218     0.369918
    0.415717     0.382138     0.360718
    0.531411     0.695305     0.462276
    0.640508     0.371825     0.465654
    0.366016     0.429080     0.358903
    0.666245     0.398736     0.522141
    0.430612     0.317116     0.457300
    0.687445     0.547931     0.467971
    0.486734     0.648591     0.364225
    0.625612     0.436847     0.369072
EA78   21.014 20.649 21.022 90.00 90.00 90.00 Sym.group:    0
1.0000
   21.014385     0.000000     0.000000
    0.000000    20.649085     0.000000
    0.000000     0.000000    21.021528
   O  Cu
  24   24 
Direct
    0.568334     0.695157     0.515727
    0.602113     0.523105     0.348981
    0.372667     0.455762     0.370308
    0.338888     0.627814     0.537054
    0.340642     0.559333     0.409067
    0.684716     0.564618     0.461545
    0.575798     0.654843     0.411028
    0.295376     0.485616     0.529446
    0.495985     0.375070     0.358468
    0.492592     0.521979     0.321260
    0.423848     0.692196     0.498835
    0.484106     0.675164     0.632522
    0.484641     0.413463     0.462515
    0.420693     0.429616     0.515159
    0.594210     0.446045     0.509331
    0.556019     0.465025     0.612587
    0.435968     0.489514     0.609287
    0.503331     0.405368     0.582384
    0.570258     0.537889     0.597480
    0.459919     0.397669     0.521137
    0.493635     0.442551     0.618071
    0.556547     0.439365     0.456194
    0.565715     0.427841     0.576899
    0.603897     0.495613     0.499055
    0.622703     0.650131     0.455843
    0.395012     0.514306     0.349182
    0.318298     0.500788     0.430192
    0.434680     0.370249     0.376011
    0.409448     0.682664     0.561190
    0.531553     0.468255     0.324844
    0.521429     0.699870     0.470912
    0.545413     0.679986     0.614980
    0.563152     0.576829     0.345399
    0.303320     0.534628     0.570678
    0.353289     0.637346     0.474696
    0.676771     0.515605     0.420313
    0.673484     0.419187     0.456800
    0.357464     0.514654     0.663832
    0.583710     0.406470     0.682741
    0.528930     0.344879     0.651711
    0.433021     0.339713     0.419342
    0.366995     0.356192     0.474044
    0.593687     0.368206     0.646018
    0.518952     0.383141     0.688434
    0.683451     0.470191     0.446224
    0.407361     0.323319     0.480194
    0.634389     0.412253     0.401642
    0.623588     0.610521     0.640438
EA79   20.234 20.368 17.437 90.00 90.00 90.00 Sym.group:    0
1.0000
   20.233982     0.000000     0.000000
    0.000000    20.368132     0.000000
    0.000000     0.000000    17.437465
   O  Cu
  24   24 
Direct
    0.345586     0.616472     0.457943
    0.340777     0.390103     0.457943
    0.556009     0.315607     0.457943
    0.693838     0.495936     0.457943
    0.563790     0.681881     0.457943
    0.615765     0.345498     0.542057
    0.387859     0.342882     0.542057
    0.314928     0.557397     0.542057
    0.497760     0.692591     0.542057
    0.683688     0.561631     0.542057
    0.345586     0.616472     0.542057
    0.340777     0.390103     0.542057
    0.556009     0.315607     0.542057
    0.693838     0.495936     0.542057
    0.563790     0.681881     0.542057
    0.615765     0.345498     0.457943
    0.387859     0.342882     0.457943
    0.314928     0.557397     0.457943
    0.497760     0.692591     0.457943
    0.683688     0.561631     0.457943
    0.500000     0.500000     0.637562
    0.500000     0.500000     0.362438
    0.451276     0.409206     0.372614
    0.571866     0.425909     0.372614
    0.593140     0.545003     0.372614
    0.485697     0.601905     0.372614
    0.398021     0.517978     0.372614
    0.408143     0.452466     0.627386
    0.426107     0.572096     0.627386
    0.546189     0.592093     0.627386
    0.602439     0.484820     0.627386
    0.517122     0.398525     0.627386
    0.451276     0.409206     0.627386
    0.571866     0.425909     0.627386
    0.593140     0.545003     0.627386
    0.485697     0.601905     0.627386
    0.398021     0.517978     0.627386
    0.408143     0.452466     0.372614
    0.426107     0.572096     0.372614
    0.546189     0.592093     0.372614
    0.602439     0.484820     0.372614
    0.517122     0.398525     0.372614
    0.472229     0.331041     0.500000
    0.653173     0.421552     0.500000
    0.622437     0.620475     0.500000
    0.422497     0.652907     0.500000
    0.329664     0.474027     0.500000
    0.500000     0.500000     0.500000
EA80   19.042 18.227 18.097 90.00 90.00 90.00 Sym.group:    0
1.0000
   19.041907     0.000000     0.000000
    0.000000    18.226568     0.000000
    0.000000     0.000000    18.096886
   O  Cu
  24   24 
Direct
    0.660364     0.381826     0.440311
    0.660364     0.610410     0.426769
    0.660364     0.507763     0.632919
    0.495278     0.341426     0.530117
    0.495278     0.553391     0.346628
    0.495278     0.605184     0.623255
    0.374051     0.514136     0.388437
    0.374051     0.588861     0.568111
    0.374051     0.397003     0.543451
    0.572138     0.396881     0.617334
    0.572138     0.450668     0.351390
    0.572138     0.652450     0.531277
    0.475517     0.398019     0.567902
    0.475517     0.492603     0.377099
    0.475517     0.609377     0.554999
    0.499244     0.504455     0.336694
    0.499244     0.638193     0.585539
    0.499244     0.357351     0.577767
    0.639417     0.376332     0.479307
    0.639417     0.579627     0.402479
    0.639417     0.544041     0.618214
    0.502893     0.502504     0.416749
    0.502893     0.570333     0.543810
    0.502893     0.427163     0.539441
    0.324163     0.548343     0.548084
    0.324163     0.434483     0.518124
    0.324163     0.517174     0.433792
    0.540965     0.589662     0.432309
    0.540965     0.513374     0.612052
    0.540965     0.396963     0.455639
    0.427708     0.374904     0.522016
    0.427708     0.543617     0.379880
    0.427708     0.581479     0.598104
    0.625030     0.642452     0.485048
    0.625030     0.441630     0.631727
    0.625030     0.415917     0.383224
    0.565737     0.522260     0.353099
    0.565737     0.615186     0.592866
    0.565737     0.362555     0.554036
    0.389461     0.490842     0.640080
    0.389461     0.384129     0.421971
    0.389461     0.625029     0.437948
    0.457218     0.521805     0.577078
    0.457218     0.422822     0.480480
    0.457218     0.555374     0.442442
    0.327405     0.500000     0.500000
    0.565329     0.500000     0.500000
    0.459712     0.500000     0.500000
EA81   21.251 20.608 15.057 90.00 90.00 90.00 Sym.group:    0
1.0000
   21.251360     0.000000     0.000000
    0.000000    20.607560     0.000000
    0.000000     0.000000    15.057101
   O  Cu
  24   24 
Direct
    0.649296     0.306684     0.510866
    0.649296     0.693316     0.489134
    0.350704     0.306684     0.510866
    0.350704     0.693316     0.489134
    0.472833     0.586593     0.559671
    0.472833     0.413407     0.440329
    0.527167     0.586593     0.559671
    0.527167     0.413407     0.440329
    0.672388     0.659911     0.432119
    0.672388     0.340089     0.567881
    0.327612     0.659911     0.432119
    0.327612     0.340089     0.567881
    0.325508     0.408293     0.549961
    0.325508     0.591707     0.450039
    0.674492     0.408293     0.549961
    0.674492     0.591707     0.450039
    0.363497     0.454073     0.500384
    0.363497     0.545927     0.499616
    0.636503     0.454073     0.500384
    0.636503     0.545927     0.499616
    0.526437     0.500000     0.500000
    0.473563     0.500000     0.500000
    0.638804     0.501966     0.425039
    0.638804     0.498034     0.574961
    0.361196     0.501966     0.425039
    0.361196     0.498034     0.574961
    0.343123     0.359545     0.507206
    0.343123     0.640455     0.492794
    0.656877     0.359545     0.507206
    0.656877     0.640455     0.492794
    0.391316     0.654420     0.567099
    0.391316     0.345580     0.432901
    0.608684     0.654420     0.567099
    0.608684     0.345580     0.432901
    0.702607     0.500000     0.500000
    0.297393     0.500000     0.500000
    0.588200     0.540281     0.444694
    0.588200     0.459719     0.555306
    0.411800     0.540281     0.444694
    0.411800     0.459719     0.555306
    0.476429     0.410364     0.516091
    0.476429     0.589636     0.483909
    0.523571     0.410364     0.516091
    0.523571     0.589636     0.483909
    0.622217     0.414582     0.419736
    0.622217     0.585418     0.580264
    0.377783     0.414582     0.419736
    0.377783     0.585418     0.580264
EA82   19.400 17.341 17.341 90.00 90.00 90.00 Sym.group:    0
1.0000
   19.399615     0.000000     0.000000
    0.000000    17.341099     0.000000
    0.000000     0.000000    17.341099
   O  Cu
  24   24 
Direct
    0.325780     0.538244     0.601480
    0.325780     0.398520     0.538244
    0.325780     0.461756     0.398520
    0.325780     0.601480     0.461756
    0.674220     0.601480     0.538244
    0.674220     0.538244     0.398520
    0.674220     0.398520     0.461756
    0.674220     0.461756     0.601480
    0.674220     0.538244     0.601480
    0.674220     0.398520     0.538244
    0.674220     0.461756     0.398520
    0.674220     0.601480     0.461756
    0.325780     0.601480     0.538244
    0.325780     0.538244     0.398520
    0.325780     0.398520     0.461756
    0.325780     0.461756     0.601480
    0.619722     0.449593     0.386319
    0.619722     0.613681     0.449593
    0.619722     0.550407     0.613681
    0.619722     0.386319     0.550407
    0.380278     0.386319     0.449593
    0.380278     0.449593     0.613681
    0.380278     0.613681     0.550407
    0.380278     0.550407     0.386319
    0.380278     0.449593     0.386319
    0.380278     0.613681     0.449593
    0.380278     0.550407     0.613681
    0.380278     0.386319     0.550407
    0.619722     0.386319     0.449593
    0.619722     0.449593     0.613681
    0.619722     0.613681     0.550407
    0.619722     0.550407     0.386319
    0.550827     0.537321     0.635548
    0.550827     0.364452     0.537321
    0.550827     0.462679     0.364452
    0.550827     0.635548     0.462679
    0.449173     0.635548     0.537321
    0.449173     0.537321     0.364452
    0.449173     0.364452     0.462679
    0.449173     0.462679     0.635548
    0.449173     0.537321     0.635548
    0.449173     0.364452     0.537321
    0.449173     0.462679     0.364452
    0.449173     0.635548     0.462679
    0.550827     0.635548     0.537321
    0.550827     0.537321     0.364452
    0.550827     0.364452     0.462679
    0.550827     0.462679     0.635548
EA83   23.385 22.826 14.384 90.00 90.00 90.00 Sym.group:    0
1.0000
   23.385066     0.000000     0.000000
    0.000000    22.826495     0.000000
    0.000000     0.000000    14.384200
   O  Cu
  24   24 
Direct
    0.534496     0.264125     0.463572
    0.283357     0.587332     0.463572
    0.682146     0.648543     0.463572
    0.716643     0.412668     0.536428
    0.465504     0.735875     0.536428
    0.317854     0.351457     0.536428
    0.538258     0.404145     0.523444
    0.399842     0.513985     0.523444
    0.561902     0.581870     0.523444
    0.582604     0.440310     0.476556
    0.509156     0.603132     0.476556
    0.408240     0.456557     0.476556
    0.490844     0.396868     0.523444
    0.417396     0.559690     0.523444
    0.591760     0.543443     0.523444
    0.600158     0.486015     0.476556
    0.461742     0.595855     0.476556
    0.438098     0.418130     0.476556
    0.608911     0.626187     0.439371
    0.552216     0.340279     0.439371
    0.338873     0.533534     0.439371
    0.355541     0.419561     0.560629
    0.640227     0.412053     0.560629
    0.504232     0.668385     0.560629
    0.359773     0.587947     0.439371
    0.644459     0.580439     0.439371
    0.495768     0.331615     0.439371
    0.447784     0.659721     0.560629
    0.391089     0.373813     0.560629
    0.661127     0.466466     0.560629
    0.393372     0.441367     0.549663
    0.503749     0.623918     0.549663
    0.602879     0.434714     0.549663
    0.579685     0.593308     0.450337
    0.381281     0.524044     0.450337
    0.539035     0.382648     0.450337
    0.618719     0.475956     0.549663
    0.420315     0.406692     0.549663
    0.460965     0.617352     0.549663
    0.496251     0.376082     0.450337
    0.606628     0.558633     0.450337
    0.397121     0.565286     0.450337
    0.559871     0.655878     0.500000
    0.398166     0.631058     0.500000
    0.601834     0.368942     0.500000
    0.661706     0.524820     0.500000
    0.338294     0.475180     0.500000
    0.440129     0.344122     0.500000
EA84   21.244 18.766 18.743 90.00 90.00 90.00 Sym.group:    0
1.0000
   21.243757     0.000000     0.000000
    0.000000    18.766245     0.000000
    0.000000     0.000000    18.743031
   O  Cu
  24   24 
Direct
    0.441730     0.500001     0.496040
    0.558175     0.461545     0.601176
    0.416960     0.580302     0.561082
    0.566253     0.588081     0.448519
    0.425817     0.474138     0.393633
    0.563649     0.395932     0.497686
    0.685488     0.577005     0.522908
    0.301452     0.533568     0.416228
    0.688862     0.443733     0.459100
    0.295792     0.431665     0.523189
    0.681990     0.514026     0.589014
    0.513070     0.509144     0.452706
    0.474491     0.457141     0.474654
    0.508759     0.464367     0.534185
    0.470908     0.520838     0.542394
    0.510856     0.548511     0.494572
    0.602237     0.490102     0.601431
    0.374523     0.586530     0.530110
    0.610941     0.563372     0.436937
    0.380895     0.452642     0.409632
    0.606175     0.407354     0.526972
    0.439103     0.547650     0.531954
    0.544581     0.548946     0.468729
    0.444025     0.482604     0.438903
    0.542830     0.440300     0.501803
    0.438021     0.480502     0.552395
    0.577160     0.394896     0.402564
    0.408414     0.370164     0.562308
    0.564103     0.524857     0.649391
    0.410918     0.645201     0.515051
    0.578707     0.564879     0.373358
    0.365854     0.503179     0.619247
    0.609227     0.622691     0.544059
    0.378194     0.572653     0.386000
    0.616531     0.422205     0.405946
    0.370368     0.379273     0.533888
    0.548801     0.365246     0.441916
    0.432434     0.400141     0.604981
    0.538760     0.573035     0.631756
    0.439782     0.645000     0.466136
    0.553342     0.516577     0.356104
    0.478354     0.579749     0.653188
    0.498765     0.671289     0.471632
    0.495580     0.526113     0.327559
    0.501387     0.344851     0.421990
    0.479974     0.378000     0.622508
    0.364966     0.500002     0.490823
    0.700794     0.499997     0.513646
EA85   24.845 17.003 17.003 90.00 90.00 90.00 Sym.group:    0
1.0000
   24.845380     0.000000     0.000000
    0.000000    17.003364     0.000000
    0.000000     0.000000    17.003364
   O  Cu
  24   24 
Direct
    0.585297     0.377297     0.494681
    0.585297     0.505319     0.377297
    0.585297     0.622703     0.505319
    0.585297     0.494681     0.622703
    0.532956     0.401006     0.387480
    0.532956     0.612520     0.401006
    0.532956     0.598994     0.612520
    0.532956     0.387480     0.598994
    0.680027     0.445764     0.530838
    0.680027     0.469162     0.445764
    0.680027     0.554236     0.469162
    0.680027     0.530838     0.554236
    0.617701     0.628309     0.443829
    0.617701     0.556171     0.628309
    0.617701     0.371691     0.556171
    0.617701     0.443829     0.371691
    0.210834     0.500000     0.500000
    0.594517     0.563613     0.393455
    0.594517     0.606545     0.563613
    0.594517     0.436387     0.606545
    0.594517     0.393455     0.436387
    0.547069     0.547535     0.576381
    0.547069     0.423619     0.547535
    0.547069     0.452465     0.423619
    0.547069     0.576381     0.452465
    0.425889     0.565486     0.583089
    0.425889     0.416911     0.565486
    0.425889     0.434514     0.416911
    0.425889     0.583089     0.434514
    0.412574     0.475636     0.373526
    0.412574     0.626474     0.475636
    0.412574     0.524364     0.626474
    0.412574     0.373526     0.524364
    0.594126     0.450948     0.447955
    0.594126     0.552045     0.450948
    0.594126     0.549052     0.552045
    0.594126     0.447955     0.549052
    0.292837     0.539090     0.545553
    0.292837     0.454447     0.539090
    0.292837     0.460910     0.454447
    0.292837     0.545553     0.460910
    0.247680     0.474485     0.443228
    0.247680     0.556772     0.474485
    0.247680     0.525515     0.556772
    0.247680     0.443228     0.525515
    0.433375     0.500000     0.500000
    0.702088     0.500000     0.500000
    0.531006     0.500000     0.500000
EA86   19.317 19.661 16.019 90.00 90.00 90.00 Sym.group:    0
1.0000
   19.317298     0.000000     0.000000
    0.000000    19.660926     0.000000
    0.000000     0.000000    16.018914
   O  Cu
  24   24 
Direct
    0.528500     0.358360     0.575470
    0.371704     0.429599     0.575470
    0.392208     0.598129     0.575470
    0.561677     0.631048     0.575470
    0.645910     0.482863     0.575470
    0.619121     0.584543     0.424530
    0.454975     0.637437     0.424530
    0.353051     0.500397     0.424530
    0.454205     0.362809     0.424530
    0.618646     0.414814     0.424530
    0.528500     0.358360     0.424530
    0.371704     0.429599     0.424530
    0.392208     0.598129     0.424530
    0.561677     0.631048     0.424530
    0.645910     0.482863     0.424530
    0.619121     0.584543     0.575470
    0.454975     0.637437     0.575470
    0.353051     0.500397     0.575470
    0.454205     0.362809     0.575470
    0.618646     0.414814     0.575470
    0.565394     0.449506     0.398622
    0.471331     0.423291     0.398622
    0.416889     0.503085     0.398622
    0.477303     0.578616     0.398622
    0.569084     0.545502     0.398622
    0.582879     0.493146     0.601378
    0.532245     0.575326     0.601378
    0.437050     0.553408     0.601378
    0.428850     0.457682     0.601378
    0.518977     0.420438     0.601378
    0.565394     0.449506     0.601378
    0.471331     0.423291     0.601378
    0.416889     0.503085     0.601378
    0.477303     0.578616     0.601378
    0.569084     0.545502     0.601378
    0.582879     0.493146     0.398622
    0.532245     0.575326     0.398622
    0.437050     0.553408     0.398622
    0.428850     0.457682     0.398622
    0.518977     0.420438     0.398622
    0.602702     0.341686     0.500000
    0.378492     0.355110     0.500000
    0.322202     0.568767     0.500000
    0.511623     0.687391     0.500000
    0.684982     0.547047     0.500000
    0.500000     0.500000     0.394534
    0.500000     0.500000     0.605466
    0.500000     0.500000     0.500000
EA87   21.505 20.531 23.356 90.00 90.00 90.00 Sym.group:    0
1.0000
   21.505092     0.000000     0.000000
    0.000000    20.531352     0.000000
    0.000000     0.000000    23.355908
   O  Cu
  24   24 
Direct
    0.449500     0.709912     0.364886
    0.731064     0.543329     0.375493
    0.550500     0.290088     0.364886
    0.268936     0.456671     0.375493
    0.448282     0.351687     0.331068
    0.449507     0.290108     0.635103
    0.448280     0.648310     0.668942
    0.590663     0.598155     0.453644
    0.550493     0.709892     0.635103
    0.409328     0.598171     0.546350
    0.731039     0.456676     0.624500
    0.268961     0.543324     0.624500
    0.551720     0.351690     0.668942
    0.551718     0.648313     0.331068
    0.409337     0.401845     0.453644
    0.590672     0.401829     0.546350
    0.407766     0.445968     0.582463
    0.718297     0.365398     0.461930
    0.592229     0.445972     0.417549
    0.718292     0.634614     0.538069
    0.592234     0.554032     0.582463
    0.281708     0.365386     0.538069
    0.407771     0.554028     0.417549
    0.281703     0.634602     0.461930
    0.548722     0.306257     0.622205
    0.271682     0.438752     0.622881
    0.451278     0.693743     0.622205
    0.728318     0.561248     0.622881
    0.546201     0.635411     0.656628
    0.548717     0.693762     0.377790
    0.546202     0.364591     0.343381
    0.395263     0.384974     0.535676
    0.451283     0.306238     0.377790
    0.604746     0.384975     0.464317
    0.271663     0.561245     0.377110
    0.728337     0.438755     0.377110
    0.453798     0.635409     0.343381
    0.453799     0.364589     0.656628
    0.604737     0.615026     0.535676
    0.395254     0.615025     0.464317
    0.604640     0.539202     0.404315
    0.280663     0.636284     0.552742
    0.395358     0.539198     0.595703
    0.280660     0.363711     0.447257
    0.395360     0.460798     0.404315
    0.719340     0.636289     0.447257
    0.604642     0.460802     0.595703
    0.719337     0.363716     0.552742
EA88   20.101 22.638 19.320 90.00 90.00 90.00 Sym.group:    0
1.0000
   20.101081     0.000000     0.000000
    0.000000    22.638076     0.000000
    0.000000     0.000000    19.320439
   O  Cu
  24   24 
Direct
    0.756336     0.540358     0.505383
    0.243668     0.459645     0.505361
    0.756332     0.459645     0.494639
    0.243664     0.540358     0.494617
    0.515684     0.364103     0.552155
    0.462476     0.535914     0.333304
    0.484316     0.364103     0.447845
    0.462463     0.464104     0.666714
    0.484306     0.635898     0.552154
    0.537524     0.535914     0.666696
    0.515694     0.635898     0.447846
    0.537537     0.464104     0.333286
    0.641861     0.359704     0.340062
    0.358169     0.640285     0.340055
    0.641831     0.640285     0.659945
    0.358139     0.359704     0.659938
    0.594979     0.352444     0.442142
    0.520357     0.371403     0.428962
    0.405021     0.352444     0.557858
    0.520334     0.628584     0.571025
    0.405037     0.647541     0.442142
    0.479643     0.371403     0.571038
    0.594963     0.647541     0.557858
    0.479666     0.628584     0.428975
    0.286017     0.400274     0.474294
    0.714001     0.599733     0.474307
    0.285999     0.599733     0.525693
    0.713983     0.400274     0.525706
    0.590504     0.633843     0.365674
    0.594925     0.570934     0.572902
    0.409496     0.633843     0.634326
    0.594913     0.429049     0.427130
    0.409524     0.366169     0.365670
    0.405075     0.570934     0.427098
    0.590476     0.366169     0.634330
    0.405087     0.429049     0.572870
    0.731718     0.549687     0.453994
    0.268298     0.450319     0.453977
    0.731702     0.450319     0.546023
    0.268282     0.549687     0.546006
    0.572397     0.386017     0.539803
    0.414091     0.502955     0.358583
    0.427603     0.386017     0.460197
    0.414071     0.497052     0.641411
    0.427593     0.613985     0.539792
    0.585909     0.502955     0.641417
    0.572407     0.613985     0.460208
    0.585929     0.497052     0.358589
EA89   28.140 26.633 13.885 90.00 90.00 90.00 Sym.group:    0
1.0000
   28.140264     0.000000     0.000000
    0.000000    26.632551     0.000000
    0.000000     0.000000    13.884755
   O  Cu
  24   24 
Direct
    0.578093     0.647805     0.514975
    0.337811     0.495911     0.523607
    0.584916     0.354720     0.516565
    0.657074     0.623140     0.520047
    0.321505     0.582478     0.521810
    0.522086     0.295494     0.522000
    0.360131     0.304603     0.527100
    0.730256     0.470711     0.527222
    0.409935     0.725877     0.527347
    0.516453     0.698094     0.507892
    0.326290     0.409806     0.502536
    0.660556     0.387363     0.511937
    0.476563     0.555953     0.458697
    0.465929     0.449865     0.456404
    0.557660     0.493523     0.458376
    0.365053     0.236487     0.515203
    0.784084     0.508554     0.515262
    0.352095     0.756494     0.514578
    0.578912     0.751275     0.466167
    0.251955     0.447346     0.469585
    0.666995     0.301558     0.467034
    0.591101     0.431999     0.531150
    0.510580     0.617098     0.531496
    0.398151     0.452282     0.531441
    0.743934     0.347451     0.493166
    0.499777     0.793120     0.493460
    0.251761     0.354230     0.492732
    0.454036     0.656705     0.504807
    0.394018     0.380245     0.500854
    0.651631     0.464338     0.505845
    0.506091     0.465616     0.517439
    0.525384     0.522724     0.518313
    0.468930     0.511827     0.518532
    0.423031     0.307889     0.496560
    0.696848     0.526788     0.499008
    0.380328     0.667413     0.498768
    0.450488     0.622085     0.523836
    0.423938     0.394572     0.519101
    0.624971     0.484592     0.523988
    0.288015     0.424793     0.520283
    0.668194     0.345770     0.517538
    0.544236     0.728709     0.512715
    0.664304     0.557216     0.459566
    0.371556     0.622792     0.460821
    0.463929     0.323050     0.457651
    0.422348     0.465090     0.442255
    0.567353     0.445892     0.441850
    0.510711     0.588657     0.442482
EA90   20.163 19.840 18.146 90.00 90.00 90.00 Sym.group:    0
1.0000
   20.163243     0.000000     0.000000
    0.000000    19.839776     0.000000
    0.000000     0.000000    18.146415
   O  Cu
  24   24 
Direct
    0.486846     0.622182     0.651393
    0.607958     0.453278     0.650376
    0.403474     0.431132     0.648487
    0.448045     0.388801     0.350858
    0.623223     0.512201     0.350909
    0.430481     0.604680     0.347963
    0.412743     0.600813     0.445451
    0.629306     0.526231     0.448255
    0.457469     0.372916     0.448505
    0.387763     0.431734     0.551055
    0.614609     0.435343     0.552754
    0.498112     0.633198     0.553980
    0.499598     0.445705     0.407281
    0.455950     0.529670     0.399458
    0.549329     0.526111     0.410610
    0.513248     0.553404     0.598291
    0.446028     0.487422     0.587718
    0.535855     0.461252     0.596640
    0.341933     0.588300     0.576022
    0.651159     0.590984     0.579916
    0.498830     0.317481     0.581217
    0.325513     0.456533     0.418632
    0.627248     0.363920     0.420741
    0.555301     0.675801     0.423479
    0.473627     0.308604     0.472023
    0.348118     0.617752     0.467967
    0.674310     0.573644     0.469463
    0.536308     0.690295     0.532091
    0.321710     0.435733     0.529303
    0.645926     0.374135     0.529152
    0.377018     0.615956     0.558276
    0.658993     0.547882     0.559507
    0.459996     0.333741     0.561364
    0.348462     0.423052     0.439624
    0.642535     0.402529     0.439565
    0.512985     0.671621     0.441670
    0.619320     0.513064     0.630126
    0.450503     0.389050     0.630440
    0.429236     0.599643     0.630101
    0.614009     0.451234     0.369742
    0.485300     0.624934     0.369679
    0.401638     0.424801     0.369909
    0.389078     0.402308     0.510971
    0.473825     0.645185     0.511388
    0.638414     0.449156     0.510567
    0.421592     0.624711     0.488495
    0.431298     0.367320     0.489804
    0.645778     0.504559     0.488783
EA91   20.430 20.430 20.339 90.00 90.00 90.00 Sym.group:    0
1.0000
   20.430253     0.000000     0.000000
    0.000000    20.430253     0.000000
    0.000000     0.000000    20.338577
   O  Cu
  24   24 
Direct
    0.551579     0.422539     0.459209
    0.544332     0.414325     0.539674
    0.445789     0.573543     0.460090
    0.455031     0.575627     0.540986
    0.530447     0.518706     0.405900
    0.603326     0.517891     0.494920
    0.526334     0.525601     0.594072
    0.404614     0.488471     0.495335
    0.463357     0.474808     0.590873
    0.562874     0.581044     0.506647
    0.457168     0.484385     0.409154
    0.449276     0.415381     0.503115
    0.519226     0.399191     0.502733
    0.584319     0.440760     0.496151
    0.418649     0.554365     0.494071
    0.489807     0.597893     0.507029
    0.429412     0.450388     0.539516
    0.512015     0.463579     0.589735
    0.580416     0.556175     0.541194
    0.468422     0.533070     0.404852
    0.583996     0.547317     0.460366
    0.477700     0.536843     0.595211
    0.422691     0.458020     0.458964
    0.519222     0.470078     0.410202
    0.532653     0.518597     0.311403
    0.460920     0.474439     0.686725
    0.456688     0.483416     0.313189
    0.525852     0.527270     0.688682
    0.684855     0.566746     0.493898
    0.603594     0.342079     0.458330
    0.642073     0.634318     0.505576
    0.396767     0.653530     0.458220
    0.369116     0.365873     0.504886
    0.406183     0.657162     0.541811
    0.323883     0.439193     0.495665
    0.595352     0.334681     0.541606
    0.349394     0.399036     0.541945
    0.665443     0.596809     0.457967
    0.342962     0.407637     0.458611
    0.660844     0.605865     0.541510
    0.510976     0.462878     0.686072
    0.566479     0.317188     0.504235
    0.475798     0.538832     0.689337
    0.366725     0.633623     0.493823
    0.521088     0.468538     0.313796
    0.438930     0.678154     0.506213
    0.468255     0.533479     0.310796
    0.635171     0.360659     0.495705
EA92   22.361 20.560 18.770 90.00 90.00 90.00 Sym.group:    0
1.0000
   22.361064     0.000000     0.000000
    0.000000    20.560011     0.000000
    0.000000     0.000000    18.769566
   O  Cu
  24   24 
Direct
    0.282634     0.450340     0.546891
    0.282634     0.549660     0.453109
    0.717365     0.480718     0.452333
    0.717365     0.519282     0.547667
    0.282635     0.582832     0.507512
    0.282635     0.417168     0.492488
    0.717366     0.569042     0.511398
    0.717366     0.430958     0.488602
    0.300291     0.526125     0.542809
    0.300291     0.473875     0.457191
    0.699709     0.539189     0.471460
    0.699709     0.460811     0.528540
    0.459773     0.397691     0.413294
    0.459773     0.602309     0.586706
    0.540227     0.374024     0.537681
    0.540227     0.625976     0.462319
    0.459773     0.463659     0.365001
    0.459773     0.536341     0.634999
    0.540227     0.418004     0.610121
    0.540227     0.581996     0.389879
    0.680038     0.371597     0.552339
    0.680038     0.628403     0.447661
    0.319962     0.307393     0.465109
    0.319962     0.692607     0.534891
    0.389767     0.451052     0.421050
    0.389767     0.548948     0.578950
    0.610233     0.426578     0.552633
    0.610233     0.573422     0.447367
    0.338373     0.609877     0.506321
    0.338373     0.390123     0.493679
    0.661628     0.586043     0.511753
    0.661628     0.413957     0.488247
    0.338372     0.420825     0.544643
    0.338372     0.579175     0.455357
    0.661627     0.460010     0.454271
    0.661627     0.539990     0.545729
    0.423695     0.459519     0.530006
    0.423695     0.540481     0.469994
    0.576305     0.473012     0.454991
    0.576305     0.526988     0.545009
    0.478747     0.456115     0.430471
    0.478747     0.543885     0.569529
    0.521253     0.434175     0.546353
    0.521253     0.565825     0.453647
    0.500000     0.469761     0.663285
    0.500000     0.651197     0.532658
    0.500000     0.530239     0.336715
    0.500000     0.348803     0.467342
EA93   20.449 20.710 20.202 90.00 90.00 90.00 Sym.group:    0
1.0000
   20.448549     0.000000     0.000000
    0.000000    20.709516     0.000000
    0.000000     0.000000    20.202272
   O  Cu
  24   24 
Direct
    0.368407     0.491263     0.377401
    0.631593     0.508737     0.377401
    0.373320     0.541812     0.622598
    0.626680     0.458188     0.622598
    0.375943     0.632723     0.499036
    0.545046     0.668532     0.375782
    0.667476     0.554171     0.500964
    0.474029     0.322055     0.624219
    0.624057     0.367277     0.499036
    0.525971     0.677945     0.624219
    0.332524     0.445829     0.500964
    0.454954     0.331468     0.375782
    0.484927     0.321175     0.678155
    0.515073     0.678825     0.678155
    0.533728     0.665387     0.321842
    0.466272     0.334613     0.321842
    0.681580     0.454350     0.563122
    0.585875     0.342792     0.502978
    0.309744     0.493352     0.436875
    0.642559     0.591957     0.497022
    0.318420     0.545650     0.563122
    0.357441     0.408043     0.497022
    0.690256     0.506648     0.436875
    0.414125     0.657208     0.502978
    0.421000     0.651008     0.384328
    0.579000     0.348992     0.384328
    0.349331     0.403710     0.615672
    0.650669     0.596290     0.615672
    0.426244     0.621334     0.348331
    0.385222     0.617272     0.372822
    0.633619     0.574902     0.651670
    0.332878     0.449029     0.627178
    0.573756     0.378666     0.348331
    0.667122     0.550971     0.627178
    0.366381     0.425098     0.651670
    0.614778     0.382728     0.372822
    0.442510     0.544899     0.693260
    0.557490     0.455101     0.693260
    0.437708     0.483840     0.306742
    0.562292     0.516160     0.306742
    0.698424     0.511717     0.498107
    0.435165     0.328092     0.441816
    0.330639     0.606852     0.501893
    0.533018     0.680912     0.558186
    0.301576     0.488283     0.498107
    0.466982     0.319088     0.558186
    0.669361     0.393148     0.501893
    0.564835     0.671908     0.441816
EA94   43.535 20.224 13.922 90.00 90.00 90.00 Sym.group:    0
1.0000
   43.534528     0.000000     0.000000
    0.000000    20.223753     0.000000
    0.000000     0.000000    13.922298
   O  Cu
  24   24 
Direct
    0.145114     0.427495     0.501991
    0.854770     0.572478     0.501911
    0.654016     0.640003     0.489422
    0.347624     0.364709     0.490666
    0.228039     0.614205     0.500498
    0.771900     0.386573     0.500298
    0.491052     0.649763     0.507242
    0.508500     0.347579     0.514823
    0.590525     0.516907     0.522129
    0.410771     0.483829     0.542009
    0.479365     0.363749     0.456521
    0.521825     0.632622     0.458545
    0.743496     0.498760     0.524638
    0.256172     0.501510     0.524454
    0.563230     0.637962     0.503786
    0.436839     0.359911     0.490528
    0.336492     0.615183     0.460073
    0.663486     0.384751     0.460242
    0.665574     0.561071     0.546717
    0.333584     0.441537     0.548573
    0.503903     0.600927     0.529030
    0.495360     0.397283     0.529692
    0.437414     0.658729     0.500979
    0.561463     0.338837     0.502875
    0.535663     0.526665     0.517347
    0.464241     0.471323     0.505223
    0.340524     0.314363     0.504315
    0.662078     0.689354     0.505335
    0.147167     0.484075     0.517563
    0.852790     0.515900     0.517592
    0.533632     0.423541     0.530343
    0.465760     0.574116     0.523451
    0.431941     0.605311     0.484686
    0.567447     0.392570     0.491171
    0.380132     0.436589     0.506090
    0.619750     0.571502     0.498962
    0.696210     0.529680     0.464541
    0.303212     0.469930     0.463203
    0.738023     0.381847     0.481296
    0.261909     0.618363     0.481105
    0.193032     0.460868     0.477467
    0.806890     0.538808     0.477521
    0.362461     0.668938     0.491085
    0.637403     0.331248     0.491239
    0.255617     0.561088     0.461212
    0.744085     0.439223     0.461318
    0.453675     0.403439     0.514622
    0.545845     0.594885     0.525673
EA95   22.834 22.751 22.226 90.00 90.00 90.00 Sym.group:    0
1.0000
   22.833840     0.000000     0.000000
    0.000000    22.751420     0.000000
    0.000000     0.000000    22.226227
   O  Cu
  24   24 
Direct
    0.382732     0.604428     0.374888
    0.658906     0.624146     0.376086
    0.600499     0.627144     0.631763
    0.408859     0.607405     0.599808
    0.497024     0.665501     0.624173
    0.513772     0.397760     0.661769
    0.408907     0.355919     0.432966
    0.534484     0.544966     0.365451
    0.458844     0.370673     0.325841
    0.271057     0.455406     0.352788
    0.693732     0.380039     0.456389
    0.366736     0.388377     0.512813
    0.588904     0.323821     0.607762
    0.479859     0.654771     0.370335
    0.462216     0.545446     0.763136
    0.616012     0.454207     0.547921
    0.390924     0.278754     0.605759
    0.739391     0.542844     0.527704
    0.595899     0.597117     0.506657
    0.616183     0.456989     0.311147
    0.561077     0.400990     0.420806
    0.426242     0.452619     0.665535
    0.348831     0.723170     0.524254
    0.352289     0.547516     0.453459
    0.598245     0.388119     0.631247
    0.408236     0.390122     0.592219
    0.380480     0.380319     0.374368
    0.658279     0.378291     0.368505
    0.484380     0.344314     0.384300
    0.459695     0.614049     0.325931
    0.582557     0.673399     0.592430
    0.462667     0.449522     0.750336
    0.514621     0.617519     0.661865
    0.625522     0.538170     0.554770
    0.372541     0.608975     0.518100
    0.699539     0.622576     0.461670
    0.402551     0.646877     0.417650
    0.501542     0.335424     0.638144
    0.534936     0.460125     0.352649
    0.280568     0.552202     0.359634
    0.566698     0.609413     0.425383
    0.352779     0.460709     0.452199
    0.353637     0.287697     0.514872
    0.430005     0.541485     0.662486
    0.396579     0.710871     0.610277
    0.619945     0.548879     0.308098
    0.600741     0.392044     0.497214
    0.739879     0.448892     0.526445
EA96   21.517 22.390 18.041 90.00 90.00 90.00 Sym.group:    0
1.0000
   21.516576     0.000000     0.000000
    0.000000    22.390286     0.000000
    0.000000     0.000000    18.040723
   O  Cu
  24   24 
Direct
    0.355537     0.426277     0.649851
    0.367032     0.431845     0.353330
    0.629640     0.423339     0.647008
    0.495369     0.347603     0.351401
    0.493776     0.350570     0.647922
    0.644463     0.573723     0.649851
    0.636935     0.416713     0.350488
    0.506224     0.649430     0.647922
    0.632968     0.568155     0.353330
    0.370360     0.576661     0.647008
    0.504631     0.652397     0.351401
    0.363065     0.583287     0.350488
    0.384889     0.344297     0.501723
    0.582763     0.326349     0.498590
    0.697874     0.482052     0.499687
    0.615111     0.655703     0.501723
    0.417237     0.673651     0.498590
    0.302126     0.517948     0.499687
    0.370290     0.377018     0.500790
    0.545974     0.330560     0.498788
    0.675686     0.453541     0.500422
    0.629710     0.622982     0.500790
    0.454026     0.669440     0.498788
    0.324314     0.546459     0.500422
    0.273833     0.517877     0.612469
    0.274881     0.512801     0.387040
    0.598926     0.306697     0.610655
    0.372711     0.321852     0.389591
    0.374001     0.317913     0.615020
    0.726167     0.482123     0.612469
    0.599071     0.302390     0.385226
    0.625999     0.682087     0.615020
    0.725119     0.487199     0.387040
    0.401074     0.693303     0.610655
    0.627289     0.678148     0.389591
    0.400929     0.697610     0.385226
    0.388009     0.458425     0.574044
    0.392109     0.460402     0.422654
    0.590547     0.430254     0.576956
    0.482283     0.387570     0.424696
    0.480928     0.388852     0.576086
    0.611991     0.541575     0.574044
    0.592545     0.427341     0.425565
    0.519072     0.611148     0.576086
    0.607891     0.539598     0.422654
    0.409453     0.569746     0.576956
    0.517717     0.612430     0.424696
    0.407455     0.572659     0.425565
EA97   20.474 20.111 20.325 90.00 90.00 90.00 Sym.group:    0
1.0000
   20.473769     0.000000     0.000000
    0.000000    20.110590     0.000000
    0.000000     0.000000    20.324840
   O  Cu
  24   24 
Direct
    0.638398     0.389613     0.420304
    0.368162     0.623566     0.572686
    0.566000     0.375090     0.369518
    0.423972     0.606596     0.640962
    0.382193     0.543974     0.356488
    0.399817     0.376542     0.611964
    0.352010     0.461705     0.380164
    0.550246     0.677381     0.436079
    0.656088     0.527897     0.608881
    0.613011     0.621973     0.402997
    0.606828     0.470054     0.657396
    0.436626     0.323160     0.549255
    0.452867     0.318103     0.427921
    0.434496     0.472303     0.681389
    0.693811     0.527369     0.432170
    0.425271     0.685153     0.452032
    0.447580     0.349062     0.374748
    0.400452     0.346759     0.413845
    0.374971     0.649982     0.448065
    0.699865     0.548262     0.489849
    0.478041     0.514254     0.693316
    0.413064     0.654100     0.400122
    0.705272     0.487457     0.477957
    0.492118     0.453760     0.690650
    0.338028     0.579756     0.508410
    0.649640     0.407379     0.501245
    0.505529     0.603576     0.656133
    0.504954     0.420698     0.336143
    0.562419     0.400041     0.644844
    0.614852     0.543018     0.373920
    0.639954     0.591540     0.556650
    0.508916     0.315713     0.509555
    0.344411     0.419769     0.451951
    0.362456     0.451624     0.616010
    0.454837     0.582383     0.344883
    0.507257     0.682014     0.507051
    0.616017     0.369302     0.466716
    0.351895     0.570439     0.567080
    0.563530     0.427428     0.350149
    0.467225     0.631607     0.617393
    0.431451     0.525693     0.340021
    0.368242     0.404859     0.576433
    0.336716     0.477187     0.431040
    0.563745     0.668849     0.489038
    0.618608     0.568821     0.609219
    0.578295     0.592330     0.371757
    0.611438     0.427695     0.621520
    0.488426     0.334164     0.564077
EA98   20.420 19.403 18.982 90.00 90.00 90.00 Sym.group:    0
1.0000
   20.420421     0.000000     0.000000
    0.000000    19.403401     0.000000
    0.000000     0.000000    18.982004
   O  Cu
  24   24 
Direct
    0.566691     0.465428     0.682897
    0.567176     0.362658     0.378338
    0.571099     0.672071     0.439640
    0.433309     0.465428     0.682897
    0.432824     0.362658     0.378338
    0.428901     0.672071     0.439640
    0.642458     0.563239     0.581538
    0.638406     0.397239     0.515878
    0.639738     0.535868     0.401757
    0.357542     0.563239     0.581538
    0.361594     0.397239     0.515878
    0.360262     0.535868     0.401757
    0.566794     0.444971     0.349364
    0.575688     0.657428     0.524723
    0.566902     0.402633     0.625121
    0.433206     0.444971     0.349364
    0.424312     0.657428     0.524723
    0.433098     0.402633     0.625121
    0.420511     0.377811     0.516800
    0.417726     0.549909     0.381928
    0.413595     0.578127     0.601714
    0.579489     0.377811     0.516800
    0.582274     0.549909     0.381928
    0.586405     0.578127     0.601714
    0.309494     0.497301     0.500102
    0.690506     0.497301     0.500102
    0.407087     0.532848     0.651042
    0.409930     0.355349     0.453680
    0.407925     0.611307     0.395229
    0.592913     0.532848     0.651042
    0.590070     0.355349     0.453680
    0.592075     0.611307     0.395229
    0.608605     0.401064     0.388191
    0.613170     0.643536     0.469138
    0.608845     0.453721     0.643313
    0.391395     0.401064     0.388191
    0.386830     0.643536     0.469138
    0.391155     0.453721     0.643313
    0.500000     0.652562     0.381708
    0.500000     0.523003     0.693967
    0.500000     0.323230     0.423146
    0.621161     0.429574     0.602344
    0.620871     0.447427     0.387372
    0.625483     0.620629     0.510663
    0.378839     0.429574     0.602344
    0.379129     0.447427     0.387372
    0.374517     0.620629     0.510663
    0.500000     0.500930     0.499637
EA99   31.927 22.599 13.712 90.00 90.00 90.00 Sym.group:    0
1.0000
   31.927435     0.000000     0.000000
    0.000000    22.599157     0.000000
    0.000000     0.000000    13.712225
   O  Cu
  24   24 
Direct
    0.291578     0.418606     0.470512
    0.291578     0.581394     0.529488
    0.708481     0.418523     0.470542
    0.708481     0.581477     0.529458
    0.679667     0.575742     0.532676
    0.679667     0.424258     0.467324
    0.320394     0.575705     0.532608
    0.320394     0.424295     0.467392
    0.401257     0.289949     0.494716
    0.401257     0.710051     0.505284
    0.596417     0.293219     0.491321
    0.596417     0.706781     0.508679
    0.546348     0.639019     0.522542
    0.546348     0.360981     0.477458
    0.455247     0.639353     0.515261
    0.455247     0.360647     0.484739
    0.726088     0.607603     0.482192
    0.726088     0.392397     0.517808
    0.273981     0.607510     0.482256
    0.273981     0.392490     0.517744
    0.660527     0.500000     0.500000
    0.339587     0.500000     0.500000
    0.529659     0.391809     0.502427
    0.529659     0.608191     0.497573
    0.470427     0.391548     0.504236
    0.470427     0.608452     0.495764
    0.793349     0.600868     0.526719
    0.793349     0.399132     0.473281
    0.206719     0.600861     0.526758
    0.206719     0.399139     0.473242
    0.337221     0.444640     0.519150
    0.337221     0.555360     0.480850
    0.662893     0.444653     0.519045
    0.662893     0.555347     0.480955
    0.572210     0.328040     0.523860
    0.572210     0.671960     0.476140
    0.427724     0.326082     0.539084
    0.427724     0.673918     0.460916
    0.403001     0.500000     0.500000
    0.597112     0.500000     0.500000
    0.197950     0.500000     0.500000
    0.802052     0.500000     0.500000
    0.460169     0.534546     0.525006
    0.460169     0.465454     0.474994
    0.539944     0.534554     0.525034
    0.539944     0.465446     0.474966
    0.500113     0.279655     0.533906
    0.500113     0.720345     0.466094
EA100  21.224 20.162 21.236 90.00 90.00 90.00 Sym.group:    0
1.0000
   21.223635     0.000000     0.000000
    0.000000    20.162001     0.000000
    0.000000     0.000000    21.236282
   O  Cu
  24   24 
Direct
    0.367108     0.366829     0.610914
    0.384725     0.373422     0.361085
    0.639877     0.372013     0.381195
    0.614639     0.365326     0.633582
    0.631135     0.325906     0.490302
    0.678648     0.632373     0.474993
    0.404130     0.683631     0.600571
    0.296716     0.449120     0.455877
    0.325940     0.628944     0.528299
    0.396587     0.546231     0.683887
    0.471639     0.636205     0.326208
    0.525047     0.625045     0.678560
    0.590317     0.677596     0.409819
    0.365079     0.312712     0.504168
    0.711872     0.448991     0.540316
    0.606907     0.555791     0.316440
    0.594598     0.680142     0.598880
    0.542167     0.454246     0.297060
    0.492489     0.323156     0.362751
    0.310950     0.552958     0.391655
    0.403935     0.681066     0.412812
    0.678724     0.549183     0.601823
    0.506659     0.315551     0.628593
    0.457699     0.443514     0.711848
    0.638951     0.634604     0.386451
    0.613558     0.627260     0.639438
    0.366191     0.626734     0.616109
    0.383649     0.633954     0.366909
    0.364276     0.684863     0.511743
    0.327326     0.368734     0.522903
    0.591993     0.326803     0.402317
    0.711574     0.551288     0.542513
    0.680041     0.370100     0.469551
    0.607592     0.453699     0.313879
    0.525996     0.364923     0.672706
    0.472596     0.373863     0.320304
    0.405877     0.311809     0.592595
    0.630405     0.676396     0.497389
    0.296421     0.550744     0.458058
    0.397270     0.444423     0.681331
    0.404591     0.322555     0.403384
    0.457413     0.546021     0.713042
    0.505828     0.677742     0.637983
    0.679907     0.447816     0.600149
    0.595272     0.316119     0.589329
    0.312136     0.450385     0.389953
    0.491666     0.683503     0.372098
    0.541885     0.555711     0.298231
EA101  19.902 21.005 21.718 90.00 90.00 90.00 Sym.group:    0
1.0000
   19.901677     0.000000     0.000000
    0.000000    21.004930     0.000000
    0.000000     0.000000    21.717682
   O  Cu
  24   24 
Direct
    0.621385     0.620484     0.392927
    0.621390     0.351362     0.439891
    0.621386     0.528155     0.667186
    0.378611     0.351160     0.559510
    0.378616     0.528742     0.332920
    0.378608     0.620096     0.607568
    0.621384     0.471258     0.667080
    0.621389     0.648840     0.440490
    0.621392     0.379904     0.392432
    0.378610     0.648638     0.560109
    0.378615     0.379516     0.607073
    0.378614     0.471845     0.332814
    0.349873     0.399378     0.445264
    0.349869     0.524998     0.651178
    0.349866     0.575621     0.403561
    0.650131     0.525390     0.348916
    0.650129     0.575344     0.596888
    0.650133     0.399272     0.554199
    0.349871     0.424656     0.403112
    0.349869     0.474610     0.651084
    0.349867     0.600728     0.445801
    0.650131     0.475002     0.348822
    0.650127     0.600622     0.554736
    0.650134     0.424379     0.596439
    0.728054     0.521777     0.618335
    0.728064     0.537082     0.422356
    0.728063     0.441142     0.459312
    0.271938     0.536903     0.577990
    0.271941     0.441103     0.540262
    0.271944     0.521991     0.381747
    0.728059     0.558897     0.459738
    0.728062     0.463097     0.422010
    0.728056     0.478009     0.618253
    0.271936     0.462918     0.577644
    0.271946     0.478223     0.381665
    0.271937     0.558858     0.540688
    0.433971     0.447974     0.559525
    0.433967     0.699118     0.510750
    0.433970     0.352910     0.429715
    0.566028     0.698916     0.489538
    0.566032     0.352368     0.570170
    0.566030     0.448723     0.440294
    0.433968     0.647632     0.429830
    0.433972     0.301084     0.510462
    0.433970     0.551277     0.559706
    0.566033     0.300882     0.489250
    0.566029     0.552026     0.440475
    0.566030     0.647090     0.570285
EA102  21.986 22.263 18.794 90.00 90.00 90.00 Sym.group:    0
1.0000
   21.986310     0.000000     0.000000
    0.000000    22.262941     0.000000
    0.000000     0.000000    18.794260
   O  Cu
  24   24 
Direct
    0.394852     0.363478     0.576354
    0.432854     0.658190     0.576357
    0.672293     0.478334     0.576351
    0.589870     0.421660     0.300236
    0.523765     0.616035     0.300228
    0.386367     0.462309     0.300230
    0.531197     0.460655     0.601131
    0.449899     0.492990     0.601131
    0.518904     0.546353     0.601131
    0.574498     0.620419     0.528141
    0.568349     0.376075     0.528141
    0.357152     0.503505     0.528141
    0.472236     0.432034     0.562330
    0.454281     0.557729     0.562330
    0.573483     0.510237     0.562331
    0.330614     0.677613     0.560651
    0.740445     0.556062     0.560650
    0.428941     0.266325     0.560646
    0.399522     0.630139     0.380741
    0.436117     0.348996     0.380739
    0.664363     0.520864     0.380746
    0.302006     0.553307     0.544186
    0.645742     0.642682     0.544186
    0.552249     0.304010     0.544185
    0.564666     0.679638     0.477432
    0.310138     0.465487     0.477431
    0.625195     0.354873     0.477432
    0.361473     0.514949     0.425264
    0.582373     0.611004     0.425264
    0.556155     0.374049     0.425265
    0.639467     0.569131     0.495813
    0.369644     0.584716     0.495814
    0.490889     0.346154     0.495812
    0.554994     0.434843     0.574898
    0.415366     0.485543     0.574898
    0.529640     0.579611     0.574898
    0.565884     0.542542     0.469934
    0.504364     0.422381     0.469935
    0.429752     0.535077     0.469935
    0.487694     0.677440     0.478701
    0.661754     0.421804     0.478702
    0.350553     0.400755     0.478700
    0.321119     0.562028     0.627681
    0.535044     0.315995     0.627679
    0.643835     0.621974     0.627681
    0.595080     0.502801     0.396512
    0.454917     0.417284     0.396513
    0.450005     0.579919     0.396513
EA103  21.218 20.163 21.286 90.00 90.00 90.00 Sym.group:    0
1.0000
   21.218427     0.000000     0.000000
    0.000000    20.163220     0.000000
    0.000000     0.000000    21.286225
   O  Cu
  24   24 
Direct
    0.375451     0.333161     0.562442
    0.375788     0.434799     0.332985
    0.376519     0.684379     0.436503
    0.375920     0.567748     0.665630
    0.335937     0.635033     0.537311
    0.625045     0.676648     0.534045
    0.663583     0.373403     0.559286
    0.449022     0.310445     0.390962
    0.623018     0.307764     0.467506
    0.545964     0.330389     0.637282
    0.623557     0.534247     0.328862
    0.624724     0.463949     0.678277
    0.679848     0.624598     0.441638
    0.320614     0.366134     0.462490
    0.454118     0.693086     0.607851
    0.550936     0.667715     0.361021
    0.670924     0.559473     0.618301
    0.452956     0.614096     0.320004
    0.331628     0.542073     0.371953
    0.547461     0.354376     0.341896
    0.672459     0.435172     0.380115
    0.549459     0.646029     0.661453
    0.324999     0.463246     0.626884
    0.450094     0.385137     0.682497
    0.625213     0.667496     0.438392
    0.624954     0.565600     0.666918
    0.622834     0.316305     0.564325
    0.623353     0.432678     0.334267
    0.664645     0.364301     0.463676
    0.374818     0.322918     0.466948
    0.335953     0.626767     0.441611
    0.551040     0.689289     0.608306
    0.377095     0.691798     0.533488
    0.454037     0.669751     0.361422
    0.375470     0.465975     0.671378
    0.376255     0.536235     0.321972
    0.320614     0.375555     0.559262
    0.678773     0.633223     0.538491
    0.545817     0.306650     0.391416
    0.449079     0.332424     0.637684
    0.328704     0.440759     0.380539
    0.547127     0.384690     0.680261
    0.668329     0.458117     0.627133
    0.452427     0.646195     0.658090
    0.327931     0.565046     0.618727
    0.450673     0.354538     0.338533
    0.675058     0.536942     0.372202
    0.549779     0.613653     0.317767
EA104  20.249 20.249 20.249 90.00 90.00 90.00 Sym.group:    0
1.0000
   20.249305     0.000000     0.000000
    0.000000    20.249305     0.000000
    0.000000     0.000000    20.249305
   O  Cu
  24   24 
Direct
    0.407271     0.498039     0.306725
    0.687891     0.476653     0.399451
    0.592729     0.413586     0.672893
    0.312109     0.434972     0.580166
    0.454653     0.632584     0.337756
    0.592729     0.586414     0.327107
    0.545347     0.451869     0.296076
    0.407271     0.306725     0.501961
    0.407271     0.501961     0.693275
    0.407271     0.693275     0.498039
    0.312109     0.565028     0.419834
    0.687891     0.523347     0.600549
    0.454653     0.367416     0.662244
    0.545347     0.548131     0.703924
    0.592729     0.327107     0.413586
    0.592729     0.672893     0.586414
    0.312109     0.419834     0.434972
    0.454653     0.337756     0.367416
    0.312109     0.580166     0.565028
    0.545347     0.703924     0.451869
    0.687891     0.399451     0.523347
    0.454653     0.662244     0.632584
    0.687891     0.600549     0.476653
    0.545347     0.296076     0.548131
    0.592729     0.501961     0.693275
    0.312109     0.523347     0.600549
    0.407271     0.586414     0.327107
    0.687891     0.565028     0.419834
    0.545347     0.367416     0.662244
    0.407271     0.413586     0.672893
    0.454653     0.548131     0.703924
    0.592729     0.693275     0.498039
    0.592729     0.498039     0.306725
    0.592729     0.306725     0.501961
    0.687891     0.434972     0.580166
    0.312109     0.476653     0.399451
    0.545347     0.632584     0.337756
    0.454653     0.451869     0.296076
    0.407271     0.672893     0.586414
    0.407271     0.327107     0.413586
    0.687891     0.580166     0.565028
    0.545347     0.662244     0.632584
    0.687891     0.419834     0.434972
    0.454653     0.296076     0.548131
    0.312109     0.600549     0.476653
    0.545347     0.337756     0.367416
    0.312109     0.399451     0.523347
    0.454653     0.703924     0.451869
EA105  20.031 20.031 19.927 90.00 90.00 90.00 Sym.group:    0
1.0000
   20.031347     0.000000     0.000000
    0.000000    20.031347     0.000000
    0.000000     0.000000    19.926600
   O  Cu
  24   24 
Direct
    0.311209     0.368494     0.491421
    0.508534     0.368494     0.310217
    0.688791     0.368494     0.508579
    0.491466     0.368494     0.689783
    0.608665     0.318120     0.590585
    0.656478     0.631506     0.606525
    0.359022     0.681880     0.507360
    0.368761     0.448674     0.316971
    0.343522     0.631506     0.393475
    0.285970     0.551326     0.567925
    0.605968     0.631506     0.342699
    0.394032     0.631506     0.657301
    0.640978     0.681880     0.492640
    0.391335     0.318120     0.409415
    0.631239     0.448674     0.683029
    0.714030     0.551326     0.432075
    0.507322     0.681880     0.641718
    0.682072     0.448674     0.368071
    0.590112     0.318120     0.390764
    0.432430     0.551326     0.284845
    0.492678     0.681880     0.358282
    0.567570     0.551326     0.715155
    0.409888     0.318120     0.609236
    0.317928     0.448674     0.631929
    0.688791     0.631506     0.508579
    0.491466     0.631506     0.689783
    0.311209     0.631506     0.491421
    0.508534     0.631506     0.310217
    0.391335     0.681880     0.409415
    0.343522     0.368494     0.393475
    0.640978     0.318120     0.492640
    0.631239     0.551326     0.683029
    0.656478     0.368494     0.606525
    0.714030     0.448674     0.432075
    0.394032     0.368494     0.657301
    0.605968     0.368494     0.342699
    0.359022     0.318120     0.507360
    0.608665     0.681880     0.590585
    0.368761     0.551326     0.316971
    0.285970     0.448674     0.567925
    0.492678     0.318120     0.358282
    0.317928     0.551326     0.631929
    0.409888     0.681880     0.609236
    0.567570     0.448674     0.715155
    0.507322     0.318120     0.641718
    0.432430     0.448674     0.284845
    0.590112     0.681880     0.390764
    0.682072     0.551326     0.368071
EA106  20.420 19.308 18.961 90.00 90.00 90.00 Sym.group:    0
1.0000
   20.420416     0.000000     0.000000
    0.000000    19.308045     0.000000
    0.000000     0.000000    18.961355
   O  Cu
  24   24 
Direct
    0.431678     0.516347     0.684604
    0.431678     0.648828     0.393282
    0.431678     0.334825     0.422113
    0.568322     0.516347     0.684604
    0.568322     0.648828     0.393282
    0.568322     0.334825     0.422113
    0.359799     0.426986     0.574172
    0.359799     0.599589     0.527302
    0.359799     0.473425     0.398526
    0.640201     0.426986     0.574172
    0.640201     0.599589     0.527302
    0.640201     0.473425     0.398526
    0.430205     0.570756     0.357867
    0.430205     0.343741     0.508669
    0.430205     0.585502     0.633463
    0.569795     0.570756     0.357867
    0.569795     0.343741     0.508669
    0.569795     0.585502     0.633463
    0.582723     0.622814     0.527973
    0.582723     0.462384     0.377709
    0.582723     0.414803     0.594318
    0.417277     0.622814     0.527973
    0.417277     0.462384     0.377709
    0.417277     0.414803     0.594318
    0.690506     0.500000     0.500000
    0.309494     0.500000     0.500000
    0.591686     0.451721     0.646529
    0.591686     0.648758     0.469311
    0.591686     0.399520     0.384161
    0.408314     0.451721     0.646529
    0.408314     0.648758     0.469311
    0.408314     0.399520     0.384161
    0.389793     0.609834     0.399054
    0.389793     0.359231     0.453615
    0.389793     0.530935     0.647331
    0.610207     0.609834     0.399054
    0.610207     0.359231     0.453615
    0.610207     0.530935     0.647331
    0.500000     0.360292     0.370786
    0.500000     0.459961     0.687809
    0.500000     0.679747     0.441404
    0.377495     0.559002     0.609482
    0.377495     0.563611     0.393228
    0.377495     0.377388     0.497291
    0.622505     0.559002     0.609482
    0.622505     0.563611     0.393228
    0.622505     0.377388     0.497291
    0.500000     0.500000     0.500000
EA107  19.424 20.304 18.087 90.00 90.00 90.00 Sym.group:    0
1.0000
   19.424065     0.000000     0.000000
    0.000000    20.304457     0.000000
    0.000000     0.000000    18.087095
   O  Cu
  24   24 
Direct
    0.624151     0.488857     0.650580
    0.448012     0.608428     0.650580
    0.427837     0.402715     0.650580
    0.389369     0.444962     0.349420
    0.505491     0.619174     0.349420
    0.605141     0.435864     0.349420
    0.606339     0.417694     0.447231
    0.521340     0.629252     0.447231
    0.372321     0.453054     0.447231
    0.433878     0.385450     0.552769
    0.429362     0.612056     0.552769
    0.636761     0.502494     0.552769
    0.444140     0.496137     0.405474
    0.531427     0.455654     0.405474
    0.524432     0.548210     0.405474
    0.553270     0.516540     0.594526
    0.488338     0.447597     0.594526
    0.458392     0.535862     0.594526
    0.600378     0.346550     0.579310
    0.588726     0.659885     0.579310
    0.310896     0.493565     0.579310
    0.467399     0.321688     0.420690
    0.354878     0.616165     0.420690
    0.677723     0.562147     0.420690
    0.305279     0.468807     0.469719
    0.625599     0.354275     0.469719
    0.569122     0.676918     0.469719
    0.692669     0.541235     0.530281
    0.440994     0.319761     0.530281
    0.366336     0.639005     0.530281
    0.625479     0.381785     0.559911
    0.544278     0.663064     0.559911
    0.330242     0.455152     0.559911
    0.430278     0.345290     0.440089
    0.394804     0.635117     0.440089
    0.674917     0.519593     0.440089
    0.508690     0.621510     0.630650
    0.385653     0.446444     0.630650
    0.605656     0.432045     0.630650
    0.444128     0.609440     0.369350
    0.627009     0.491569     0.369350
    0.428862     0.398991     0.369350
    0.405835     0.385002     0.511010
    0.651188     0.479486     0.511010
    0.442977     0.635513     0.511010
    0.632494     0.427379     0.488990
    0.368010     0.426542     0.488990
    0.499496     0.646079     0.488990
EA108  21.447 22.340 17.989 90.00 90.00 90.00 Sym.group:    0
1.0000
   21.446738     0.000000     0.000000
    0.000000    22.340476     0.000000
    0.000000     0.000000    17.989428
   O  Cu
  24   24 
Direct
    0.561737     0.639252     0.648683
    0.561737     0.639252     0.351317
    0.343510     0.481701     0.648683
    0.405247     0.620953     0.351317
    0.405247     0.620953     0.648683
    0.438263     0.360748     0.648683
    0.343510     0.481701     0.351317
    0.594753     0.379047     0.648683
    0.438263     0.360748     0.351317
    0.656490     0.518299     0.648683
    0.594753     0.379047     0.351317
    0.656490     0.518299     0.351317
    0.487714     0.691060     0.500000
    0.321499     0.585316     0.500000
    0.333785     0.394256     0.500000
    0.512286     0.308940     0.500000
    0.678501     0.414684     0.500000
    0.666215     0.605744     0.500000
    0.520572     0.674381     0.500000
    0.352975     0.604294     0.500000
    0.332401     0.429913     0.500000
    0.479428     0.325619     0.500000
    0.647025     0.395706     0.500000
    0.667599     0.570087     0.500000
    0.686178     0.624582     0.613036
    0.686178     0.624582     0.386964
    0.294524     0.592493     0.613036
    0.480702     0.717075     0.386964
    0.480702     0.717075     0.613036
    0.313822     0.375418     0.613036
    0.294524     0.592493     0.386964
    0.519298     0.282925     0.613036
    0.313822     0.375418     0.386964
    0.705476     0.407507     0.613036
    0.519298     0.282925     0.386964
    0.705476     0.407507     0.386964
    0.559188     0.598173     0.575911
    0.559188     0.598173     0.424089
    0.381843     0.500121     0.575911
    0.441031     0.598294     0.424089
    0.441031     0.598294     0.575911
    0.440812     0.401827     0.575911
    0.381843     0.500121     0.424089
    0.558969     0.401706     0.575911
    0.440812     0.401827     0.424089
    0.618157     0.499879     0.575911
    0.558969     0.401706     0.424089
    0.618157     0.499879     0.424089
EA109  19.318 19.754 19.754 90.00 90.00 90.00 Sym.group:    0
1.0000
   19.318095     0.000000     0.000000
    0.000000    19.754196     0.000000
    0.000000     0.000000    19.754196
   O  Cu
  24   24 
Direct
    0.672846     0.486679     0.428068
    0.672846     0.513321     0.571932
    0.327154     0.571932     0.486679
    0.327154     0.428068     0.513321
    0.381910     0.555703     0.489685
    0.381910     0.444297     0.510315
    0.618090     0.489685     0.444297
    0.618090     0.510315     0.555703
    0.590980     0.366705     0.587098
    0.590980     0.633295     0.412902
    0.409020     0.466409     0.655645
    0.409020     0.533591     0.344355
    0.590980     0.655645     0.533591
    0.590980     0.344355     0.466409
    0.409020     0.412902     0.366705
    0.409020     0.587098     0.633295
    0.385747     0.629009     0.570849
    0.385747     0.370991     0.429151
    0.614253     0.387652     0.404916
    0.614253     0.612348     0.595084
    0.385747     0.404916     0.612348
    0.385747     0.595084     0.387652
    0.614253     0.429151     0.629009
    0.614253     0.570849     0.370991
    0.482928     0.509409     0.550806
    0.482928     0.490591     0.449194
    0.517072     0.449194     0.509409
    0.517072     0.550806     0.490591
    0.579802     0.417318     0.579846
    0.579802     0.582682     0.420154
    0.420198     0.455057     0.605791
    0.420198     0.544943     0.394209
    0.579802     0.605791     0.544943
    0.579802     0.394209     0.455057
    0.420198     0.420154     0.417318
    0.420198     0.579846     0.582682
    0.331454     0.573693     0.558073
    0.331454     0.426307     0.441927
    0.668546     0.419389     0.451989
    0.668546     0.580611     0.548011
    0.331454     0.451989     0.580611
    0.331454     0.548011     0.419389
    0.668546     0.441927     0.573693
    0.668546     0.558073     0.426307
    0.500000     0.680068     0.623797
    0.500000     0.376203     0.680068
    0.500000     0.319932     0.376203
    0.500000     0.623797     0.319932
EA110  25.652 18.813 18.813 90.00 90.00 90.00 Sym.group:    0
1.0000
   25.651511     0.000000     0.000000
    0.000000    18.813381     0.000000
    0.000000     0.000000    18.813381
   O  Cu
  24   24 
Direct
    0.731168     0.532821     0.561117
    0.731168     0.467179     0.438883
    0.268832     0.506789     0.430961
    0.268832     0.493211     0.569039
    0.731168     0.430961     0.493211
    0.731168     0.569039     0.506789
    0.268832     0.438883     0.532821
    0.268832     0.561117     0.467179
    0.753621     0.471488     0.542768
    0.753621     0.528512     0.457232
    0.246379     0.457232     0.471488
    0.246379     0.542768     0.528512
    0.536565     0.610836     0.411944
    0.536565     0.389164     0.588056
    0.463435     0.636178     0.538654
    0.463435     0.363822     0.461346
    0.536565     0.538654     0.363822
    0.536565     0.461346     0.636178
    0.463435     0.588056     0.610836
    0.463435     0.411944     0.389164
    0.342620     0.552757     0.420864
    0.342620     0.447243     0.579136
    0.657380     0.579136     0.552757
    0.657380     0.420864     0.447243
    0.598092     0.553001     0.420498
    0.598092     0.446999     0.579502
    0.401908     0.579502     0.553001
    0.401908     0.420498     0.446999
    0.679598     0.417150     0.481302
    0.679598     0.582850     0.518698
    0.320402     0.430715     0.549126
    0.320402     0.569285     0.450874
    0.679598     0.549126     0.569285
    0.679598     0.450874     0.430715
    0.320402     0.518698     0.417150
    0.320402     0.481302     0.582850
    0.568638     0.544572     0.529715
    0.568638     0.455428     0.470285
    0.431362     0.529715     0.455428
    0.431362     0.470285     0.544572
    0.519731     0.547102     0.429348
    0.519731     0.452898     0.570652
    0.480269     0.570652     0.547102
    0.480269     0.429348     0.452898
    0.500000     0.532814     0.664069
    0.500000     0.335931     0.532814
    0.500000     0.467186     0.335931
    0.500000     0.664069     0.467186
EA111  20.273 20.273 20.273 90.00 90.00 90.00 Sym.group:    0
1.0000
   20.273233     0.000000     0.000000
    0.000000    20.273233     0.000000
    0.000000     0.000000    20.273233
   O  Cu
  24   24 
Direct
    0.539898     0.684248     0.543993
    0.441025     0.320944     0.456007
    0.558975     0.679056     0.456007
    0.460102     0.315752     0.543993
    0.454955     0.502014     0.311741
    0.670100     0.408114     0.509886
    0.545045     0.497986     0.311741
    0.306795     0.506987     0.490114
    0.460147     0.521091     0.688259
    0.329900     0.591886     0.509886
    0.539853     0.478909     0.688259
    0.693205     0.493013     0.490114
    0.661003     0.586931     0.413931
    0.594745     0.343467     0.586069
    0.405255     0.656533     0.586069
    0.338997     0.413069     0.413931
    0.617850     0.605273     0.373840
    0.644334     0.549919     0.367475
    0.382150     0.394727     0.373840
    0.400869     0.616178     0.632525
    0.548248     0.349524     0.626160
    0.355666     0.450081     0.367475
    0.451752     0.650476     0.626160
    0.599131     0.383822     0.632525
    0.473521     0.358286     0.388837
    0.548989     0.635589     0.611163
    0.451011     0.364411     0.611163
    0.526479     0.641714     0.388837
    0.610325     0.482064     0.643694
    0.390539     0.644996     0.488335
    0.389675     0.517936     0.643694
    0.667842     0.569528     0.511665
    0.604199     0.459553     0.356306
    0.609461     0.355004     0.488335
    0.395801     0.540447     0.356306
    0.332158     0.430472     0.511665
    0.579182     0.648344     0.559532
    0.493086     0.331989     0.440468
    0.506914     0.668011     0.440468
    0.420818     0.351656     0.559532
    0.452391     0.551767     0.336070
    0.642545     0.399509     0.462552
    0.547609     0.448233     0.336070
    0.326190     0.485604     0.537448
    0.432723     0.479499     0.663930
    0.357455     0.600491     0.462552
    0.567277     0.520501     0.663930
    0.673810     0.514396     0.537448
EA112  21.366 21.487 21.098 90.00 90.00 90.00 Sym.group:    0
1.0000
   21.366325     0.000000     0.000000
    0.000000    21.486988     0.000000
    0.000000     0.000000    21.097893
   O  Cu
  24   24 
Direct
    0.604611     0.418255     0.341068
    0.415915     0.322488     0.414698
    0.690263     0.432457     0.466575
    0.558997     0.318500     0.446796
    0.588504     0.347787     0.606593
    0.680037     0.550302     0.391748
    0.453598     0.293354     0.580718
    0.538386     0.557343     0.294013
    0.723675     0.550795     0.469474
    0.742013     0.476759     0.577043
    0.754056     0.539312     0.571781
    0.635273     0.582866     0.474661
    0.363619     0.457881     0.657393
    0.378298     0.553694     0.309814
    0.281335     0.443297     0.541871
    0.298932     0.540095     0.393502
    0.414561     0.687891     0.553256
    0.536363     0.692712     0.468110
    0.369458     0.327716     0.574167
    0.554305     0.659206     0.604542
    0.500040     0.583310     0.670280
    0.474607     0.439819     0.683732
    0.275424     0.559259     0.540406
    0.354500     0.658987     0.460311
    0.606659     0.358831     0.409671
    0.554807     0.440015     0.306512
    0.413867     0.381911     0.346094
    0.465718     0.300727     0.449254
    0.688213     0.491882     0.397971
    0.684228     0.428786     0.532032
    0.546877     0.311128     0.578260
    0.445107     0.539571     0.296471
    0.582317     0.536409     0.589930
    0.664189     0.559586     0.457166
    0.689425     0.453315     0.575469
    0.660420     0.586017     0.510985
    0.585656     0.683345     0.509483
    0.349628     0.495785     0.325640
    0.334140     0.646663     0.520332
    0.327970     0.597937     0.378991
    0.328733     0.351365     0.530066
    0.566078     0.585439     0.658478
    0.444117     0.497797     0.691299
    0.269947     0.517009     0.488481
    0.394082     0.399865     0.650024
    0.287850     0.484738     0.593914
    0.434646     0.700312     0.493146
    0.488554     0.657483     0.617777
EA113  27.525 18.778 20.805 90.00 90.00 90.00 Sym.group:    0
1.0000
   27.525167     0.000000     0.000000
    0.000000    18.778041     0.000000
    0.000000     0.000000    20.804626
   O  Cu
  24   24 
Direct
    0.272918     0.545774     0.432936
    0.270756     0.528463     0.557389
    0.270438     0.462343     0.528150
    0.273236     0.611894     0.462174
    0.247533     0.487370     0.471501
    0.248034     0.591471     0.517536
    0.561598     0.645424     0.417459
    0.481848     0.683178     0.527345
    0.561175     0.557575     0.378611
    0.480091     0.624054     0.594818
    0.352812     0.594371     0.423304
    0.348958     0.464733     0.571251
    0.542977     0.502572     0.489671
    0.684835     0.537900     0.430248
    0.710178     0.537082     0.633543
    0.788692     0.420087     0.620450
    0.351407     0.416948     0.600463
    0.742539     0.367549     0.512236
    0.603706     0.481768     0.560972
    0.371009     0.339007     0.422111
    0.610149     0.466497     0.458504
    0.311920     0.316558     0.522051
    0.801629     0.389997     0.412296
    0.476853     0.398832     0.491872
    0.626505     0.568475     0.430286
    0.414865     0.620231     0.541764
    0.325329     0.446998     0.544711
    0.328838     0.616663     0.448570
    0.328542     0.555096     0.421345
    0.325625     0.508565     0.571936
    0.593277     0.560623     0.527745
    0.447039     0.556961     0.458157
    0.542343     0.569262     0.436312
    0.498761     0.601425     0.539249
    0.517664     0.552591     0.646789
    0.800622     0.543037     0.473634
    0.726614     0.561669     0.477396
    0.603483     0.514348     0.428701
    0.722828     0.461421     0.625904
    0.470301     0.430035     0.529656
    0.788241     0.486100     0.352441
    0.371118     0.323075     0.486795
    0.298760     0.379228     0.597936
    0.762824     0.574802     0.636071
    0.742431     0.383482     0.447552
    0.476744     0.414763     0.427188
    0.311697     0.349138     0.389781
    0.610258     0.450564     0.523189
EA114  21.232 20.189 25.513 90.00 90.00 90.00 Sym.group:    0
1.0000
   21.231745     0.000000     0.000000
    0.000000    20.189063     0.000000
    0.000000     0.000000    25.513085
   O  Cu
  24   24 
Direct
    0.797380     0.506344     0.542529
    0.634373     0.359511     0.377041
    0.685753     0.643870     0.568227
    0.764651     0.369918     0.503507
    0.609230     0.563588     0.348491
    0.701451     0.636580     0.455586
    0.743047     0.471073     0.404256
    0.667031     0.366478     0.599162
    0.522193     0.677012     0.561116
    0.551392     0.402199     0.609486
    0.619285     0.557191     0.617718
    0.722818     0.538131     0.484179
    0.191597     0.413423     0.482435
    0.296193     0.535517     0.461463
    0.163933     0.432452     0.520876
    0.437492     0.451696     0.464021
    0.340818     0.371036     0.514592
    0.375465     0.544987     0.447628
    0.188214     0.467223     0.468376
    0.239866     0.380846     0.488030
    0.354641     0.597218     0.580708
    0.396976     0.674551     0.445162
    0.333115     0.709439     0.527574
    0.500461     0.588155     0.486904
    0.752563     0.522069     0.603387
    0.801527     0.454133     0.508254
    0.721973     0.334136     0.532821
    0.709781     0.531719     0.386749
    0.730570     0.628146     0.507368
    0.609809     0.668735     0.580034
    0.600898     0.668450     0.417328
    0.706172     0.386858     0.399509
    0.548658     0.287647     0.435915
    0.592561     0.337268     0.581497
    0.520669     0.344850     0.573772
    0.228365     0.474655     0.468657
    0.253434     0.425034     0.496562
    0.395742     0.490263     0.507586
    0.411280     0.339763     0.498049
    0.501595     0.453406     0.495279
    0.308873     0.338422     0.494342
    0.425636     0.386181     0.510719
    0.485893     0.557437     0.515378
    0.398467     0.689631     0.495046
    0.325265     0.523339     0.585328
    0.303857     0.647744     0.584762
    0.498970     0.573075     0.437021
    0.330066     0.678601     0.425570
EA115  21.547 21.580 20.344 90.00 90.00 90.00 Sym.group:    0
1.0000
   21.547339     0.000000     0.000000
    0.000000    21.579520     0.000000
    0.000000     0.000000    20.343591
   O  Cu
  24   24 
Direct
    0.638173     0.593848     0.624175
    0.612273     0.331024     0.514045
    0.640386     0.577690     0.429773
    0.703576     0.444807     0.535387
    0.609883     0.439249     0.336113
    0.568714     0.355468     0.423086
    0.655581     0.520221     0.641462
    0.654797     0.431414     0.585901
    0.539587     0.432843     0.342605
    0.581517     0.597768     0.466004
    0.285904     0.438520     0.452107
    0.506270     0.589987     0.681112
    0.352834     0.329999     0.542020
    0.479115     0.700361     0.422899
    0.308334     0.610797     0.473837
    0.422082     0.551943     0.324302
    0.446233     0.387205     0.659089
    0.360892     0.432930     0.388982
    0.368521     0.639521     0.588823
    0.427441     0.325026     0.478383
    0.435179     0.531442     0.678369
    0.398182     0.431418     0.630823
    0.318984     0.559830     0.524430
    0.525064     0.673985     0.465250
    0.703194     0.487168     0.406558
    0.622416     0.608529     0.530349
    0.658504     0.378914     0.558282
    0.522728     0.474538     0.291342
    0.639817     0.357943     0.463931
    0.544140     0.542379     0.300487
    0.677030     0.561568     0.585510
    0.691189     0.520901     0.573401
    0.630230     0.381934     0.415237
    0.577641     0.558997     0.341342
    0.506157     0.509370     0.466561
    0.503394     0.472936     0.513040
    0.509597     0.574335     0.329817
    0.370474     0.368825     0.609644
    0.486586     0.708233     0.517176
    0.280733     0.514331     0.489088
    0.304300     0.487779     0.409799
    0.412508     0.312330     0.555163
    0.508898     0.522545     0.690304
    0.530909     0.664642     0.612246
    0.289014     0.410952     0.547260
    0.363620     0.671233     0.523241
    0.343062     0.506820     0.375833
    0.484338     0.475501     0.685411
EA116  20.217 21.573 20.120 90.00 90.00 90.00 Sym.group:    0
1.0000
   20.216524     0.000000     0.000000
    0.000000    21.573456     0.000000
    0.000000     0.000000    20.120005
   O  Cu
  24   24 
Direct
    0.266299     0.525615     0.460515
    0.447053     0.476265     0.305473
    0.644724     0.614802     0.429894
    0.463968     0.664152     0.584935
    0.559892     0.671571     0.473603
    0.327539     0.398168     0.366831
    0.326754     0.533802     0.365992
    0.644848     0.490775     0.368373
    0.523499     0.566785     0.329630
    0.363148     0.638587     0.509964
    0.692149     0.499554     0.449456
    0.698709     0.550822     0.522545
    0.572848     0.577481     0.654723
    0.388295     0.475510     0.664021
    0.674190     0.486495     0.589070
    0.434780     0.609326     0.640495
    0.526364     0.443664     0.678250
    0.582963     0.336860     0.568621
    0.302366     0.400516     0.539916
    0.442258     0.331541     0.606008
    0.747330     0.424756     0.497499
    0.298651     0.537285     0.557390
    0.769857     0.462728     0.445582
    0.449909     0.589382     0.372007
    0.289791     0.483083     0.385210
    0.583384     0.629040     0.398299
    0.621232     0.657334     0.505198
    0.682472     0.529886     0.411514
    0.363808     0.626982     0.572325
    0.547214     0.513435     0.318084
    0.303262     0.576333     0.441296
    0.423337     0.529615     0.317022
    0.463309     0.675758     0.522573
    0.388219     0.395537     0.336064
    0.623018     0.404512     0.401240
    0.576342     0.605957     0.590380
    0.573373     0.492423     0.671417
    0.299178     0.452226     0.574085
    0.525287     0.617597     0.644113
    0.387770     0.560568     0.647328
    0.435856     0.435394     0.674634
    0.397885     0.319947     0.561227
    0.677378     0.434787     0.554900
    0.532766     0.339812     0.609624
    0.693295     0.414968     0.509383
    0.518216     0.358013     0.450640
    0.399649     0.320653     0.459479
    0.545569     0.319698     0.463174
EA117  20.390 20.712 20.706 90.00 90.00 90.00 Sym.group:    0
1.0000
   20.389857     0.000000     0.000000
    0.000000    20.711916     0.000000
    0.000000     0.000000    20.705836
   O  Cu
  24   24 
Direct
    0.490972     0.329993     0.582293
    0.400639     0.418530     0.339576
    0.457997     0.456543     0.681142
    0.520695     0.341894     0.397742
    0.341402     0.540885     0.355101
    0.519753     0.480880     0.306783
    0.337523     0.399805     0.578707
    0.334438     0.528428     0.623956
    0.409286     0.323693     0.473273
    0.602382     0.348194     0.506761
    0.293010     0.443889     0.459296
    0.538097     0.468592     0.662321
    0.422351     0.680756     0.538748
    0.530948     0.681994     0.501732
    0.417022     0.578780     0.657291
    0.585744     0.594355     0.623466
    0.535937     0.622253     0.636145
    0.626826     0.414389     0.616199
    0.675325     0.515629     0.390782
    0.689000     0.472024     0.533511
    0.444707     0.639644     0.329813
    0.634571     0.379724     0.437092
    0.663550     0.619998     0.426951
    0.557959     0.635549     0.328326
    0.482581     0.430496     0.317175
    0.572914     0.341959     0.559892
    0.352192     0.456411     0.352590
    0.378574     0.591268     0.344709
    0.311988     0.399773     0.499411
    0.438754     0.329928     0.420143
    0.315459     0.572544     0.583840
    0.576845     0.348162     0.427465
    0.434822     0.323725     0.552570
    0.282219     0.528362     0.461806
    0.345227     0.443954     0.621445
    0.561059     0.679695     0.432816
    0.481269     0.713959     0.521032
    0.370034     0.684657     0.510312
    0.593448     0.443744     0.653321
    0.610182     0.536132     0.621317
    0.459956     0.535830     0.674969
    0.493975     0.658495     0.606478
    0.615391     0.622662     0.500527
    0.650103     0.474604     0.620630
    0.665723     0.411809     0.529081
    0.643979     0.599840     0.369158
    0.638276     0.419783     0.383729
    0.694897     0.535786     0.448575
EA118  20.084 19.706 20.836 90.00 90.00 90.00 Sym.group:    0
1.0000
   20.084456     0.000000     0.000000
    0.000000    19.706376     0.000000
    0.000000     0.000000    20.836430
   O  Cu
  24   24 
Direct
    0.341891     0.550730     0.388901
    0.640201     0.459802     0.391543
    0.499715     0.344763     0.402159
    0.561992     0.587981     0.374311
    0.463178     0.484696     0.339929
    0.440705     0.654015     0.423283
    0.699396     0.554900     0.472309
    0.583293     0.678388     0.503235
    0.352841     0.389711     0.400445
    0.720248     0.385138     0.490954
    0.731246     0.445672     0.490574
    0.487772     0.366013     0.467030
    0.342643     0.619110     0.586082
    0.550984     0.654867     0.623484
    0.440331     0.335633     0.607203
    0.314872     0.558894     0.591325
    0.425950     0.383766     0.647090
    0.593135     0.666948     0.578356
    0.557604     0.315921     0.551257
    0.532065     0.537270     0.685773
    0.293612     0.429712     0.461793
    0.507434     0.483866     0.690424
    0.280858     0.472402     0.497168
    0.606377     0.600893     0.399820
    0.375500     0.624741     0.418981
    0.673809     0.533813     0.421624
    0.371979     0.502673     0.361773
    0.528383     0.513971     0.344230
    0.531904     0.636038     0.401438
    0.638968     0.651418     0.526793
    0.492093     0.696364     0.525080
    0.444040     0.371734     0.378601
    0.630672     0.403556     0.410799
    0.564517     0.377100     0.483854
    0.683055     0.457504     0.525421
    0.672813     0.401138     0.525773
    0.519838     0.385652     0.594113
    0.333540     0.548637     0.504751
    0.605851     0.572147     0.577872
    0.508657     0.423082     0.625127
    0.429065     0.483325     0.644778
    0.338503     0.467002     0.565001
    0.477904     0.589220     0.635558
    0.473772     0.333674     0.520769
    0.424848     0.654216     0.548699
    0.363791     0.382354     0.494858
    0.386134     0.561670     0.357464
    0.562020     0.467876     0.542196
EA119  22.254 21.739 22.902 90.00 90.00 90.00 Sym.group:    0
1.0000
   22.253810     0.000000     0.000000
    0.000000    21.739398     0.000000
    0.000000     0.000000    22.901911
   O  Cu
  24   24 
Direct
    0.395962     0.581160     0.323169
    0.393907     0.682643     0.545502
    0.370905     0.309002     0.459491
    0.297146     0.589008     0.482524
    0.297058     0.398953     0.492555
    0.396256     0.391187     0.332585
    0.428042     0.460255     0.687745
    0.546296     0.370817     0.644119
    0.396512     0.674671     0.394967
    0.532714     0.618615     0.650230
    0.286529     0.526208     0.580475
    0.357230     0.393668     0.622169
    0.685428     0.488217     0.639693
    0.564393     0.724397     0.534468
    0.486391     0.616077     0.282524
    0.556006     0.428087     0.571529
    0.510807     0.260639     0.445935
    0.709277     0.445656     0.389021
    0.568724     0.536203     0.288327
    0.590280     0.545566     0.419618
    0.705289     0.595401     0.498175
    0.579415     0.567914     0.549245
    0.666840     0.342077     0.527123
    0.569636     0.405272     0.442311
    0.344759     0.356429     0.419607
    0.342469     0.457123     0.641617
    0.323722     0.352752     0.532990
    0.348782     0.623965     0.396227
    0.479709     0.687377     0.590983
    0.277201     0.501062     0.520108
    0.427076     0.704741     0.491048
    0.477753     0.282811     0.435874
    0.307598     0.614626     0.542204
    0.442505     0.396684     0.668351
    0.512737     0.531248     0.688633
    0.571135     0.594755     0.312944
    0.690625     0.361796     0.427427
    0.519436     0.312007     0.399770
    0.548162     0.674219     0.579474
    0.601892     0.594490     0.487870
    0.699259     0.572851     0.600559
    0.479571     0.545176     0.290700
    0.569297     0.375163     0.507050
    0.575419     0.496398     0.595875
    0.663691     0.381772     0.607995
    0.595593     0.473270     0.398997
    0.710286     0.555416     0.417579
    0.600280     0.602172     0.642617
EA120  21.295 20.750 21.305 90.00 90.00 90.00 Sym.group:    0
1.0000
   21.294966     0.000000     0.000000
    0.000000    20.749506     0.000000
    0.000000     0.000000    21.304582
   O  Cu
  24   24 
Direct
    0.305420     0.586879     0.495089
    0.521436     0.707176     0.474508
    0.385622     0.669111     0.508456
    0.436717     0.475571     0.306165
    0.414824     0.304067     0.484275
    0.438254     0.372046     0.358363
    0.422651     0.647661     0.371506
    0.319940     0.414924     0.429241
    0.591172     0.467566     0.321432
    0.306354     0.444496     0.537087
    0.346701     0.543777     0.635454
    0.516758     0.595830     0.330403
    0.599271     0.359490     0.603575
    0.663557     0.463688     0.388845
    0.433649     0.377635     0.656044
    0.514836     0.303378     0.557453
    0.650551     0.376941     0.464973
    0.682415     0.478158     0.571100
    0.537374     0.580054     0.642898
    0.471499     0.630316     0.663012
    0.545102     0.663930     0.624622
    0.639690     0.627610     0.553394
    0.646911     0.344751     0.562685
    0.681877     0.622522     0.535266
    0.383983     0.411422     0.349752
    0.600377     0.532395     0.329548
    0.332702     0.606394     0.552270
    0.453348     0.579411     0.314816
    0.357870     0.650932     0.451008
    0.288819     0.483025     0.485592
    0.335788     0.479044     0.629561
    0.490300     0.435185     0.314079
    0.486328     0.664115     0.385828
    0.480705     0.709380     0.523750
    0.456039     0.304280     0.435314
    0.335972     0.376301     0.481020
    0.514726     0.331409     0.617456
    0.682589     0.433544     0.475593
    0.599380     0.331461     0.543574
    0.414393     0.464899     0.691568
    0.650267     0.449585     0.620482
    0.631517     0.407084     0.378223
    0.593691     0.643731     0.486927
    0.641570     0.577829     0.525189
    0.530235     0.510694     0.566499
    0.382820     0.378648     0.620286
    0.711809     0.553633     0.478622
    0.572192     0.628021     0.667196
EA121  27.708 17.702 25.390 90.00 90.00 90.00 Sym.group:    0
1.0000
   27.708283     0.000000     0.000000
    0.000000    17.702201     0.000000
    0.000000     0.000000    25.389731
   O  Cu
  24   24 
Direct
    0.448744     0.301980     0.506184
    0.551506     0.465160     0.544616
    0.436802     0.351098     0.527187
    0.508595     0.291381     0.498141
    0.331346     0.228560     0.457946
    0.182179     0.635487     0.455456
    0.333561     0.219552     0.513641
    0.184394     0.626479     0.511151
    0.439166     0.770763     0.551853
    0.340743     0.663169     0.561129
    0.280754     0.448028     0.433387
    0.336365     0.680977     0.451020
    0.411091     0.401198     0.527490
    0.398739     0.518653     0.530921
    0.392773     0.613604     0.534879
    0.545836     0.515489     0.479493
    0.716340     0.636549     0.485131
    0.477026     0.695391     0.487810
    0.802346     0.651932     0.487287
    0.699687     0.551326     0.441246
    0.722591     0.520057     0.580225
    0.751969     0.335921     0.493386
    0.608178     0.475657     0.528220
    0.601746     0.620212     0.445818
    0.492459     0.478518     0.528010
    0.481938     0.376090     0.528727
    0.519794     0.344596     0.492926
    0.508742     0.545583     0.543625
    0.409236     0.408748     0.480818
    0.396882     0.526201     0.484249
    0.461034     0.656675     0.521961
    0.286146     0.575161     0.494782
    0.272194     0.657888     0.556230
    0.295167     0.343867     0.545698
    0.267450     0.677183     0.436944
    0.290424     0.363161     0.426412
    0.601645     0.224639     0.522203
    0.310704     0.389871     0.507619
    0.711842     0.686332     0.478593
    0.547023     0.573089     0.473305
    0.744301     0.568593     0.474449
    0.612021     0.531824     0.438781
    0.732866     0.431668     0.573188
    0.809087     0.491745     0.387828
    0.597903     0.564045     0.535257
    0.780288     0.558681     0.583441
    0.753849     0.363388     0.449647
    0.614528     0.443830     0.501694
EA122  23.978 24.665 19.880 90.00 90.00 90.00 Sym.group:    0
1.0000
   23.978281     0.000000     0.000000
    0.000000    24.664785     0.000000
    0.000000     0.000000    19.879698
   O  Cu
  24   24 
Direct
    0.657020     0.487608     0.320194
    0.657910     0.667980     0.506646
    0.629722     0.477407     0.649385
    0.695687     0.591217     0.567044
    0.388623     0.635473     0.615042
    0.402600     0.581334     0.381478
    0.690652     0.374748     0.392737
    0.562117     0.613742     0.661952
    0.484416     0.689711     0.459736
    0.587707     0.658202     0.391589
    0.707851     0.569553     0.391645
    0.453343     0.550829     0.695055
    0.678487     0.396411     0.568137
    0.352899     0.577603     0.497749
    0.499384     0.335940     0.530043
    0.416419     0.326518     0.519280
    0.279211     0.421250     0.504605
    0.304478     0.522370     0.488274
    0.580674     0.319770     0.522922
    0.437902     0.476330     0.465391
    0.249298     0.368533     0.492574
    0.251049     0.588005     0.445945
    0.383391     0.509892     0.517024
    0.541473     0.390364     0.539421
    0.397903     0.665501     0.532222
    0.704967     0.621244     0.484225
    0.460638     0.612775     0.671934
    0.648630     0.637952     0.589465
    0.585895     0.690679     0.449753
    0.662607     0.583813     0.355902
    0.681371     0.344720     0.475557
    0.702264     0.473347     0.355938
    0.554822     0.551797     0.685072
    0.684074     0.492617     0.603844
    0.486228     0.657235     0.401571
    0.212698     0.513783     0.466200
    0.633508     0.244797     0.523663
    0.344078     0.459706     0.492513
    0.608736     0.382723     0.522654
    0.483562     0.463083     0.519726
    0.333647     0.390041     0.488788
    0.378316     0.452959     0.512167
    0.567413     0.283287     0.537043
    0.275370     0.550965     0.487831
    0.374251     0.380238     0.463024
    0.524107     0.418652     0.464022
    0.405590     0.512164     0.447247
    0.397013     0.485129     0.345771
EA123  23.587 23.462 22.794 90.00 90.00 90.00 Sym.group:    0
1.0000
   23.586514     0.000000     0.000000
    0.000000    23.461881     0.000000
    0.000000     0.000000    22.794163
   O  Cu
  24   24 
Direct
    0.519119     0.541588     0.659348
    0.338247     0.473836     0.519088
    0.526947     0.333162     0.448762
    0.600647     0.353541     0.363714
    0.679437     0.299799     0.549089
    0.494365     0.345138     0.536483
    0.320776     0.458833     0.402450
    0.347221     0.564489     0.680288
    0.362892     0.302462     0.516917
    0.389082     0.457742     0.608159
    0.620667     0.435134     0.591154
    0.729587     0.575636     0.561881
    0.573338     0.641035     0.316602
    0.572398     0.605603     0.474442
    0.486975     0.687162     0.649083
    0.336994     0.631062     0.421675
    0.702427     0.591668     0.451082
    0.430404     0.534059     0.300464
    0.534586     0.501309     0.390352
    0.486754     0.722519     0.454372
    0.450015     0.601864     0.528063
    0.630936     0.459056     0.554525
    0.303853     0.462205     0.519897
    0.331412     0.353861     0.541725
    0.330570     0.514192     0.439513
    0.421160     0.388268     0.551206
    0.592573     0.320615     0.448728
    0.535097     0.362875     0.364735
    0.311007     0.495379     0.626968
    0.594053     0.503570     0.641392
    0.330407     0.417998     0.484897
    0.717516     0.374600     0.592725
    0.579938     0.374699     0.548389
    0.448712     0.267145     0.498248
    0.432773     0.521430     0.646653
    0.516786     0.613947     0.699511
    0.384497     0.696828     0.465591
    0.438556     0.640306     0.633361
    0.685723     0.627936     0.498154
    0.570677     0.406851     0.344778
    0.467395     0.478092     0.383545
    0.527294     0.571952     0.276219
    0.713190     0.526015     0.516256
    0.510525     0.640299     0.518625
    0.623503     0.499613     0.614199
    0.582373     0.566783     0.413214
    0.559653     0.707407     0.403053
    0.356943     0.550437     0.350425
EA124  20.645 19.441 21.663 90.00 90.00 90.00 Sym.group:    0
1.0000
   20.645234     0.000000     0.000000
    0.000000    19.441119     0.000000
    0.000000     0.000000    21.662965
   O  Cu
  24   24 
Direct
    0.474120     0.308325     0.516003
    0.572632     0.394682     0.607337
    0.396281     0.621289     0.624076
    0.406647     0.417549     0.625092
    0.487387     0.519283     0.663075
    0.347379     0.369784     0.505982
    0.315539     0.519552     0.586093
    0.610729     0.603821     0.601672
    0.680080     0.495708     0.537652
    0.626499     0.347717     0.511589
    0.597041     0.534272     0.611630
    0.337056     0.471223     0.490187
    0.405783     0.581686     0.363155
    0.692166     0.510348     0.444960
    0.616854     0.674139     0.485647
    0.580666     0.446454     0.363363
    0.302250     0.506316     0.442366
    0.550874     0.597410     0.364220
    0.435575     0.430731     0.362298
    0.676257     0.367611     0.483900
    0.322125     0.643338     0.483493
    0.518496     0.307388     0.442401
    0.475920     0.709274     0.444924
    0.576293     0.636124     0.532917
    0.577885     0.351269     0.563254
    0.336826     0.456975     0.594515
    0.601705     0.475036     0.621792
    0.466100     0.581861     0.654653
    0.417200     0.330356     0.536559
    0.344613     0.599906     0.600549
    0.458313     0.438929     0.648619
    0.467847     0.702720     0.565879
    0.668656     0.569846     0.532233
    0.574611     0.310089     0.486488
    0.394032     0.489809     0.362437
    0.680414     0.418469     0.444242
    0.459606     0.618611     0.363766
    0.592417     0.538333     0.364080
    0.526844     0.409530     0.362751
    0.314002     0.598195     0.443084
    0.427227     0.328590     0.441949
    0.567188     0.688074     0.445377
    0.700289     0.555491     0.485369
    0.473516     0.478795     0.598347
    0.630615     0.581887     0.553441
    0.327728     0.511884     0.366641
    0.331347     0.388948     0.453478
    0.656368     0.562374     0.416465
EA125  18.914 19.739 20.144 90.00 90.00 90.00 Sym.group:    0
1.0000
   18.913997     0.000000     0.000000
    0.000000    19.739223     0.000000
    0.000000     0.000000    20.143921
   O  Cu
  24   24 
Direct
    0.429092     0.415226     0.633227
    0.440602     0.623781     0.621955
    0.394670     0.441363     0.364201
    0.375227     0.453691     0.449775
    0.423666     0.621825     0.535035
    0.437862     0.393183     0.547962
    0.446418     0.498064     0.411837
    0.489117     0.460243     0.582347
    0.455254     0.548147     0.576774
    0.309108     0.498641     0.562922
    0.351275     0.616370     0.416767
    0.615251     0.466918     0.640385
    0.633800     0.511059     0.360158
    0.636943     0.534317     0.448353
    0.622161     0.446232     0.552321
    0.548602     0.525835     0.404870
    0.497802     0.442272     0.418588
    0.537801     0.472390     0.589849
    0.509368     0.564833     0.574597
    0.657966     0.612185     0.564292
    0.504198     0.326884     0.580181
    0.544662     0.681333     0.413980
    0.636578     0.366654     0.437247
    0.535879     0.460758     0.415796
    0.306717     0.467970     0.467459
    0.448267     0.326026     0.531965
    0.359619     0.645343     0.512451
    0.330581     0.459681     0.548340
    0.390210     0.638106     0.433582
    0.438219     0.346888     0.450682
    0.501436     0.638488     0.604775
    0.385228     0.456668     0.612348
    0.435926     0.397549     0.385155
    0.442301     0.610685     0.373522
    0.437189     0.643997     0.497096
    0.410533     0.389511     0.510582
    0.371185     0.428817     0.488065
    0.493990     0.655888     0.478134
    0.685176     0.586891     0.467126
    0.478476     0.308000     0.479410
    0.657538     0.382965     0.536374
    0.524405     0.700484     0.514016
    0.666880     0.565922     0.550696
    0.653588     0.408484     0.452010
    0.623433     0.529414     0.617653
    0.624850     0.452231     0.383065
    0.646746     0.460648     0.512983
    0.654208     0.517141     0.489093
EA126  20.733 20.796 20.726 90.00 90.00 90.00 Sym.group:    0
1.0000
   20.733336     0.000000     0.000000
    0.000000    20.796179     0.000000
    0.000000     0.000000    20.725585
   O  Cu
  24   24 
Direct
    0.698722     0.493678     0.437515
    0.408674     0.330833     0.419361
    0.650951     0.429535     0.586154
    0.573450     0.334620     0.443934
    0.481264     0.350833     0.605917
    0.389156     0.356419     0.504986
    0.574425     0.509630     0.664655
    0.639861     0.443546     0.392967
    0.543813     0.379599     0.402458
    0.436197     0.401318     0.602215
    0.643564     0.494487     0.573381
    0.414261     0.584494     0.334673
    0.506719     0.533286     0.300551
    0.521827     0.691356     0.532652
    0.334966     0.568521     0.607751
    0.442131     0.661892     0.603382
    0.579222     0.628960     0.377053
    0.356866     0.646891     0.490272
    0.611749     0.612032     0.610831
    0.312273     0.564037     0.432528
    0.357412     0.454740     0.351371
    0.395358     0.509202     0.679326
    0.636578     0.631141     0.471405
    0.352627     0.391999     0.610119
    0.593310     0.325721     0.563273
    0.688184     0.487551     0.520019
    0.488708     0.335869     0.401641
    0.458777     0.424707     0.660887
    0.441431     0.314173     0.469307
    0.540167     0.448287     0.680418
    0.681704     0.435229     0.452993
    0.681584     0.583602     0.463569
    0.413705     0.391292     0.344256
    0.647736     0.397698     0.445476
    0.450829     0.323267     0.518322
    0.582431     0.442997     0.652592
    0.432296     0.683304     0.544827
    0.652231     0.597061     0.564605
    0.347969     0.486325     0.645052
    0.417188     0.525233     0.312726
    0.586261     0.667524     0.459076
    0.503792     0.592547     0.322497
    0.349827     0.608326     0.408249
    0.316932     0.469712     0.397596
    0.531662     0.669946     0.591207
    0.629539     0.592576     0.389382
    0.382356     0.591399     0.642027
    0.319312     0.602603     0.514550
EA127  22.099 21.820 22.601 90.00 90.00 90.00 Sym.group:    0
1.0000
   22.098896     0.000000     0.000000
    0.000000    21.820367     0.000000
    0.000000     0.000000    22.601045
   O  Cu
  24   24 
Direct
    0.317583     0.397783     0.527299
    0.375343     0.575933     0.426524
    0.372767     0.658058     0.492894
    0.547482     0.338114     0.447799
    0.535065     0.287276     0.545236
    0.385100     0.265727     0.418108
    0.518547     0.393760     0.383367
    0.319298     0.458889     0.613529
    0.485994     0.690657     0.360817
    0.640187     0.422415     0.321373
    0.525375     0.560993     0.361960
    0.236005     0.547601     0.454979
    0.367622     0.416638     0.447818
    0.580242     0.299291     0.563943
    0.711918     0.530271     0.584151
    0.657536     0.586695     0.337525
    0.733010     0.537526     0.466633
    0.502886     0.708422     0.571201
    0.419065     0.482021     0.682900
    0.428469     0.635582     0.636658
    0.557046     0.562222     0.691570
    0.611316     0.453647     0.678513
    0.679031     0.374464     0.565663
    0.550164     0.719462     0.424777
    0.553093     0.470744     0.371292
    0.501753     0.293984     0.465255
    0.334233     0.398968     0.611716
    0.428565     0.671389     0.472424
    0.339926     0.500980     0.444473
    0.300710     0.457137     0.530210
    0.310874     0.319078     0.447528
    0.439353     0.376233     0.425337
    0.596261     0.343659     0.345535
    0.452958     0.600979     0.390379
    0.286435     0.625704     0.440069
    0.496408     0.646176     0.650064
    0.726532     0.475280     0.545496
    0.573647     0.721708     0.489508
    0.718398     0.592517     0.505288
    0.641158     0.516986     0.665844
    0.634575     0.366117     0.616987
    0.434947     0.697828     0.557795
    0.624697     0.307639     0.512618
    0.634276     0.674225     0.399052
    0.695631     0.533950     0.363602
    0.380968     0.534767     0.656825
    0.527203     0.498884     0.704239
    0.310348     0.471619     0.383230
EA128  20.947 21.288 21.851 90.00 90.00 90.00 Sym.group:    0
1.0000
   20.947306     0.000000     0.000000
    0.000000    21.287942     0.000000
    0.000000     0.000000    21.850626
   O  Cu
  24   24 
Direct
    0.674236     0.443021     0.376204
    0.573500     0.413121     0.665096
    0.586336     0.387513     0.571352
    0.666809     0.460058     0.472022
    0.516555     0.454281     0.595029
    0.600577     0.492166     0.408043
    0.513118     0.438995     0.403870
    0.583050     0.305717     0.445916
    0.672701     0.628879     0.429513
    0.696597     0.520079     0.605833
    0.430375     0.513828     0.345531
    0.314727     0.445595     0.538318
    0.509066     0.526559     0.635924
    0.317518     0.499267     0.633688
    0.356526     0.299570     0.633774
    0.413347     0.707035     0.516025
    0.352321     0.390803     0.477002
    0.367595     0.607033     0.374284
    0.483933     0.607860     0.454684
    0.275538     0.430570     0.371055
    0.593588     0.705730     0.488841
    0.434639     0.629265     0.661654
    0.392296     0.580066     0.555055
    0.461090     0.417986     0.356645
    0.590394     0.313709     0.556972
    0.637151     0.666502     0.529923
    0.730032     0.487674     0.506266
    0.616703     0.337062     0.468637
    0.626974     0.649492     0.437499
    0.684654     0.475273     0.589125
    0.596589     0.610795     0.362396
    0.630787     0.389985     0.393234
    0.613968     0.463766     0.647184
    0.662644     0.435101     0.517051
    0.622414     0.387317     0.535923
    0.435593     0.598735     0.367847
    0.381699     0.422282     0.407131
    0.317772     0.418468     0.595525
    0.383607     0.682057     0.593132
    0.311879     0.524130     0.576241
    0.485833     0.445295     0.281125
    0.363475     0.518951     0.352598
    0.426509     0.547904     0.628243
    0.403639     0.366390     0.546236
    0.254748     0.401649     0.453198
    0.521401     0.611729     0.684608
    0.410497     0.612573     0.485470
    0.504997     0.728161     0.469076
EA129  21.571 21.581 21.158 90.00 90.00 90.00 Sym.group:    0
1.0000
   21.571480     0.000000     0.000000
    0.000000    21.581468     0.000000
    0.000000     0.000000    21.157954
   O  Cu
  24   24 
Direct
    0.540418     0.699194     0.409738
    0.618866     0.411080     0.339115
    0.522436     0.345287     0.357645
    0.664005     0.366003     0.482473
    0.360518     0.534646     0.332569
    0.702204     0.501841     0.433704
    0.472334     0.635144     0.336543
    0.653006     0.595109     0.378338
    0.372086     0.352917     0.393003
    0.440210     0.454754     0.298415
    0.641060     0.658406     0.514921
    0.678022     0.404900     0.594544
    0.422418     0.322365     0.579202
    0.301063     0.533098     0.578350
    0.503685     0.649565     0.650165
    0.625040     0.438832     0.651018
    0.548098     0.555986     0.697691
    0.301566     0.419181     0.482276
    0.353759     0.403447     0.622673
    0.663129     0.572640     0.602253
    0.400756     0.682984     0.548514
    0.372693     0.581485     0.654508
    0.309807     0.494406     0.394540
    0.529165     0.377947     0.665855
    0.449377     0.681965     0.379825
    0.682627     0.596893     0.439639
    0.612896     0.363226     0.387479
    0.381683     0.439722     0.327127
    0.527288     0.393635     0.310020
    0.591631     0.704397     0.505690
    0.562773     0.653116     0.365364
    0.431732     0.322950     0.407461
    0.637702     0.353798     0.575168
    0.703275     0.417901     0.500974
    0.672471     0.499788     0.372518
    0.419025     0.549455     0.303635
    0.343731     0.371139     0.565442
    0.469412     0.604759     0.683931
    0.582372     0.600791     0.663925
    0.461520     0.697607     0.566998
    0.579901     0.360262     0.627109
    0.346202     0.611667     0.602258
    0.432445     0.354673     0.636433
    0.503176     0.294215     0.517531
    0.327554     0.502915     0.630600
    0.574302     0.456519     0.689763
    0.285102     0.481672     0.487256
    0.425460     0.695717     0.455798
EA130  20.377 20.534 20.255 90.00 90.00 90.00 Sym.group:    0
1.0000
   20.377158     0.000000     0.000000
    0.000000    20.533965     0.000000
    0.000000     0.000000    20.254552
   O  Cu
  24   24 
Direct
    0.570482     0.686829     0.451555
    0.629726     0.619037     0.601949
    0.651557     0.516396     0.637262
    0.563449     0.610768     0.331825
    0.586951     0.351970     0.484255
    0.658971     0.484569     0.434451
    0.691424     0.420835     0.479399
    0.557227     0.310878     0.550364
    0.660140     0.411879     0.397835
    0.525944     0.301923     0.468799
    0.581486     0.462643     0.319946
    0.515604     0.361442     0.362304
    0.327161     0.490841     0.421063
    0.473905     0.455363     0.672741
    0.427819     0.430815     0.592627
    0.360819     0.512818     0.507451
    0.514908     0.460927     0.592421
    0.528286     0.552448     0.579766
    0.416295     0.512211     0.435692
    0.368557     0.350004     0.486157
    0.388581     0.587107     0.629822
    0.525058     0.687213     0.538105
    0.532256     0.668012     0.572633
    0.316113     0.557357     0.473716
    0.580186     0.680832     0.540913
    0.463153     0.625572     0.344847
    0.683445     0.545918     0.590733
    0.604861     0.634403     0.372997
    0.679061     0.490578     0.574354
    0.613180     0.389378     0.616711
    0.523761     0.414722     0.356018
    0.543636     0.498847     0.334706
    0.444947     0.396615     0.390296
    0.617767     0.441635     0.601115
    0.571473     0.522171     0.463318
    0.508256     0.422491     0.504372
    0.567904     0.450467     0.476157
    0.395978     0.368650     0.588400
    0.325009     0.560980     0.545829
    0.358027     0.390085     0.509363
    0.379045     0.542875     0.616745
    0.347759     0.432767     0.436080
    0.450270     0.512809     0.659258
    0.365021     0.494666     0.551156
    0.387094     0.441407     0.567359
    0.351139     0.594557     0.401041
    0.355608     0.630399     0.433304
    0.510700     0.712887     0.502788
EA131  20.682 20.627 20.515 90.00 90.00 90.00 Sym.group:    0
1.0000
   20.681947     0.000000     0.000000
    0.000000    20.626752     0.000000
    0.000000     0.000000    20.515082
   O  Cu
  24   24 
Direct
    0.585648     0.504392     0.397496
    0.475925     0.609760     0.321564
    0.349211     0.408873     0.357303
    0.525187     0.540923     0.295340
    0.261118     0.533008     0.515939
    0.448784     0.682857     0.608013
    0.314605     0.637718     0.543912
    0.621065     0.656991     0.529469
    0.480397     0.718038     0.496338
    0.568581     0.662914     0.380545
    0.592721     0.579015     0.500108
    0.588076     0.610420     0.624204
    0.363017     0.450389     0.644436
    0.450831     0.366881     0.346411
    0.506725     0.448804     0.688151
    0.511691     0.298653     0.482441
    0.354912     0.347892     0.481723
    0.673931     0.573092     0.504466
    0.628448     0.483402     0.636188
    0.668882     0.409637     0.492948
    0.422103     0.338475     0.598513
    0.593793     0.359701     0.391580
    0.586780     0.348588     0.583809
    0.657177     0.511808     0.384087
    0.459446     0.452054     0.450877
    0.465071     0.542207     0.456679
    0.494558     0.562190     0.352041
    0.361671     0.448818     0.398375
    0.281083     0.427700     0.454260
    0.592206     0.579125     0.335412
    0.380610     0.517154     0.265893
    0.301536     0.586970     0.589474
    0.638213     0.641028     0.464451
    0.524143     0.704288     0.549054
    0.274187     0.583756     0.470377
    0.405038     0.696607     0.555297
    0.427981     0.602082     0.680534
    0.636346     0.542756     0.620767
    0.411287     0.382724     0.641000
    0.458455     0.516469     0.691587
    0.565060     0.437457     0.669140
    0.641313     0.392604     0.415057
    0.539261     0.315686     0.560332
    0.684746     0.528842     0.461978
    0.650169     0.394533     0.550857
    0.394533     0.321441     0.520621
    0.530405     0.313757     0.424532
    0.653070     0.427522     0.616422
EA132  21.426 20.945 21.218 90.00 90.00 90.00 Sym.group:    0
1.0000
   21.425964     0.000000     0.000000
    0.000000    20.945110     0.000000
    0.000000     0.000000    21.218109
   O  Cu
  24   24 
Direct
    0.497308     0.703364     0.573326
    0.686155     0.544784     0.427657
    0.355121     0.640792     0.561005
    0.418065     0.585842     0.673949
    0.588145     0.665197     0.400371
    0.601214     0.508624     0.322164
    0.587169     0.590845     0.667702
    0.454106     0.594731     0.320960
    0.339320     0.582186     0.400044
    0.626471     0.667130     0.535449
    0.458981     0.701431     0.438248
    0.679960     0.512281     0.596069
    0.627099     0.332632     0.518071
    0.469023     0.405298     0.693757
    0.412882     0.407976     0.321044
    0.456690     0.309419     0.583900
    0.386418     0.342764     0.414584
    0.557522     0.366050     0.348604
    0.287811     0.527236     0.544881
    0.596207     0.347780     0.630130
    0.348572     0.349526     0.563296
    0.296089     0.448870     0.458948
    0.705732     0.455824     0.526621
    0.659517     0.405982     0.388737
    0.637586     0.550955     0.355918
    0.448740     0.709534     0.501586
    0.700531     0.496005     0.468862
    0.385934     0.616413     0.370458
    0.403690     0.634621     0.632744
    0.655342     0.569163     0.618204
    0.636714     0.659026     0.472111
    0.318750     0.598461     0.527251
    0.527155     0.679748     0.388750
    0.558297     0.688812     0.584947
    0.540555     0.556618     0.697286
    0.452710     0.361564     0.349023
    0.294566     0.434015     0.523867
    0.346708     0.389663     0.387933
    0.560997     0.314288     0.583935
    0.463427     0.498209     0.715991
    0.662122     0.367121     0.563245
    0.388612     0.320759     0.517686
    0.625579     0.355140     0.415173
    0.535072     0.408879     0.693823
    0.590216     0.417654     0.322679
    0.464172     0.496095     0.289446
    0.417808     0.338819     0.629692
    0.289140     0.541869     0.479875
EA133  20.966 23.279 19.696 90.00 90.00 90.00 Sym.group:    0
1.0000
   20.965548     0.000000     0.000000
    0.000000    23.279099     0.000000
    0.000000     0.000000    19.695646
   O  Cu
  24   24 
Direct
    0.755336     0.497751     0.569803
    0.757721     0.426781     0.426402
    0.760117     0.390254     0.496095
    0.752940     0.534279     0.500109
    0.784390     0.431693     0.549845
    0.524753     0.591488     0.407449
    0.528140     0.515311     0.355215
    0.674877     0.384722     0.451097
    0.521747     0.631567     0.524437
    0.439979     0.671068     0.527827
    0.608727     0.618368     0.517612
    0.590589     0.693732     0.497710
    0.552010     0.565139     0.528882
    0.264911     0.554706     0.444734
    0.334699     0.398735     0.638056
    0.398603     0.652589     0.399626
    0.246447     0.433642     0.493671
    0.412660     0.564352     0.665229
    0.464082     0.452152     0.692378
    0.283278     0.510937     0.610907
    0.334416     0.418526     0.367777
    0.439364     0.429934     0.344067
    0.431695     0.571091     0.335489
    0.328174     0.566868     0.509073
    0.599066     0.526490     0.414618
    0.606078     0.419582     0.618593
    0.701080     0.379793     0.489969
    0.692654     0.553085     0.520576
    0.694884     0.519074     0.585470
    0.698848     0.413806     0.425075
    0.570589     0.428381     0.488446
    0.508800     0.526882     0.436865
    0.489368     0.443274     0.332724
    0.685048     0.669087     0.511982
    0.605957     0.657908     0.525200
    0.566404     0.522459     0.552954
    0.312278     0.562910     0.365633
    0.242322     0.510347     0.488672
    0.273349     0.397854     0.454958
    0.326260     0.555589     0.627832
    0.351236     0.644386     0.478727
    0.421098     0.407500     0.675453
    0.287403     0.434231     0.615906
    0.459955     0.528857     0.687378
    0.388727     0.326859     0.560307
    0.501921     0.309217     0.518434
    0.383828     0.381220     0.383847
    0.443191     0.375522     0.386895
EA134  22.181 22.085 20.282 90.00 90.00 90.00 Sym.group:    0
1.0000
   22.180910     0.000000     0.000000
    0.000000    22.084957     0.000000
    0.000000     0.000000    20.282267
   O  Cu
  24   24 
Direct
    0.694989     0.441065     0.554776
    0.654191     0.492566     0.305522
    0.578352     0.645527     0.606893
    0.413120     0.322237     0.567223
    0.644337     0.367503     0.395009
    0.488740     0.294428     0.481936
    0.539676     0.368318     0.642264
    0.411297     0.439094     0.656733
    0.729424     0.482291     0.443821
    0.643684     0.606614     0.317053
    0.671586     0.579668     0.586153
    0.598165     0.464166     0.671696
    0.283576     0.593953     0.482989
    0.470519     0.738611     0.540078
    0.322671     0.353194     0.486411
    0.403816     0.516591     0.497226
    0.509823     0.607547     0.466221
    0.408923     0.460927     0.451510
    0.421394     0.562414     0.503607
    0.462497     0.600587     0.470957
    0.438671     0.422064     0.440394
    0.337257     0.540548     0.448226
    0.510733     0.669354     0.539753
    0.362023     0.420283     0.511864
    0.480417     0.315181     0.575061
    0.421952     0.302447     0.473064
    0.703315     0.420882     0.461487
    0.625962     0.565213     0.635775
    0.719818     0.502779     0.537707
    0.560424     0.318311     0.403099
    0.623514     0.417982     0.633832
    0.691258     0.526778     0.347533
    0.513410     0.414718     0.678844
    0.623837     0.659901     0.557136
    0.628730     0.390343     0.330488
    0.358184     0.595102     0.455822
    0.397440     0.374015     0.498629
    0.454388     0.661067     0.545392
    0.399056     0.442425     0.503212
    0.509446     0.625148     0.523507
    0.380315     0.530186     0.448863
    0.466740     0.618866     0.527781
    0.425900     0.407356     0.493181
    0.396176     0.571534     0.454621
    0.340744     0.479107     0.480935
    0.562104     0.659129     0.486545
    0.400695     0.635390     0.502697
    0.316710     0.576590     0.376474
EA135  19.818 20.039 21.268 90.00 90.00 90.00 Sym.group:    0
1.0000
   19.817922     0.000000     0.000000
    0.000000    20.039400     0.000000
    0.000000     0.000000    21.267721
   O  Cu
  24   24 
Direct
    0.345427     0.574851     0.414108
    0.637873     0.613228     0.442742
    0.434290     0.472022     0.348499
    0.470529     0.651673     0.413869
    0.504258     0.688445     0.552151
    0.249665     0.533269     0.553118
    0.360306     0.669781     0.537649
    0.727145     0.513131     0.534887
    0.720214     0.522347     0.476568
    0.699923     0.630832     0.540260
    0.738662     0.578182     0.553446
    0.457417     0.416035     0.364062
    0.405165     0.492521     0.672653
    0.570103     0.360605     0.621266
    0.572594     0.375075     0.533102
    0.373247     0.500140     0.585852
    0.455605     0.388025     0.448476
    0.465468     0.470520     0.608357
    0.561729     0.443155     0.591876
    0.458671     0.475250     0.432714
    0.627759     0.390892     0.408177
    0.298277     0.472640     0.461342
    0.402164     0.337893     0.563896
    0.720717     0.473778     0.571006
    0.532400     0.624762     0.386765
    0.259020     0.512099     0.498144
    0.525725     0.496430     0.335127
    0.372419     0.498934     0.375601
    0.379094     0.627266     0.427239
    0.664865     0.537309     0.404235
    0.317284     0.638536     0.579492
    0.628519     0.634397     0.497717
    0.451742     0.694188     0.524279
    0.642518     0.628229     0.541061
    0.458101     0.582559     0.628313
    0.304493     0.472212     0.563577
    0.630433     0.347746     0.499114
    0.401467     0.341657     0.462052
    0.586058     0.372256     0.425236
    0.444961     0.334670     0.540783
    0.526685     0.415870     0.376238
    0.501001     0.357462     0.608172
    0.658754     0.515918     0.636513
    0.482759     0.361324     0.477881
    0.547439     0.361987     0.492676
    0.577308     0.618427     0.426634
    0.379345     0.585382     0.548582
    0.470400     0.396092     0.514495
EA136  20.944 21.094 20.534 90.00 90.00 90.00 Sym.group:    0
1.0000
   20.944378     0.000000     0.000000
    0.000000    21.094271     0.000000
    0.000000     0.000000    20.534127
   O  Cu
  24   24 
Direct
    0.608257     0.601158     0.402074
    0.512435     0.656146     0.420758
    0.407307     0.648309     0.545479
    0.367134     0.607857     0.558413
    0.607560     0.515734     0.326489
    0.621844     0.407848     0.372886
    0.351959     0.512396     0.346119
    0.345512     0.615205     0.393182
    0.481829     0.383405     0.336718
    0.294066     0.452737     0.472689
    0.382735     0.370629     0.391399
    0.498859     0.584445     0.683149
    0.318798     0.465517     0.586477
    0.653620     0.375220     0.563970
    0.624185     0.639138     0.566244
    0.695468     0.476129     0.559385
    0.570142     0.421435     0.676289
    0.525574     0.316869     0.588924
    0.487256     0.666621     0.607332
    0.522022     0.294816     0.476595
    0.678644     0.593465     0.476939
    0.382140     0.334009     0.481036
    0.365824     0.545886     0.646168
    0.462232     0.448377     0.694364
    0.446183     0.648342     0.387069
    0.565901     0.655762     0.392479
    0.624743     0.561321     0.358087
    0.659965     0.516211     0.442738
    0.600659     0.653620     0.493351
    0.441347     0.664498     0.493989
    0.384346     0.601346     0.343242
    0.320924     0.392689     0.470889
    0.654231     0.496799     0.370011
    0.394710     0.416819     0.343257
    0.575174     0.426784     0.329365
    0.313126     0.526255     0.396059
    0.469855     0.337215     0.384860
    0.471112     0.297784     0.516346
    0.651174     0.416712     0.613018
    0.697915     0.434638     0.510338
    0.543154     0.643862     0.629516
    0.373260     0.484602     0.659054
    0.442962     0.607204     0.660965
    0.683633     0.573673     0.538873
    0.510695     0.486900     0.703661
    0.521680     0.382911     0.666992
    0.576483     0.313902     0.549173
    0.311363     0.526800     0.573590
EA137  20.755 20.421 20.587 90.00 90.00 90.00 Sym.group:    0
1.0000
   20.754558     0.000000     0.000000
    0.000000    20.420527     0.000000
    0.000000     0.000000    20.586928
   O  Cu
  24   24 
Direct
    0.567058     0.575412     0.680890
    0.546861     0.366928     0.627792
    0.369884     0.489021     0.657545
    0.361586     0.527432     0.571406
    0.539023     0.373366     0.533536
    0.587663     0.598073     0.590956
    0.376687     0.461676     0.451405
    0.543518     0.518005     0.611219
    0.446100     0.516343     0.610104
    0.496749     0.435700     0.589982
    0.334797     0.624779     0.466528
    0.366688     0.359375     0.554762
    0.394476     0.581695     0.374093
    0.632673     0.660134     0.485324
    0.583428     0.591242     0.360143
    0.661922     0.388916     0.497032
    0.685845     0.516239     0.603037
    0.361815     0.434941     0.406148
    0.488262     0.674982     0.408689
    0.489641     0.497956     0.325547
    0.502078     0.348451     0.400551
    0.693148     0.537191     0.470415
    0.552928     0.311780     0.520130
    0.611070     0.425587     0.377452
    0.314297     0.581519     0.562773
    0.344969     0.396947     0.456773
    0.463624     0.707619     0.536525
    0.328974     0.577441     0.473471
    0.484071     0.668479     0.615100
    0.349077     0.403556     0.546851
    0.597329     0.407225     0.618859
    0.377367     0.433636     0.624003
    0.510020     0.604256     0.668283
    0.352122     0.466552     0.493385
    0.343496     0.516811     0.527664
    0.431486     0.513674     0.338590
    0.669683     0.592113     0.449819
    0.413959     0.637049     0.398149
    0.546416     0.659263     0.395646
    0.563944     0.535889     0.336087
    0.509981     0.311348     0.475479
    0.654018     0.426020     0.422104
    0.385280     0.380020     0.426743
    0.536767     0.387654     0.366912
    0.701052     0.500087     0.545343
    0.617465     0.676285     0.543018
    0.627232     0.349713     0.530670
    0.683475     0.451625     0.473067
EA138  20.582 20.686 20.980 90.00 90.00 90.00 Sym.group:    0
1.0000
   20.582245     0.000000     0.000000
    0.000000    20.686495     0.000000
    0.000000     0.000000    20.980359
   O  Cu
  24   24 
Direct
    0.438654     0.349017     0.411808
    0.390891     0.495110     0.348319
    0.549823     0.439260     0.320403
    0.520747     0.573562     0.316032
    0.305068     0.601446     0.549690
    0.292303     0.448878     0.531489
    0.440303     0.684537     0.416086
    0.432774     0.351106     0.572688
    0.330767     0.609568     0.460250
    0.317727     0.453713     0.441657
    0.422270     0.414718     0.600239
    0.425298     0.623461     0.384904
    0.647043     0.345211     0.484716
    0.477221     0.380548     0.654387
    0.565656     0.313380     0.558535
    0.687730     0.583578     0.587331
    0.634306     0.616204     0.352975
    0.455760     0.645037     0.642650
    0.682978     0.641632     0.488553
    0.621628     0.418759     0.647267
    0.713145     0.510030     0.424779
    0.568797     0.663566     0.627067
    0.656768     0.430049     0.363319
    0.591866     0.524964     0.683769
    0.398063     0.344750     0.488735
    0.365969     0.448625     0.383403
    0.398008     0.579816     0.358090
    0.564373     0.612473     0.340384
    0.499767     0.345904     0.390866
    0.513631     0.488856     0.306260
    0.353901     0.412289     0.580496
    0.371031     0.617029     0.604922
    0.341414     0.648205     0.526601
    0.320822     0.402108     0.497240
    0.317143     0.517886     0.599488
    0.370389     0.663679     0.485561
    0.347500     0.390120     0.452924
    0.713348     0.582981     0.498410
    0.543526     0.618319     0.668080
    0.591274     0.312783     0.469614
    0.647507     0.511559     0.652612
    0.621425     0.345808     0.573637
    0.687266     0.417230     0.419435
    0.657360     0.642229     0.577475
    0.481030     0.690285     0.601636
    0.565988     0.432164     0.678424
    0.477093     0.334717     0.608127
    0.682646     0.522849     0.368664
EA139  21.363 21.520 21.073 90.00 90.00 90.00 Sym.group:    0
1.0000
   21.363481     0.000000     0.000000
    0.000000    21.519697     0.000000
    0.000000     0.000000    21.073196
   O  Cu
  24   24 
Direct
    0.416637     0.525819     0.696305
    0.305792     0.537246     0.423368
    0.450863     0.652035     0.640756
    0.345581     0.637906     0.542515
    0.311355     0.511691     0.598064
    0.462566     0.533121     0.294283
    0.327978     0.377473     0.486165
    0.555728     0.656908     0.376144
    0.382171     0.372095     0.620812
    0.498505     0.708359     0.498709
    0.370131     0.436597     0.343521
    0.398225     0.633771     0.374130
    0.618080     0.332726     0.532996
    0.487349     0.374175     0.334652
    0.678832     0.615767     0.509460
    0.574465     0.425066     0.682661
    0.658905     0.569694     0.613712
    0.702635     0.476916     0.463513
    0.645402     0.571001     0.370741
    0.529208     0.309626     0.602410
    0.550557     0.531933     0.711834
    0.533503     0.311445     0.418484
    0.656987     0.393742     0.401233
    0.682422     0.523033     0.602897
    0.457980     0.602838     0.683474
    0.347136     0.614265     0.410535
    0.499279     0.696588     0.432995
    0.304238     0.560887     0.555346
    0.384427     0.337792     0.429314
    0.421222     0.456103     0.307116
    0.395897     0.669183     0.571823
    0.366322     0.494541     0.666997
    0.454675     0.594090     0.317280
    0.313683     0.476279     0.400372
    0.327204     0.389244     0.551879
    0.553471     0.691211     0.567641
    0.566378     0.598827     0.329645
    0.695975     0.555806     0.528303
    0.640538     0.629116     0.595225
    0.580506     0.346486     0.618185
    0.566966     0.347888     0.375828
    0.566758     0.296833     0.516195
    0.671568     0.389712     0.465440
    0.438121     0.348442     0.636656
    0.687065     0.481931     0.399865
    0.643294     0.621921     0.410252
    0.453852     0.337900     0.377416
    0.519572     0.443974     0.712853
EA140  19.719 19.985 20.370 90.00 90.00 90.00 Sym.group:    0
1.0000
   19.719057     0.000000     0.000000
    0.000000    19.985050     0.000000
    0.000000     0.000000    20.370161
   O  Cu
  24   24 
Direct
    0.621223     0.568372     0.641069
    0.440656     0.649750     0.598229
    0.663283     0.553379     0.596619
    0.387806     0.618379     0.604726
    0.598607     0.340201     0.565820
    0.339103     0.405998     0.423349
    0.560000     0.419006     0.670154
    0.300497     0.484802     0.527685
    0.498966     0.319909     0.452192
    0.419743     0.481620     0.666293
    0.382850     0.357887     0.473884
    0.343412     0.438390     0.580469
    0.480989     0.334901     0.509412
    0.573628     0.644514     0.426262
    0.542486     0.674926     0.521944
    0.384874     0.466435     0.387169
    0.416088     0.663771     0.450262
    0.495149     0.564935     0.345809
    0.386079     0.654610     0.492921
    0.664039     0.583254     0.415760
    0.646093     0.477087     0.379718
    0.684230     0.440071     0.504004
    0.623965     0.677587     0.556640
    0.504114     0.365750     0.364024
    0.592460     0.485342     0.634398
    0.625164     0.473683     0.599835
    0.402370     0.596876     0.518680
    0.525606     0.631561     0.562013
    0.484004     0.422806     0.670847
    0.331783     0.553428     0.516570
    0.535812     0.317053     0.530834
    0.607062     0.345646     0.509900
    0.321980     0.502377     0.576523
    0.319607     0.488858     0.442058
    0.533880     0.349390     0.625110
    0.351695     0.492475     0.610726
    0.398784     0.398010     0.397591
    0.332488     0.494981     0.394947
    0.575108     0.664490     0.582517
    0.624094     0.620600     0.406730
    0.556018     0.566577     0.361051
    0.476204     0.670947     0.437095
    0.390605     0.573033     0.379637
    0.628310     0.563993     0.367258
    0.681822     0.496350     0.428220
    0.505627     0.330391     0.411637
    0.650012     0.385450     0.503113
    0.591627     0.390149     0.378299
EA141  25.431 24.384 19.166 90.00 90.00 90.00 Sym.group:    0
1.0000
   25.430871     0.000000     0.000000
    0.000000    24.383884     0.000000
    0.000000     0.000000    19.165787
   O  Cu
  24   24 
Direct
    0.545045     0.648492     0.632992
    0.641921     0.555483     0.381543
    0.645656     0.532795     0.645043
    0.386955     0.632853     0.622068
    0.544025     0.677355     0.369598
    0.388355     0.643532     0.359272
    0.650769     0.633055     0.511052
    0.653301     0.597020     0.512218
    0.502016     0.696764     0.498349
    0.335548     0.619383     0.485822
    0.335194     0.544964     0.536583
    0.515089     0.323815     0.509295
    0.441863     0.291023     0.506481
    0.679561     0.382062     0.513283
    0.298100     0.356450     0.524060
    0.594075     0.327461     0.490649
    0.437804     0.456029     0.478443
    0.533581     0.464435     0.474262
    0.739179     0.399542     0.504128
    0.282636     0.290758     0.506617
    0.245464     0.526383     0.499877
    0.576398     0.243211     0.455419
    0.374660     0.480765     0.539929
    0.541739     0.394438     0.523141
    0.670509     0.644610     0.611804
    0.465502     0.731648     0.593685
    0.669988     0.661242     0.411694
    0.455509     0.745291     0.392814
    0.543674     0.614595     0.571538
    0.604681     0.530007     0.443774
    0.606929     0.517950     0.578345
    0.424581     0.613384     0.558605
    0.542990     0.627587     0.437082
    0.424069     0.620358     0.424294
    0.365723     0.519610     0.423172
    0.222723     0.436934     0.510641
    0.657797     0.260301     0.472452
    0.509757     0.503754     0.527068
    0.476055     0.456769     0.523294
    0.665693     0.446375     0.498217
    0.382069     0.417486     0.525900
    0.588180     0.431635     0.516567
    0.587548     0.285204     0.499324
    0.270353     0.495012     0.530979
    0.398878     0.334940     0.466454
    0.645870     0.485626     0.473802
    0.529019     0.416333     0.457545
    0.402967     0.485278     0.470827
EA142  26.236 21.664 21.109 90.00 90.00 90.00 Sym.group:    0
1.0000
   26.236431     0.000000     0.000000
    0.000000    21.664168     0.000000
    0.000000     0.000000    21.109400
   O  Cu
  24   24 
Direct
    0.485871     0.636361     0.469429
    0.475304     0.596516     0.495780
    0.387504     0.722715     0.440271
    0.250445     0.410172     0.475613
    0.461678     0.238256     0.468456
    0.391952     0.727355     0.500764
    0.254894     0.414812     0.536105
    0.466126     0.242896     0.528949
    0.346454     0.558615     0.547116
    0.387075     0.351694     0.558325
    0.337661     0.549441     0.427522
    0.378281     0.342521     0.438731
    0.452293     0.559423     0.502360
    0.438661     0.463114     0.510595
    0.431064     0.384430     0.517699
    0.729427     0.445344     0.368134
    0.495246     0.668918     0.630055
    0.600813     0.400777     0.448468
    0.581932     0.318499     0.626959
    0.597760     0.622396     0.660228
    0.618471     0.572591     0.539233
    0.733260     0.600869     0.453118
    0.602004     0.526330     0.413222
    0.735450     0.379714     0.527403
    0.518325     0.478868     0.486875
    0.512506     0.566790     0.488282
    0.448565     0.555534     0.451667
    0.434933     0.459226     0.459904
    0.486535     0.335732     0.489714
    0.421720     0.646264     0.473251
    0.341057     0.439004     0.495738
    0.329519     0.369541     0.567419
    0.357473     0.629025     0.546042
    0.319992     0.359603     0.437858
    0.347947     0.619086     0.416481
    0.367578     0.589143     0.501691
    0.436067     0.599244     0.497552
    0.590060     0.657224     0.614641
    0.758357     0.447770     0.610093
    0.582661     0.382589     0.648172
    0.549722     0.588242     0.342046
    0.622052     0.581343     0.458636
    0.729960     0.533389     0.369855
    0.500107     0.607888     0.650936
    0.624736     0.392808     0.528271
    0.609750     0.447281     0.399877
    0.724634     0.371879     0.438578
    0.746118     0.608769     0.541885
EA143  22.108 19.060 18.955 90.00 90.00 90.00 Sym.group:    0
1.0000
   22.107689     0.000000     0.000000
    0.000000    19.060188     0.000000
    0.000000     0.000000    18.954798
   O  Cu
  24   24 
Direct
    0.479680     0.326753     0.520902
    0.479680     0.466232     0.672143
    0.479680     0.652378     0.585489
    0.479680     0.627943     0.380692
    0.479680     0.426695     0.340775
    0.520320     0.490737     0.675212
    0.520320     0.331421     0.545285
    0.520320     0.405076     0.352775
    0.520320     0.609912     0.363725
    0.520320     0.662854     0.563003
    0.500000     0.563021     0.487797
    0.500000     0.507933     0.435960
    0.500000     0.441882     0.472624
    0.500000     0.456148     0.547120
    0.500000     0.531015     0.556498
    0.493117     0.468521     0.397594
    0.493117     0.393417     0.498460
    0.493117     0.465608     0.601453
    0.493117     0.585327     0.564242
    0.493117     0.587128     0.438250
    0.506883     0.603701     0.524800
    0.506883     0.508589     0.606838
    0.506883     0.401607     0.541229
    0.506883     0.430601     0.418644
    0.506883     0.555501     0.408490
    0.638939     0.616107     0.438103
    0.638939     0.477337     0.369835
    0.638939     0.369887     0.481450
    0.638939     0.442248     0.618701
    0.638939     0.594421     0.591911
    0.361061     0.553728     0.379403
    0.361061     0.630662     0.514116
    0.361061     0.527027     0.629320
    0.361061     0.386041     0.565809
    0.361061     0.402543     0.411352
    0.577610     0.565113     0.472702
    0.577610     0.494303     0.429294
    0.577610     0.431365     0.483599
    0.577610     0.463279     0.560570
    0.577610     0.545940     0.553835
    0.422390     0.522774     0.432860
    0.422390     0.570538     0.501033
    0.422390     0.520821     0.567778
    0.422390     0.442330     0.540856
    0.422390     0.443537     0.457472
    0.714127     0.500000     0.500000
    0.285873     0.500000     0.500000
    0.500000     0.500000     0.500000
EA144  20.282 18.204 18.204 90.00 90.00 90.00 Sym.group:    0
1.0000
   20.281844     0.000000     0.000000
    0.000000    18.204395     0.000000
    0.000000     0.000000    18.204395
   O  Cu
  24   24 
Direct
    0.519894     0.680945     0.525233
    0.519894     0.319055     0.474767
    0.471545     0.325719     0.445193
    0.471545     0.674281     0.554807
    0.519894     0.554807     0.325719
    0.519894     0.445193     0.674281
    0.471545     0.525233     0.319055
    0.471545     0.474767     0.680945
    0.417545     0.550392     0.579706
    0.417545     0.449608     0.420294
    0.573894     0.420294     0.550392
    0.573894     0.579706     0.449608
    0.382778     0.480492     0.589829
    0.382778     0.519508     0.410171
    0.608661     0.479098     0.589515
    0.608661     0.520902     0.410485
    0.382778     0.410485     0.479098
    0.382778     0.589515     0.520902
    0.608661     0.589829     0.519508
    0.608661     0.410171     0.480492
    0.701185     0.500000     0.500000
    0.400326     0.405191     0.429870
    0.400326     0.594809     0.570130
    0.591113     0.615724     0.477308
    0.591113     0.384276     0.522692
    0.400326     0.522692     0.615724
    0.400326     0.477308     0.384276
    0.591113     0.429870     0.594809
    0.591113     0.570130     0.405191
    0.324403     0.421328     0.504765
    0.324403     0.578672     0.495235
    0.667036     0.569026     0.538044
    0.667036     0.430974     0.461956
    0.324403     0.461956     0.569026
    0.324403     0.538044     0.430974
    0.667036     0.504765     0.578672
    0.667036     0.495235     0.421328
    0.562900     0.452463     0.351452
    0.562900     0.547537     0.648548
    0.428539     0.606651     0.386194
    0.428539     0.393349     0.613806
    0.562900     0.613806     0.606651
    0.562900     0.386194     0.393349
    0.428539     0.351452     0.547537
    0.428539     0.648548     0.452463
    0.565481     0.500000     0.500000
    0.425958     0.500000     0.500000
    0.495719     0.500000     0.500000
EA145  25.258 25.258 13.982 90.00 90.00 90.00 Sym.group:    0
1.0000
   25.258021     0.000000     0.000000
    0.000000    25.258021     0.000000
    0.000000     0.000000    13.982358
   O  Cu
  24   24 
Direct
    0.286209     0.603664     0.475609
    0.396336     0.286209     0.475609
    0.713791     0.396336     0.475609
    0.603664     0.713791     0.475609
    0.263986     0.472609     0.475609
    0.472609     0.736014     0.475609
    0.736014     0.527391     0.475609
    0.527391     0.263986     0.475609
    0.650981     0.540788     0.523695
    0.459212     0.650981     0.523695
    0.349019     0.459212     0.523695
    0.540788     0.349019     0.523695
    0.629095     0.411720     0.523695
    0.411720     0.370905     0.523695
    0.370905     0.588280     0.523695
    0.588280     0.629095     0.523695
    0.472187     0.609313     0.543871
    0.390687     0.472187     0.543871
    0.527813     0.390687     0.543871
    0.609313     0.527813     0.543871
    0.437706     0.405967     0.543871
    0.405967     0.562294     0.543871
    0.562294     0.594033     0.543871
    0.594033     0.437706     0.543871
    0.285834     0.387923     0.463243
    0.612077     0.285834     0.463243
    0.714166     0.612077     0.463243
    0.387923     0.714166     0.463243
    0.334753     0.676413     0.463243
    0.676413     0.665247     0.463243
    0.665247     0.323587     0.463243
    0.323587     0.334753     0.463243
    0.600191     0.571139     0.526147
    0.428861     0.600191     0.526147
    0.399809     0.428861     0.526147
    0.571139     0.399809     0.526147
    0.520051     0.750989     0.506575
    0.249011     0.520051     0.506575
    0.479949     0.249011     0.506575
    0.750989     0.479949     0.506575
    0.436190     0.256431     0.506575
    0.256431     0.563810     0.506575
    0.563810     0.743569     0.506575
    0.743569     0.436190     0.506575
    0.593485     0.566378     0.447867
    0.433622     0.593485     0.447867
    0.406515     0.433622     0.447867
    0.566378     0.406515     0.447867
EA146  24.846 23.281 15.034 90.00 90.00 90.00 Sym.group:    0
1.0000
   24.845875     0.000000     0.000000
    0.000000    23.281029     0.000000
    0.000000     0.000000    15.033690
   O  Cu
  24   24 
Direct
    0.410751     0.426401     0.494928
    0.589249     0.573599     0.494928
    0.589249     0.426401     0.505072
    0.410751     0.573599     0.505072
    0.376526     0.500000     0.500000
    0.623474     0.500000     0.500000
    0.424738     0.723748     0.495516
    0.575262     0.276252     0.495516
    0.575262     0.723748     0.504484
    0.424738     0.276252     0.504484
    0.321602     0.461332     0.553231
    0.678398     0.538668     0.553231
    0.678398     0.461332     0.446769
    0.321602     0.538668     0.446769
    0.542749     0.521391     0.494302
    0.457251     0.478609     0.494302
    0.457251     0.521391     0.505698
    0.542749     0.478609     0.505698
    0.519364     0.665823     0.517024
    0.480636     0.334177     0.517024
    0.480636     0.665823     0.482976
    0.519364     0.334177     0.482976
    0.643537     0.496479     0.420389
    0.356463     0.503521     0.420389
    0.356463     0.496479     0.579611
    0.643537     0.503521     0.579611
    0.423587     0.644098     0.465348
    0.576413     0.355902     0.465348
    0.576413     0.644098     0.534652
    0.423587     0.355902     0.534652
    0.617318     0.634243     0.533364
    0.382682     0.365757     0.533364
    0.382682     0.634243     0.466636
    0.617318     0.365757     0.466636
    0.480097     0.271466     0.489485
    0.519903     0.728534     0.489485
    0.519903     0.271466     0.510515
    0.480097     0.728534     0.510515
    0.716574     0.438152     0.518201
    0.283426     0.561848     0.518201
    0.283426     0.438152     0.481799
    0.716574     0.561848     0.481799
    0.340123     0.323152     0.521564
    0.659877     0.676848     0.521564
    0.659877     0.323152     0.478436
    0.340123     0.676848     0.478436
    0.745632     0.500000     0.500000
    0.254368     0.500000     0.500000
EA147  18.714 18.741 18.670 90.00 90.00 90.00 Sym.group:    0
1.0000
   18.714114     0.000000     0.000000
    0.000000    18.741340     0.000000
    0.000000     0.000000    18.670207
   O  Cu
  24   24 
Direct
    0.694175     0.434376     0.453278
    0.694175     0.507497     0.419591
    0.694175     0.573121     0.466312
    0.694175     0.565624     0.546722
    0.694175     0.492503     0.580409
    0.694175     0.426879     0.533688
    0.388213     0.434099     0.418916
    0.388213     0.537003     0.402168
    0.388213     0.602904     0.483252
    0.388213     0.565901     0.581084
    0.388213     0.462997     0.597832
    0.388213     0.397096     0.516748
    0.388213     0.481723     0.396975
    0.388213     0.401978     0.464376
    0.388213     0.420255     0.567401
    0.388213     0.518277     0.603025
    0.388213     0.598022     0.535624
    0.388213     0.579745     0.432599
    0.628271     0.380121     0.610942
    0.628271     0.344347     0.451258
    0.628271     0.464226     0.340316
    0.628271     0.619879     0.389058
    0.628271     0.655653     0.548742
    0.628271     0.535774     0.659684
    0.628271     0.661960     0.481096
    0.628271     0.564670     0.349752
    0.628271     0.402710     0.368656
    0.628271     0.338040     0.518904
    0.628271     0.435330     0.650248
    0.628271     0.597290     0.631344
    0.369601     0.442696     0.526400
    0.369601     0.448571     0.463384
    0.369601     0.505875     0.436984
    0.369601     0.557304     0.473600
    0.369601     0.551429     0.536616
    0.369601     0.494125     0.563016
    0.451629     0.365798     0.530872
    0.451629     0.406265     0.398772
    0.451629     0.540467     0.367900
    0.451629     0.634202     0.469128
    0.451629     0.593735     0.601228
    0.451629     0.459533     0.632100
    0.451629     0.610819     0.417989
    0.451629     0.484655     0.362657
    0.451629     0.373836     0.444668
    0.451629     0.389181     0.582011
    0.451629     0.515345     0.637343
    0.451629     0.626164     0.555332
EA148  22.131 19.167 19.387 90.00 90.00 90.00 Sym.group:    0
1.0000
   22.130964     0.000000     0.000000
    0.000000    19.166743     0.000000
    0.000000     0.000000    19.387036
   O  Cu
  24   24 
Direct
    0.712303     0.432230     0.553846
    0.710293     0.559256     0.449946
    0.710202     0.486960     0.429990
    0.713731     0.503899     0.575406
    0.730369     0.433099     0.481574
    0.731929     0.554491     0.522746
    0.536408     0.622721     0.597863
    0.532817     0.369256     0.398207
    0.534501     0.657823     0.506186
    0.534727     0.334141     0.489879
    0.646938     0.457426     0.601217
    0.642731     0.533931     0.400103
    0.303080     0.521091     0.560632
    0.305422     0.470277     0.444523
    0.365840     0.515515     0.545790
    0.367654     0.476166     0.455877
    0.397333     0.356851     0.501937
    0.398042     0.634986     0.498012
    0.400010     0.592360     0.400606
    0.395376     0.399483     0.599340
    0.368456     0.460772     0.623263
    0.373799     0.530936     0.378162
    0.372103     0.381614     0.442407
    0.370149     0.610088     0.559021
    0.591299     0.598154     0.537665
    0.590108     0.393511     0.461088
    0.663727     0.495658     0.407205
    0.667650     0.495635     0.595118
    0.665908     0.429355     0.573852
    0.662812     0.561979     0.428421
    0.565050     0.474224     0.555342
    0.562688     0.517586     0.442130
    0.519805     0.586946     0.531694
    0.518746     0.405104     0.463648
    0.497942     0.417282     0.324816
    0.499423     0.670631     0.419613
    0.481576     0.454721     0.515435
    0.482517     0.537543     0.479802
    0.410590     0.397103     0.482309
    0.410302     0.594797     0.516926
    0.412336     0.550723     0.416212
    0.408562     0.441183     0.583021
    0.307528     0.460670     0.575869
    0.310792     0.530723     0.429013
    0.309507     0.417684     0.477645
    0.308809     0.573709     0.527237
    0.497656     0.426035     0.672977
    0.500454     0.673673     0.566433
EA149  24.387 22.838 22.838 90.00 90.00 90.00 Sym.group:    0
1.0000
   24.386945     0.000000     0.000000
    0.000000    22.838235     0.000000
    0.000000     0.000000    22.838235
   O  Cu
  24   24 
Direct
    0.426950     0.589825     0.476562
    0.571204     0.602309     0.465104
    0.580945     0.273190     0.508971
    0.259130     0.426687     0.440789
    0.472171     0.665014     0.564236
    0.580945     0.726810     0.491029
    0.547485     0.652975     0.406059
    0.419058     0.476562     0.410175
    0.426950     0.410175     0.523438
    0.419058     0.523438     0.589825
    0.259130     0.573313     0.559211
    0.571204     0.397691     0.534896
    0.472171     0.334986     0.435764
    0.547485     0.347025     0.593941
    0.573048     0.491029     0.273190
    0.573048     0.508971     0.726810
    0.428845     0.559211     0.426687
    0.452522     0.564236     0.334986
    0.428845     0.440789     0.573313
    0.527822     0.593941     0.652975
    0.740820     0.465104     0.397691
    0.452522     0.435764     0.665014
    0.740820     0.534896     0.602309
    0.527822     0.406059     0.347025
    0.586289     0.358502     0.545521
    0.376266     0.405779     0.534540
    0.432294     0.677273     0.517480
    0.688279     0.578658     0.553106
    0.546596     0.313021     0.443167
    0.432294     0.322727     0.482520
    0.471297     0.366576     0.581441
    0.567703     0.545521     0.641498
    0.586289     0.641498     0.454479
    0.567703     0.454479     0.358502
    0.688279     0.421342     0.446894
    0.376266     0.594221     0.465460
    0.546596     0.686979     0.556833
    0.471297     0.633424     0.418559
    0.413714     0.482520     0.677273
    0.413714     0.517480     0.322727
    0.623745     0.446894     0.578658
    0.528711     0.443167     0.686979
    0.623745     0.553106     0.421342
    0.453397     0.418559     0.366576
    0.311709     0.534540     0.594221
    0.528711     0.556833     0.313021
    0.311709     0.465460     0.405779
    0.453397     0.581441     0.633424
EA150  19.384 19.754 19.754 90.00 90.00 90.00 Sym.group:    0
1.0000
   19.383773     0.000000     0.000000
    0.000000    19.754197     0.000000
    0.000000     0.000000    19.754197
   O  Cu
  24   24 
Direct
    0.675234     0.466291     0.562762
    0.669309     0.545810     0.439935
    0.328128     0.563158     0.539281
    0.327358     0.440338     0.459774
    0.382610     0.548437     0.530411
    0.382014     0.453326     0.468843
    0.619989     0.473189     0.548477
    0.615405     0.534765     0.453362
    0.590912     0.406448     0.369001
    0.590418     0.586430     0.631721
    0.411850     0.528590     0.344714
    0.406805     0.471952     0.658088
    0.590812     0.653767     0.526704
    0.590523     0.340388     0.470058
    0.406680     0.369572     0.589251
    0.411981     0.632283     0.409275
    0.387378     0.646978     0.483660
    0.384893     0.354421     0.516215
    0.614742     0.359655     0.542019
    0.612994     0.639906     0.451945
    0.386894     0.455033     0.359967
    0.385374     0.545109     0.640214
    0.612928     0.482230     0.356602
    0.614794     0.514782     0.649164
    0.483383     0.527546     0.456570
    0.482587     0.471390     0.543318
    0.516981     0.455830     0.471829
    0.517044     0.542579     0.527986
    0.579082     0.452486     0.395664
    0.579974     0.544425     0.606363
    0.421656     0.499001     0.385401
    0.419281     0.501382     0.615271
    0.579090     0.613958     0.497402
    0.579972     0.384084     0.499779
    0.419024     0.395192     0.545828
    0.421914     0.605884     0.453888
    0.333177     0.591757     0.474552
    0.330878     0.411215     0.525691
    0.668947     0.407681     0.514418
    0.667004     0.593345     0.487156
    0.332822     0.488007     0.407128
    0.331234     0.515269     0.592787
    0.667003     0.475209     0.409355
    0.668951     0.526346     0.589903
    0.499703     0.711301     0.449099
    0.499164     0.448912     0.290610
    0.500296     0.283946     0.540591
    0.500809     0.540398     0.717964
EA151  20.637 20.407 20.331 90.00 90.00 90.00 Sym.group:    0
1.0000
   20.636826     0.000000     0.000000
    0.000000    20.406836     0.000000
    0.000000     0.000000    20.331461
   O  Cu
  24   24 
Direct
    0.305766     0.445347     0.476434
    0.453240     0.381329     0.656330
    0.631427     0.346057     0.493270
    0.485253     0.419847     0.318969
    0.559792     0.330948     0.407017
    0.356621     0.490650     0.647072
    0.351345     0.375444     0.552638
    0.624544     0.450678     0.348446
    0.629064     0.411149     0.625825
    0.518336     0.323298     0.583007
    0.393582     0.384703     0.375663
    0.348936     0.525129     0.361024
    0.664873     0.523958     0.521732
    0.570590     0.660758     0.521200
    0.407946     0.649869     0.498449
    0.448919     0.698977     0.552535
    0.310311     0.567471     0.523183
    0.683662     0.452121     0.562471
    0.636254     0.642028     0.572230
    0.459122     0.706808     0.464862
    0.645801     0.650867     0.484567
    0.449403     0.639015     0.363483
    0.652134     0.529205     0.384716
    0.581203     0.643433     0.381355
    0.323626     0.432938     0.566857
    0.574742     0.314702     0.497306
    0.616311     0.362596     0.403062
    0.663728     0.406983     0.571392
    0.395370     0.435805     0.335122
    0.539960     0.359444     0.633101
    0.337625     0.390220     0.461862
    0.314643     0.528913     0.415725
    0.431544     0.344251     0.606957
    0.575933     0.468733     0.310733
    0.480476     0.363689     0.352214
    0.407431     0.471412     0.680750
    0.419251     0.616881     0.637105
    0.618180     0.500017     0.652577
    0.551105     0.614607     0.653971
    0.532515     0.616854     0.377340
    0.448651     0.583550     0.363219
    0.605466     0.560722     0.381889
    0.502326     0.591523     0.640549
    0.416896     0.562487     0.627197
    0.572368     0.531807     0.644342
    0.437232     0.551812     0.494297
    0.565979     0.552098     0.510542
    0.500521     0.588867     0.505410
EA152  24.100 22.436 22.626 90.00 90.00 90.00 Sym.group:    0
1.0000
   24.100423     0.000000     0.000000
    0.000000    22.435868     0.000000
    0.000000     0.000000    22.626112
   O  Cu
  24   24 
Direct
    0.615318     0.555646     0.474284
    0.529072     0.563656     0.368413
    0.469099     0.282308     0.338734
    0.701846     0.353378     0.557634
    0.550941     0.339803     0.454493
    0.331618     0.298346     0.619665
    0.451352     0.628972     0.670931
    0.532384     0.745146     0.376336
    0.454185     0.604952     0.531534
    0.660749     0.678417     0.654558
    0.309578     0.569883     0.452077
    0.532784     0.533731     0.684861
    0.336026     0.438550     0.549462
    0.658135     0.557101     0.333856
    0.530293     0.370554     0.518074
    0.391083     0.474287     0.468927
    0.476561     0.427487     0.646320
    0.341809     0.467273     0.311996
    0.491431     0.456752     0.330088
    0.436845     0.688483     0.455351
    0.307544     0.624671     0.576185
    0.545516     0.352373     0.639889
    0.706407     0.435536     0.449097
    0.639423     0.552709     0.537229
    0.305125     0.364862     0.534758
    0.541662     0.424685     0.713861
    0.502113     0.617297     0.610031
    0.378265     0.631102     0.513505
    0.388598     0.681585     0.626401
    0.583495     0.578051     0.396111
    0.516028     0.383013     0.382758
    0.490615     0.361051     0.598168
    0.508879     0.251701     0.427308
    0.419570     0.446102     0.392302
    0.693782     0.469954     0.515735
    0.451468     0.513975     0.305638
    0.709265     0.541353     0.411723
    0.409257     0.411642     0.595240
    0.482844     0.739704     0.468141
    0.700246     0.645698     0.564860
    0.571269     0.518659     0.285107
    0.585040     0.567283     0.600611
    0.464807     0.527136     0.698446
    0.596075     0.305632     0.579285
    0.624101     0.369316     0.493189
    0.488431     0.641319     0.393528
    0.306642     0.524959     0.511985
    0.282427     0.483906     0.381314
EA153  20.398 21.085 20.907 90.00 90.00 90.00 Sym.group:    0
1.0000
   20.397528     0.000000     0.000000
    0.000000    21.085447     0.000000
    0.000000     0.000000    20.906736
   O  Cu
  24   24 
Direct
    0.432895     0.312288     0.563013
    0.612622     0.401874     0.357209
    0.503539     0.662797     0.374777
    0.322011     0.578607     0.587012
    0.562277     0.350494     0.623878
    0.623143     0.330741     0.494872
    0.495994     0.303509     0.436287
    0.294380     0.502299     0.430604
    0.437116     0.683505     0.564223
    0.569953     0.498537     0.691164
    0.416689     0.424624     0.672741
    0.650157     0.594977     0.384455
    0.377200     0.662094     0.441186
    0.565889     0.695181     0.499893
    0.439202     0.417822     0.315990
    0.684249     0.583809     0.550520
    0.309576     0.439493     0.578194
    0.354351     0.371591     0.422634
    0.428866     0.564368     0.681308
    0.681516     0.452723     0.610985
    0.562409     0.521031     0.299941
    0.584814     0.626254     0.642208
    0.699929     0.476221     0.441299
    0.391222     0.545162     0.335606
    0.566114     0.685142     0.435902
    0.387640     0.598211     0.644036
    0.495871     0.336746     0.624145
    0.676646     0.421772     0.415696
    0.438003     0.653842     0.376667
    0.375739     0.668805     0.504574
    0.503223     0.695889     0.562982
    0.703837     0.497364     0.568301
    0.561742     0.313926     0.434842
    0.428892     0.501123     0.307119
    0.586065     0.575736     0.325900
    0.351124     0.405102     0.615778
    0.623387     0.342240     0.559053
    0.433345     0.304217     0.499359
    0.558524     0.582450     0.681468
    0.313107     0.416464     0.447306
    0.689602     0.561112     0.423651
    0.646158     0.627456     0.577759
    0.573014     0.436222     0.317855
    0.321753     0.546199     0.391838
    0.440609     0.479296     0.698268
    0.415593     0.372794     0.358288
    0.298291     0.524131     0.561675
    0.611724     0.453763     0.667540
EA154  20.939 20.591 19.596 90.00 90.00 90.00 Sym.group:    0
1.0000
   20.939337     0.000000     0.000000
    0.000000    20.591208     0.000000
    0.000000     0.000000    19.595711
   O  Cu
  24   24 
Direct
    0.498465     0.336986     0.432010
    0.687940     0.470116     0.559661
    0.417217     0.455031     0.353883
    0.599718     0.628397     0.384887
    0.600408     0.355813     0.589695
    0.678855     0.598094     0.526951
    0.574663     0.448834     0.335211
    0.507588     0.565552     0.321551
    0.622712     0.365029     0.453118
    0.667844     0.512010     0.400725
    0.605162     0.608177     0.649661
    0.301012     0.534826     0.543945
    0.335715     0.391688     0.537841
    0.414071     0.642922     0.604413
    0.399177     0.646812     0.408060
    0.485785     0.343828     0.592255
    0.325993     0.545196     0.454292
    0.521983     0.587526     0.667459
    0.360658     0.399972     0.448198
    0.552516     0.437939     0.661283
    0.457213     0.400665     0.613378
    0.413259     0.577993     0.619937
    0.406013     0.584895     0.382235
    0.641467     0.451005     0.494414
    0.647766     0.459619     0.636798
    0.460795     0.324814     0.508028
    0.698665     0.517660     0.522358
    0.649982     0.634640     0.568260
    0.407106     0.406893     0.391839
    0.645780     0.460057     0.378590
    0.638031     0.368118     0.513677
    0.396547     0.535254     0.358540
    0.531442     0.618073     0.347400
    0.545372     0.339358     0.608423
    0.554131     0.350807     0.413393
    0.643025     0.591151     0.403746
    0.529504     0.485491     0.312506
    0.541667     0.701717     0.467828
    0.445786     0.710674     0.505438
    0.398448     0.377951     0.592136
    0.350358     0.573380     0.599530
    0.319461     0.587724     0.518245
    0.556468     0.643216     0.635640
    0.375806     0.355471     0.508842
    0.334753     0.465383     0.599984
    0.506645     0.644249     0.630717
    0.342364     0.608625     0.476603
    0.404665     0.350371     0.466414
EA155  24.015 20.095 19.260 90.00 90.00 90.00 Sym.group:    0
1.0000
   24.015479     0.000000     0.000000
    0.000000    20.095238     0.000000
    0.000000     0.000000    19.260059
   O  Cu
  24   24 
Direct
    0.419266     0.478045     0.673096
    0.681310     0.479147     0.570261
    0.582865     0.329391     0.561958
    0.599410     0.578260     0.641785
    0.339884     0.549402     0.565762
    0.542752     0.440949     0.672023
    0.476035     0.616384     0.637990
    0.441313     0.685079     0.485866
    0.694523     0.605781     0.494970
    0.329440     0.407707     0.553662
    0.568657     0.700461     0.524125
    0.453406     0.330265     0.612125
    0.288125     0.464098     0.423772
    0.737309     0.449829     0.423289
    0.289929     0.455802     0.492602
    0.284596     0.580207     0.448979
    0.735943     0.511992     0.437506
    0.263897     0.526597     0.415686
    0.472070     0.557668     0.348672
    0.552933     0.360233     0.501081
    0.473508     0.475000     0.329472
    0.549719     0.370029     0.409741
    0.663684     0.492233     0.391195
    0.362104     0.421421     0.454404
    0.429222     0.565599     0.654252
    0.689478     0.567247     0.549874
    0.458441     0.434234     0.673190
    0.589355     0.489784     0.664992
    0.560419     0.623786     0.633581
    0.331515     0.461157     0.586939
    0.613936     0.694386     0.477629
    0.343916     0.588477     0.510583
    0.484261     0.694101     0.527737
    0.537865     0.335272     0.608007
    0.679051     0.425487     0.536595
    0.414243     0.518284     0.376738
    0.610674     0.396108     0.467693
    0.340797     0.434588     0.488759
    0.334471     0.592754     0.457978
    0.685179     0.517116     0.415517
    0.339036     0.442054     0.424695
    0.686446     0.459230     0.402268
    0.447392     0.453390     0.467214
    0.578384     0.496263     0.430709
    0.491050     0.508961     0.392529
    0.534084     0.414365     0.465454
    0.511016     0.397945     0.332338
    0.507093     0.623431     0.384704
EA156  20.320 20.935 21.171 90.00 90.00 90.00 Sym.group:    0
1.0000
   20.319624     0.000000     0.000000
    0.000000    20.934817     0.000000
    0.000000     0.000000    21.171232
   O  Cu
  24   24 
Direct
    0.594029     0.682239     0.500948
    0.311029     0.597571     0.523990
    0.405971     0.337410     0.583849
    0.688971     0.421440     0.563548
    0.543436     0.663046     0.375488
    0.405971     0.662590     0.416151
    0.456564     0.703756     0.546622
    0.594029     0.497158     0.689513
    0.594029     0.317761     0.499052
    0.594029     0.502842     0.310487
    0.688971     0.578560     0.436452
    0.311029     0.402429     0.476010
    0.543436     0.336954     0.624512
    0.456564     0.296244     0.453378
    0.405971     0.582366     0.669958
    0.405971     0.417634     0.330042
    0.688971     0.561528     0.575669
    0.543436     0.630561     0.649139
    0.688971     0.438472     0.424331
    0.456564     0.545969     0.311395
    0.311029     0.479092     0.595858
    0.543436     0.369439     0.350861
    0.311029     0.520908     0.404142
    0.456564     0.454031     0.688605
    0.408499     0.311124     0.497638
    0.688404     0.403159     0.479276
    0.591501     0.669182     0.417754
    0.311596     0.576456     0.439071
    0.453317     0.343881     0.627105
    0.591501     0.330818     0.582246
    0.546683     0.303619     0.454047
    0.408499     0.501413     0.317050
    0.408499     0.688876     0.502362
    0.408499     0.498587     0.682950
    0.311596     0.423544     0.560929
    0.688404     0.596841     0.520724
    0.453317     0.656119     0.372895
    0.546683     0.696381     0.545953
    0.591501     0.416012     0.336561
    0.591501     0.583988     0.663439
    0.311596     0.435823     0.422250
    0.453317     0.372061     0.344012
    0.311596     0.564177     0.577750
    0.546683     0.453354     0.695897
    0.688404     0.524211     0.403418
    0.453317     0.627939     0.655988
    0.688404     0.475789     0.596582
    0.546683     0.546646     0.304103
EA157  20.439 19.488 19.256 90.00 90.00 90.00 Sym.group:    0
1.0000
   20.439461     0.000000     0.000000
    0.000000    19.488201     0.000000
    0.000000     0.000000    19.255596
   O  Cu
  24   24 
Direct
    0.435035     0.320132     0.531166
    0.434016     0.616140     0.640550
    0.425075     0.561835     0.326853
    0.564965     0.320132     0.531166
    0.565984     0.616140     0.640550
    0.574925     0.561835     0.326853
    0.355092     0.421277     0.436578
    0.363105     0.483303     0.604799
    0.360098     0.596358     0.466171
    0.644908     0.421277     0.436578
    0.636895     0.483303     0.604799
    0.639902     0.596358     0.466171
    0.435182     0.647004     0.557451
    0.418070     0.479041     0.338243
    0.435765     0.375488     0.595093
    0.564818     0.647004     0.557451
    0.581930     0.479041     0.338243
    0.564235     0.375488     0.595093
    0.577146     0.480749     0.621413
    0.582752     0.615678     0.451359
    0.591008     0.404524     0.416046
    0.422854     0.480749     0.621413
    0.417248     0.615678     0.451359
    0.408992     0.404524     0.416046
    0.690794     0.499386     0.505413
    0.309206     0.499386     0.505413
    0.594166     0.353023     0.464529
    0.588666     0.542787     0.646838
    0.593068     0.604081     0.389543
    0.405834     0.353023     0.464529
    0.411334     0.542787     0.646838
    0.406932     0.604081     0.389543
    0.392712     0.607140     0.601717
    0.383209     0.531854     0.356481
    0.392572     0.359329     0.544915
    0.607288     0.607140     0.601717
    0.616791     0.531854     0.356481
    0.607428     0.359329     0.544915
    0.500000     0.623752     0.348899
    0.500000     0.308640     0.470532
    0.500000     0.571081     0.682655
    0.380252     0.399153     0.570183
    0.380292     0.608678     0.555061
    0.371312     0.490983     0.379486
    0.619748     0.399153     0.570183
    0.619708     0.608678     0.555061
    0.628688     0.490983     0.379486
    0.500000     0.500636     0.498138
EA158  22.111 21.056 20.898 90.00 90.00 90.00 Sym.group:    0
1.0000
   22.110546     0.000000     0.000000
    0.000000    21.056027     0.000000
    0.000000     0.000000    20.898424
   O  Cu
  24   24 
Direct
    0.486618     0.335582     0.504810
    0.644596     0.400093     0.580607
    0.360377     0.487279     0.657858
    0.432136     0.344135     0.531386
    0.392326     0.457066     0.644669
    0.673899     0.415715     0.563590
    0.437446     0.619261     0.625036
    0.566862     0.473528     0.681072
    0.529512     0.333986     0.402107
    0.344250     0.437848     0.463607
    0.514997     0.456965     0.674874
    0.359220     0.398159     0.464892
    0.402894     0.471048     0.379887
    0.544819     0.799657     0.480328
    0.485486     0.384749     0.374531
    0.785090     0.573327     0.475288
    0.425583     0.607801     0.405177
    0.459545     0.630379     0.569956
    0.625861     0.414646     0.424583
    0.542220     0.588623     0.294461
    0.537870     0.566434     0.334929
    0.572297     0.449911     0.385209
    0.502325     0.578422     0.588807
    0.466638     0.583356     0.415672
    0.477148     0.382199     0.445997
    0.429290     0.541121     0.621939
    0.438297     0.397367     0.460753
    0.657952     0.499773     0.583308
    0.457017     0.505786     0.635789
    0.462830     0.414853     0.610864
    0.396637     0.423046     0.540313
    0.559994     0.419041     0.600866
    0.372687     0.579832     0.569060
    0.557969     0.365059     0.486247
    0.343690     0.499170     0.524536
    0.373385     0.626237     0.505204
    0.552062     0.402724     0.378853
    0.698005     0.541588     0.552189
    0.426120     0.537746     0.373404
    0.534633     0.641542     0.522549
    0.489527     0.706308     0.451414
    0.376497     0.502612     0.418389
    0.709603     0.506920     0.472696
    0.612794     0.577058     0.622897
    0.475505     0.462498     0.341173
    0.362313     0.510790     0.463711
    0.481875     0.660285     0.435406
    0.661303     0.488478     0.459109
EA159  20.834 22.423 21.785 90.00 90.00 90.00 Sym.group:    0
1.0000
   20.834323     0.000000     0.000000
    0.000000    22.423058     0.000000
    0.000000     0.000000    21.785365
   O  Cu
  24   24 
Direct
    0.636643     0.604681     0.485950
    0.483717     0.567577     0.613262
    0.520598     0.685993     0.426268
    0.540701     0.505875     0.336286
    0.662192     0.480988     0.520470
    0.596892     0.508195     0.428734
    0.641352     0.428707     0.463165
    0.706855     0.551730     0.496808
    0.459104     0.496465     0.317368
    0.601075     0.683222     0.451005
    0.353541     0.426954     0.363915
    0.306019     0.521700     0.571557
    0.615503     0.398287     0.525881
    0.326687     0.394287     0.530034
    0.448015     0.375095     0.451679
    0.600013     0.438663     0.687987
    0.305626     0.492472     0.435793
    0.560543     0.574924     0.628200
    0.446867     0.573315     0.631509
    0.343979     0.615795     0.541300
    0.403796     0.391876     0.609556
    0.557253     0.384879     0.561314
    0.475593     0.667713     0.534931
    0.499275     0.574209     0.563486
    0.431628     0.493880     0.490398
    0.386541     0.603072     0.452153
    0.548758     0.644291     0.438369
    0.497338     0.511889     0.369379
    0.647830     0.515093     0.475324
    0.577409     0.470798     0.474914
    0.595300     0.383993     0.397993
    0.656214     0.571144     0.559084
    0.472087     0.424287     0.350509
    0.569628     0.674767     0.528628
    0.745255     0.385320     0.463058
    0.510910     0.627884     0.304896
    0.618898     0.293791     0.427254
    0.516521     0.410248     0.609245
    0.515997     0.255313     0.545857
    0.309001     0.432507     0.442177
    0.482694     0.627087     0.623790
    0.342264     0.595010     0.601346
    0.332675     0.483729     0.348597
    0.371142     0.326067     0.579164
    0.297891     0.546131     0.515946
    0.325063     0.428720     0.579905
    0.632452     0.429731     0.608866
    0.524664     0.521644     0.636689
EA160  25.405 23.208 24.812 90.00 90.00 90.00 Sym.group:    0
1.0000
   25.404578     0.000000     0.000000
    0.000000    23.207933     0.000000
    0.000000     0.000000    24.812109
   O  Cu
  24   24 
Direct
    0.434205     0.554070     0.499561
    0.544095     0.608754     0.476502
    0.568483     0.469195     0.636799
    0.455021     0.459750     0.536173
    0.479488     0.625229     0.404228
    0.575881     0.738111     0.466719
    0.553515     0.669988     0.560787
    0.427618     0.495896     0.579712
    0.415686     0.217449     0.517235
    0.430096     0.476241     0.264608
    0.257614     0.590144     0.414882
    0.758010     0.429751     0.458699
    0.445986     0.358765     0.637071
    0.515716     0.309427     0.503598
    0.556802     0.563825     0.691528
    0.586007     0.392598     0.420662
    0.411213     0.602928     0.538781
    0.443375     0.599798     0.627120
    0.290976     0.480809     0.410365
    0.544750     0.519695     0.339823
    0.709103     0.493207     0.563318
    0.483341     0.349401     0.379233
    0.592095     0.522497     0.391920
    0.526398     0.460326     0.676786
    0.551823     0.299473     0.538535
    0.296834     0.447946     0.463771
    0.441702     0.695782     0.449630
    0.673973     0.568467     0.413788
    0.518954     0.380554     0.647281
    0.408035     0.405271     0.608413
    0.445735     0.272417     0.483392
    0.585544     0.486964     0.301155
    0.592968     0.635970     0.521811
    0.565268     0.506716     0.615511
    0.627764     0.436909     0.526804
    0.404918     0.625196     0.495099
    0.550606     0.647027     0.414361
    0.480082     0.632997     0.540436
    0.445972     0.391627     0.358961
    0.405891     0.562914     0.629369
    0.703590     0.445544     0.414549
    0.552854     0.360142     0.414798
    0.597891     0.568894     0.533476
    0.454418     0.449827     0.668423
    0.346851     0.550241     0.401631
    0.515807     0.610523     0.662807
    0.354446     0.521548     0.568434
    0.472602     0.509197     0.331453
EA161  20.254 20.005 19.658 90.00 90.00 90.00 Sym.group:    0
1.0000
   20.254366     0.000000     0.000000
    0.000000    20.005390     0.000000
    0.000000     0.000000    19.657674
   O  Cu
  24   24 
Direct
    0.329860     0.408781     0.468563
    0.495797     0.323565     0.399846
    0.459027     0.631876     0.362241
    0.314160     0.466781     0.454801
    0.427050     0.584903     0.338388
    0.543038     0.312035     0.437166
    0.579374     0.633964     0.384999
    0.482417     0.419203     0.316742
    0.376405     0.366003     0.578639
    0.351650     0.610987     0.552017
    0.468301     0.470534     0.304797
    0.324657     0.568086     0.530237
    0.410101     0.563752     0.638572
    0.688359     0.531590     0.537450
    0.389207     0.436176     0.620715
    0.667707     0.399637     0.524901
    0.547526     0.622346     0.606761
    0.611160     0.624046     0.446494
    0.503594     0.345889     0.581051
    0.633453     0.536560     0.598860
    0.612020     0.402431     0.586363
    0.509781     0.401292     0.610595
    0.623136     0.566334     0.432927
    0.535455     0.564273     0.626455
    0.370543     0.443823     0.542461
    0.523148     0.572623     0.369971
    0.358281     0.488895     0.531787
    0.569993     0.393199     0.411381
    0.498377     0.536187     0.351758
    0.413221     0.497384     0.362734
    0.356133     0.548269     0.454458
    0.439826     0.394989     0.387468
    0.510966     0.642209     0.435443
    0.404938     0.365168     0.496130
    0.412834     0.629873     0.494830
    0.543034     0.680344     0.513526
    0.452790     0.398818     0.625891
    0.637432     0.386467     0.456505
    0.481246     0.580330     0.643820
    0.666107     0.564414     0.473509
    0.659389     0.577130     0.551432
    0.425079     0.609793     0.601417
    0.625578     0.363599     0.530939
    0.689010     0.468598     0.477843
    0.441865     0.491323     0.661798
    0.427473     0.626921     0.556986
    0.623532     0.593258     0.575651
    0.585969     0.355343     0.552681
EA162  20.249 20.249 20.249 90.00 90.00 90.00 Sym.group:    0
1.0000
   20.249305     0.000000     0.000000
    0.000000    20.249305     0.000000
    0.000000     0.000000    20.249305
   O  Cu
  24   24 
Direct
    0.407271     0.498039     0.306725
    0.687891     0.476653     0.399451
    0.592729     0.413586     0.672893
    0.312109     0.434972     0.580166
    0.454653     0.632584     0.337756
    0.592729     0.586414     0.327107
    0.545347     0.451869     0.296076
    0.407271     0.306725     0.501961
    0.407271     0.501961     0.693275
    0.407271     0.693275     0.498039
    0.312109     0.565028     0.419834
    0.687891     0.523347     0.600549
    0.454653     0.367416     0.662244
    0.545347     0.548131     0.703924
    0.592729     0.327107     0.413586
    0.592729     0.672893     0.586414
    0.312109     0.419834     0.434972
    0.454653     0.337756     0.367416
    0.312109     0.580166     0.565028
    0.545347     0.703924     0.451869
    0.687891     0.399451     0.523347
    0.454653     0.662244     0.632584
    0.687891     0.600549     0.476653
    0.545347     0.296076     0.548131
    0.592729     0.501961     0.693275
    0.312109     0.523347     0.600549
    0.407271     0.586414     0.327107
    0.687891     0.565028     0.419834
    0.545347     0.367416     0.662244
    0.407271     0.413586     0.672893
    0.454653     0.548131     0.703924
    0.592729     0.693275     0.498039
    0.592729     0.498039     0.306725
    0.592729     0.306725     0.501961
    0.687891     0.434972     0.580166
    0.312109     0.476653     0.399451
    0.545347     0.632584     0.337756
    0.454653     0.451869     0.296076
    0.407271     0.672893     0.586414
    0.407271     0.327107     0.413586
    0.687891     0.580166     0.565028
    0.545347     0.662244     0.632584
    0.687891     0.419834     0.434972
    0.454653     0.296076     0.548131
    0.312109     0.600549     0.476653
    0.545347     0.337756     0.367416
    0.312109     0.399451     0.523347
    0.454653     0.703924     0.451869
EA163  20.031 20.031 19.927 90.00 90.00 90.00 Sym.group:    0
1.0000
   20.031347     0.000000     0.000000
    0.000000    20.031347     0.000000
    0.000000     0.000000    19.926600
   O  Cu
  24   24 
Direct
    0.311209     0.368494     0.491421
    0.508534     0.368494     0.310217
    0.688791     0.368494     0.508579
    0.491466     0.368494     0.689783
    0.608665     0.318120     0.590585
    0.656478     0.631506     0.606525
    0.359022     0.681880     0.507360
    0.368761     0.448674     0.316971
    0.343522     0.631506     0.393475
    0.285970     0.551326     0.567925
    0.605968     0.631506     0.342699
    0.394032     0.631506     0.657301
    0.640978     0.681880     0.492640
    0.391335     0.318120     0.409415
    0.631239     0.448674     0.683029
    0.714030     0.551326     0.432075
    0.507322     0.681880     0.641718
    0.682072     0.448674     0.368071
    0.590112     0.318120     0.390764
    0.432430     0.551326     0.284845
    0.492678     0.681880     0.358282
    0.567570     0.551326     0.715155
    0.409888     0.318120     0.609236
    0.317928     0.448674     0.631929
    0.688791     0.631506     0.508579
    0.491466     0.631506     0.689783
    0.311209     0.631506     0.491421
    0.508534     0.631506     0.310217
    0.391335     0.681880     0.409415
    0.343522     0.368494     0.393475
    0.640978     0.318120     0.492640
    0.631239     0.551326     0.683029
    0.656478     0.368494     0.606525
    0.714030     0.448674     0.432075
    0.394032     0.368494     0.657301
    0.605968     0.368494     0.342699
    0.359022     0.318120     0.507360
    0.608665     0.681880     0.590585
    0.368761     0.551326     0.316971
    0.285970     0.448674     0.567925
    0.492678     0.318120     0.358282
    0.317928     0.551326     0.631929
    0.409888     0.681880     0.609236
    0.567570     0.448674     0.715155
    0.507322     0.318120     0.641718
    0.432430     0.448674     0.284845
    0.590112     0.681880     0.390764
    0.682072     0.551326     0.368071
EA164  19.942 20.596 20.255 90.00 90.00 90.00 Sym.group:    0
1.0000
   19.942176     0.000000     0.000000
    0.000000    20.595869     0.000000
    0.000000     0.000000    20.254994
   O  Cu
  24   24 
Direct
    0.540452     0.526819     0.346768
    0.562654     0.426403     0.374696
    0.367477     0.378283     0.543968
    0.321598     0.452129     0.477610
    0.334572     0.555263     0.504402
    0.417738     0.428556     0.363741
    0.496038     0.334383     0.479057
    0.423820     0.589559     0.383590
    0.410625     0.387256     0.397846
    0.390038     0.546198     0.376211
    0.500456     0.333889     0.533682
    0.605721     0.604496     0.381833
    0.518552     0.672917     0.592690
    0.558988     0.673722     0.456568
    0.690078     0.446269     0.545876
    0.370586     0.476667     0.670529
    0.507326     0.457718     0.703170
    0.652529     0.360147     0.495837
    0.645766     0.614948     0.548063
    0.650034     0.435817     0.379646
    0.602737     0.417506     0.655713
    0.637523     0.548738     0.632344
    0.413615     0.674110     0.562879
    0.388355     0.581896     0.663516
    0.342423     0.586063     0.566721
    0.296626     0.512269     0.490933
    0.312241     0.405050     0.508208
    0.373655     0.371624     0.601271
    0.618132     0.400497     0.410890
    0.565986     0.466723     0.334320
    0.571805     0.575598     0.350389
    0.484012     0.604787     0.382018
    0.464610     0.462198     0.342705
    0.527349     0.357922     0.433238
    0.467389     0.349103     0.579286
    0.382361     0.374495     0.449087
    0.350210     0.513099     0.408205
    0.403089     0.626311     0.497523
    0.680373     0.406515     0.467149
    0.593203     0.474934     0.678007
    0.549283     0.633967     0.377840
    0.674901     0.537677     0.581361
    0.615427     0.644251     0.460560
    0.432676     0.655700     0.617854
    0.662234     0.399902     0.574565
    0.516860     0.400290     0.680876
    0.608387     0.626009     0.599045
    0.499491     0.691326     0.537716
EA165  21.505 20.531 23.356 90.00 90.00 90.00 Sym.group:    0
1.0000
   21.505092     0.000000     0.000000
    0.000000    20.531352     0.000000
    0.000000     0.000000    23.355908
   O  Cu
  24   24 
Direct
    0.449500     0.709912     0.364886
    0.731064     0.543329     0.375493
    0.550500     0.290088     0.364886
    0.268936     0.456671     0.375493
    0.448282     0.351687     0.331068
    0.449507     0.290108     0.635103
    0.448280     0.648310     0.668942
    0.590663     0.598155     0.453644
    0.550493     0.709892     0.635103
    0.409328     0.598171     0.546350
    0.731039     0.456676     0.624500
    0.268961     0.543324     0.624500
    0.551720     0.351690     0.668942
    0.551718     0.648313     0.331068
    0.409337     0.401845     0.453644
    0.590672     0.401829     0.546350
    0.407766     0.445968     0.582463
    0.718297     0.365398     0.461930
    0.592229     0.445972     0.417549
    0.718292     0.634614     0.538069
    0.592234     0.554032     0.582463
    0.281708     0.365386     0.538069
    0.407771     0.554028     0.417549
    0.281703     0.634602     0.461930
    0.548722     0.306257     0.622205
    0.271682     0.438752     0.622881
    0.451278     0.693743     0.622205
    0.728318     0.561248     0.622881
    0.546201     0.635411     0.656628
    0.548717     0.693762     0.377790
    0.546202     0.364591     0.343381
    0.395263     0.384974     0.535676
    0.451283     0.306238     0.377790
    0.604746     0.384975     0.464317
    0.271663     0.561245     0.377110
    0.728337     0.438755     0.377110
    0.453798     0.635409     0.343381
    0.453799     0.364589     0.656628
    0.604737     0.615026     0.535676
    0.395254     0.615025     0.464317
    0.604640     0.539202     0.404315
    0.280663     0.636284     0.552742
    0.395358     0.539198     0.595703
    0.280660     0.363711     0.447257
    0.395360     0.460798     0.404315
    0.719340     0.636289     0.447257
    0.604642     0.460802     0.595703
    0.719337     0.363716     0.552742
EA166  22.713 29.681 15.653 90.00 90.00 90.00 Sym.group:    0
1.0000
   22.713064     0.000000     0.000000
    0.000000    29.681409     0.000000
    0.000000     0.000000    15.653220
   O  Cu
  24   24 
Direct
    0.928135     0.562262     0.494968
    0.670465     0.579082     0.500454
    0.815858     0.451167     0.484056
    0.474874     0.405480     0.510387
    0.583566     0.506148     0.541408
    0.781691     0.510851     0.521441
    0.554139     0.571297     0.514404
    0.677602     0.439887     0.446839
    0.682363     0.537409     0.556912
    0.458804     0.431607     0.535346
    0.543731     0.405618     0.496097
    0.343882     0.352236     0.461026
    0.149116     0.559688     0.439309
    0.432758     0.665596     0.463325
    0.348277     0.348752     0.534808
    0.153512     0.556204     0.513091
    0.437153     0.662112     0.537107
    0.281107     0.459775     0.562396
    0.331255     0.593361     0.564499
    0.272418     0.466663     0.416529
    0.322566     0.600248     0.418632
    0.426442     0.456411     0.534024
    0.405422     0.519518     0.530920
    0.393054     0.570971     0.529669
    0.514875     0.507062     0.523000
    0.681093     0.607475     0.520176
    0.923252     0.530799     0.507847
    0.508953     0.449934     0.532180
    0.553247     0.435778     0.484527
    0.624853     0.537077     0.510886
    0.724240     0.523408     0.460203
    0.772821     0.445397     0.464811
    0.866376     0.539028     0.468564
    0.641214     0.407834     0.478498
    0.783267     0.477652     0.446965
    0.529876     0.545779     0.537454
    0.422759     0.459331     0.472195
    0.401738     0.522437     0.469092
    0.468219     0.601240     0.504432
    0.387705     0.400875     0.500792
    0.272490     0.538152     0.487673
    0.253089     0.583358     0.563563
    0.297763     0.413581     0.570824
    0.243675     0.590820     0.405539
    0.288350     0.421043     0.412800
    0.654643     0.379120     0.525658
    0.311882     0.439516     0.516206
    0.405427     0.430962     0.528466
EA167  21.517 22.390 18.041 90.00 90.00 90.00 Sym.group:    0
1.0000
   21.516576     0.000000     0.000000
    0.000000    22.390286     0.000000
    0.000000     0.000000    18.040723
   O  Cu
  24   24 
Direct
    0.355537     0.426277     0.649851
    0.367032     0.431845     0.353330
    0.629640     0.423339     0.647008
    0.495369     0.347603     0.351401
    0.493776     0.350570     0.647922
    0.644463     0.573723     0.649851
    0.636935     0.416713     0.350488
    0.506224     0.649430     0.647922
    0.632968     0.568155     0.353330
    0.370360     0.576661     0.647008
    0.504631     0.652397     0.351401
    0.363065     0.583287     0.350488
    0.384889     0.344297     0.501723
    0.582763     0.326349     0.498590
    0.697874     0.482052     0.499687
    0.615111     0.655703     0.501723
    0.417237     0.673651     0.498590
    0.302126     0.517948     0.499687
    0.370290     0.377018     0.500790
    0.545974     0.330560     0.498788
    0.675686     0.453541     0.500422
    0.629710     0.622982     0.500790
    0.454026     0.669440     0.498788
    0.324314     0.546459     0.500422
    0.273833     0.517877     0.612469
    0.274881     0.512801     0.387040
    0.598926     0.306697     0.610655
    0.372711     0.321852     0.389591
    0.374001     0.317913     0.615020
    0.726167     0.482123     0.612469
    0.599071     0.302390     0.385226
    0.625999     0.682087     0.615020
    0.725119     0.487199     0.387040
    0.401074     0.693303     0.610655
    0.627289     0.678148     0.389591
    0.400929     0.697610     0.385226
    0.388009     0.458425     0.574044
    0.392109     0.460402     0.422654
    0.590547     0.430254     0.576956
    0.482283     0.387570     0.424696
    0.480928     0.388852     0.576086
    0.611991     0.541575     0.574044
    0.592545     0.427341     0.425565
    0.519072     0.611148     0.576086
    0.607891     0.539598     0.422654
    0.409453     0.569746     0.576956
    0.517717     0.612430     0.424696
    0.407455     0.572659     0.425565
EA168  19.741 19.092 19.340 90.00 90.00 90.00 Sym.group:    0
1.0000
   19.740568     0.000000     0.000000
    0.000000    19.092150     0.000000
    0.000000     0.000000    19.340300
   O  Cu
  24   24 
Direct
    0.677539     0.408968     0.469677
    0.509941     0.314919     0.398870
    0.538590     0.639147     0.359376
    0.691394     0.470311     0.455745
    0.572324     0.591092     0.336150
    0.462353     0.301632     0.436026
    0.414671     0.637568     0.383229
    0.520078     0.415493     0.314548
    0.629412     0.362513     0.580154
    0.647839     0.619162     0.552146
    0.532367     0.469897     0.302193
    0.677757     0.576541     0.531547
    0.590992     0.574670     0.635492
    0.304911     0.527846     0.538594
    0.617176     0.436030     0.622626
    0.331096     0.389206     0.525730
    0.447081     0.625357     0.609113
    0.382037     0.626891     0.445806
    0.500814     0.340858     0.582713
    0.360619     0.534809     0.600560
    0.387369     0.393180     0.587417
    0.492098     0.397657     0.610877
    0.372888     0.565517     0.430743
    0.460394     0.565521     0.626454
    0.637815     0.443886     0.542754
    0.474447     0.575231     0.367396
    0.648589     0.491584     0.531921
    0.431533     0.385245     0.410543
    0.500676     0.537861     0.349337
    0.589257     0.499552     0.362132
    0.644264     0.553420     0.453340
    0.564891     0.391675     0.386630
    0.484380     0.648959     0.434341
    0.601185     0.362703     0.496653
    0.584942     0.637929     0.494184
    0.450173     0.687498     0.513569
    0.551331     0.398036     0.628829
    0.362664     0.376532     0.456188
    0.516192     0.584086     0.646095
    0.327524     0.562583     0.473452
    0.333191     0.576476     0.552629
    0.572725     0.618419     0.602004
    0.375428     0.352842     0.531877
    0.307952     0.461304     0.477465
    0.563466     0.494450     0.664609
    0.569947     0.634763     0.557381
    0.369367     0.594386     0.576975
    0.416318     0.345796     0.553907
EA169  23.385 22.826 14.384 90.00 90.00 90.00 Sym.group:    0
1.0000
   23.385066     0.000000     0.000000
    0.000000    22.826495     0.000000
    0.000000     0.000000    14.384200
   O  Cu
  24   24 
Direct
    0.534496     0.264125     0.463572
    0.283357     0.587332     0.463572
    0.682146     0.648543     0.463572
    0.716643     0.412668     0.536428
    0.465504     0.735875     0.536428
    0.317854     0.351457     0.536428
    0.538258     0.404145     0.523444
    0.399842     0.513985     0.523444
    0.561902     0.581870     0.523444
    0.582604     0.440310     0.476556
    0.509156     0.603132     0.476556
    0.408240     0.456557     0.476556
    0.490844     0.396868     0.523444
    0.417396     0.559690     0.523444
    0.591760     0.543443     0.523444
    0.600158     0.486015     0.476556
    0.461742     0.595855     0.476556
    0.438098     0.418130     0.476556
    0.608911     0.626187     0.439371
    0.552216     0.340279     0.439371
    0.338873     0.533534     0.439371
    0.355541     0.419561     0.560629
    0.640227     0.412053     0.560629
    0.504232     0.668385     0.560629
    0.359773     0.587947     0.439371
    0.644459     0.580439     0.439371
    0.495768     0.331615     0.439371
    0.447784     0.659721     0.560629
    0.391089     0.373813     0.560629
    0.661127     0.466466     0.560629
    0.393372     0.441367     0.549663
    0.503749     0.623918     0.549663
    0.602879     0.434714     0.549663
    0.579685     0.593308     0.450337
    0.381281     0.524044     0.450337
    0.539035     0.382648     0.450337
    0.618719     0.475956     0.549663
    0.420315     0.406692     0.549663
    0.460965     0.617352     0.549663
    0.496251     0.376082     0.450337
    0.606628     0.558633     0.450337
    0.397121     0.565286     0.450337
    0.559871     0.655878     0.500000
    0.398166     0.631058     0.500000
    0.601834     0.368942     0.500000
    0.661706     0.524820     0.500000
    0.338294     0.475180     0.500000
    0.440129     0.344122     0.500000
