EA7    20.249 20.249 20.249 90.00 90.00 90.00 Sym.group:    0
1.0000
   20.249305     0.000000     0.000000
    0.000000    20.249305     0.000000
    0.000000     0.000000    20.249305
   O  Cu
  24   24 
Direct
    0.407271     0.498039     0.306725
    0.687891     0.476653     0.399451
    0.592729     0.413586     0.672893
    0.312109     0.434972     0.580166
    0.454653     0.632584     0.337756
    0.592729     0.586414     0.327107
    0.545347     0.451869     0.296076
    0.407271     0.306725     0.501961
    0.407271     0.501961     0.693275
    0.407271     0.693275     0.498039
    0.312109     0.565028     0.419834
    0.687891     0.523347     0.600549
    0.454653     0.367416     0.662244
    0.545347     0.548131     0.703924
    0.592729     0.327107     0.413586
    0.592729     0.672893     0.586414
    0.312109     0.419834     0.434972
    0.454653     0.337756     0.367416
    0.312109     0.580166     0.565028
    0.545347     0.703924     0.451869
    0.687891     0.399451     0.523347
    0.454653     0.662244     0.632584
    0.687891     0.600549     0.476653
    0.545347     0.296076     0.548131
    0.592729     0.501961     0.693275
    0.312109     0.523347     0.600549
    0.407271     0.586414     0.327107
    0.687891     0.565028     0.419834
    0.545347     0.367416     0.662244
    0.407271     0.413586     0.672893
    0.454653     0.548131     0.703924
    0.592729     0.693275     0.498039
    0.592729     0.498039     0.306725
    0.592729     0.306725     0.501961
    0.687891     0.434972     0.580166
    0.312109     0.476653     0.399451
    0.545347     0.632584     0.337756
    0.454653     0.451869     0.296076
    0.407271     0.672893     0.586414
    0.407271     0.327107     0.413586
    0.687891     0.580166     0.565028
    0.545347     0.662244     0.632584
    0.687891     0.419834     0.434972
    0.454653     0.296076     0.548131
    0.312109     0.600549     0.476653
    0.545347     0.337756     0.367416
    0.312109     0.399451     0.523347
    0.454653     0.703924     0.451869
EA153  20.398 21.085 20.907 90.00 90.00 90.00 Sym.group:    0
1.0000
   20.397528     0.000000     0.000000
    0.000000    21.085447     0.000000
    0.000000     0.000000    20.906736
   O  Cu
  24   24 
Direct
    0.432895     0.312288     0.563013
    0.612622     0.401874     0.357209
    0.503539     0.662797     0.374777
    0.322011     0.578607     0.587012
    0.562277     0.350494     0.623878
    0.623143     0.330741     0.494872
    0.495994     0.303509     0.436287
    0.294380     0.502299     0.430604
    0.437116     0.683505     0.564223
    0.569953     0.498537     0.691164
    0.416689     0.424624     0.672741
    0.650157     0.594977     0.384455
    0.377200     0.662094     0.441186
    0.565889     0.695181     0.499893
    0.439202     0.417822     0.315990
    0.684249     0.583809     0.550520
    0.309576     0.439493     0.578194
    0.354351     0.371591     0.422634
    0.428866     0.564368     0.681308
    0.681516     0.452723     0.610985
    0.562409     0.521031     0.299941
    0.584814     0.626254     0.642208
    0.699929     0.476221     0.441299
    0.391222     0.545162     0.335606
    0.566114     0.685142     0.435902
    0.387640     0.598211     0.644036
    0.495871     0.336746     0.624145
    0.676646     0.421772     0.415696
    0.438003     0.653842     0.376667
    0.375739     0.668805     0.504574
    0.503223     0.695889     0.562982
    0.703837     0.497364     0.568301
    0.561742     0.313926     0.434842
    0.428892     0.501123     0.307119
    0.586065     0.575736     0.325900
    0.351124     0.405102     0.615778
    0.623387     0.342240     0.559053
    0.433345     0.304217     0.499359
    0.558524     0.582450     0.681468
    0.313107     0.416464     0.447306
    0.689602     0.561112     0.423651
    0.646158     0.627456     0.577759
    0.573014     0.436222     0.317855
    0.321753     0.546199     0.391838
    0.440609     0.479296     0.698268
    0.415593     0.372794     0.358288
    0.298291     0.524131     0.561675
    0.611724     0.453763     0.667540
EA39   20.031 20.031 19.927 90.00 90.00 90.00 Sym.group:    0
1.0000
   20.031347     0.000000     0.000000
    0.000000    20.031347     0.000000
    0.000000     0.000000    19.926600
   O  Cu
  24   24 
Direct
    0.311209     0.368494     0.491421
    0.508534     0.368494     0.310217
    0.688791     0.368494     0.508579
    0.491466     0.368494     0.689783
    0.608665     0.318120     0.590585
    0.656478     0.631506     0.606525
    0.359022     0.681880     0.507360
    0.368761     0.448674     0.316971
    0.343522     0.631506     0.393475
    0.285970     0.551326     0.567925
    0.605968     0.631506     0.342699
    0.394032     0.631506     0.657301
    0.640978     0.681880     0.492640
    0.391335     0.318120     0.409415
    0.631239     0.448674     0.683029
    0.714030     0.551326     0.432075
    0.507322     0.681880     0.641718
    0.682072     0.448674     0.368071
    0.590112     0.318120     0.390764
    0.432430     0.551326     0.284845
    0.492678     0.681880     0.358282
    0.567570     0.551326     0.715155
    0.409888     0.318120     0.609236
    0.317928     0.448674     0.631929
    0.688791     0.631506     0.508579
    0.491466     0.631506     0.689783
    0.311209     0.631506     0.491421
    0.508534     0.631506     0.310217
    0.391335     0.681880     0.409415
    0.343522     0.368494     0.393475
    0.640978     0.318120     0.492640
    0.631239     0.551326     0.683029
    0.656478     0.368494     0.606525
    0.714030     0.448674     0.432075
    0.394032     0.368494     0.657301
    0.605968     0.368494     0.342699
    0.359022     0.318120     0.507360
    0.608665     0.681880     0.590585
    0.368761     0.551326     0.316971
    0.285970     0.448674     0.567925
    0.492678     0.318120     0.358282
    0.317928     0.551326     0.631929
    0.409888     0.681880     0.609236
    0.567570     0.448674     0.715155
    0.507322     0.318120     0.641718
    0.432430     0.448674     0.284845
    0.590112     0.681880     0.390764
    0.682072     0.551326     0.368071
EA100  21.224 20.162 21.236 90.00 90.00 90.00 Sym.group:    0
1.0000
   21.223635     0.000000     0.000000
    0.000000    20.162001     0.000000
    0.000000     0.000000    21.236282
   O  Cu
  24   24 
Direct
    0.367108     0.366829     0.610914
    0.384725     0.373422     0.361085
    0.639877     0.372013     0.381195
    0.614639     0.365326     0.633582
    0.631135     0.325906     0.490302
    0.678648     0.632373     0.474993
    0.404130     0.683631     0.600571
    0.296716     0.449120     0.455877
    0.325940     0.628944     0.528299
    0.396587     0.546231     0.683887
    0.471639     0.636205     0.326208
    0.525047     0.625045     0.678560
    0.590317     0.677596     0.409819
    0.365079     0.312712     0.504168
    0.711872     0.448991     0.540316
    0.606907     0.555791     0.316440
    0.594598     0.680142     0.598880
    0.542167     0.454246     0.297060
    0.492489     0.323156     0.362751
    0.310950     0.552958     0.391655
    0.403935     0.681066     0.412812
    0.678724     0.549183     0.601823
    0.506659     0.315551     0.628593
    0.457699     0.443514     0.711848
    0.638951     0.634604     0.386451
    0.613558     0.627260     0.639438
    0.366191     0.626734     0.616109
    0.383649     0.633954     0.366909
    0.364276     0.684863     0.511743
    0.327326     0.368734     0.522903
    0.591993     0.326803     0.402317
    0.711574     0.551288     0.542513
    0.680041     0.370100     0.469551
    0.607592     0.453699     0.313879
    0.525996     0.364923     0.672706
    0.472596     0.373863     0.320304
    0.405877     0.311809     0.592595
    0.630405     0.676396     0.497389
    0.296421     0.550744     0.458058
    0.397270     0.444423     0.681331
    0.404591     0.322555     0.403384
    0.457413     0.546021     0.713042
    0.505828     0.677742     0.637983
    0.679907     0.447816     0.600149
    0.595272     0.316119     0.589329
    0.312136     0.450385     0.389953
    0.491666     0.683503     0.372098
    0.541885     0.555711     0.298231
EA132  21.426 20.945 21.218 90.00 90.00 90.00 Sym.group:    0
1.0000
   21.425964     0.000000     0.000000
    0.000000    20.945110     0.000000
    0.000000     0.000000    21.218109
   O  Cu
  24   24 
Direct
    0.497308     0.703364     0.573326
    0.686155     0.544784     0.427657
    0.355121     0.640792     0.561005
    0.418065     0.585842     0.673949
    0.588145     0.665197     0.400371
    0.601214     0.508624     0.322164
    0.587169     0.590845     0.667702
    0.454106     0.594731     0.320960
    0.339320     0.582186     0.400044
    0.626471     0.667130     0.535449
    0.458981     0.701431     0.438248
    0.679960     0.512281     0.596069
    0.627099     0.332632     0.518071
    0.469023     0.405298     0.693757
    0.412882     0.407976     0.321044
    0.456690     0.309419     0.583900
    0.386418     0.342764     0.414584
    0.557522     0.366050     0.348604
    0.287811     0.527236     0.544881
    0.596207     0.347780     0.630130
    0.348572     0.349526     0.563296
    0.296089     0.448870     0.458948
    0.705732     0.455824     0.526621
    0.659517     0.405982     0.388737
    0.637586     0.550955     0.355918
    0.448740     0.709534     0.501586
    0.700531     0.496005     0.468862
    0.385934     0.616413     0.370458
    0.403690     0.634621     0.632744
    0.655342     0.569163     0.618204
    0.636714     0.659026     0.472111
    0.318750     0.598461     0.527251
    0.527155     0.679748     0.388750
    0.558297     0.688812     0.584947
    0.540555     0.556618     0.697286
    0.452710     0.361564     0.349023
    0.294566     0.434015     0.523867
    0.346708     0.389663     0.387933
    0.560997     0.314288     0.583935
    0.463427     0.498209     0.715991
    0.662122     0.367121     0.563245
    0.388612     0.320759     0.517686
    0.625579     0.355140     0.415173
    0.535072     0.408879     0.693823
    0.590216     0.417654     0.322679
    0.464172     0.496095     0.289446
    0.417808     0.338819     0.629692
    0.289140     0.541869     0.479875
EA136  20.944 21.094 20.534 90.00 90.00 90.00 Sym.group:    0
1.0000
   20.944378     0.000000     0.000000
    0.000000    21.094271     0.000000
    0.000000     0.000000    20.534127
   O  Cu
  24   24 
Direct
    0.608257     0.601158     0.402074
    0.512435     0.656146     0.420758
    0.407307     0.648309     0.545479
    0.367134     0.607857     0.558413
    0.607560     0.515734     0.326489
    0.621844     0.407848     0.372886
    0.351959     0.512396     0.346119
    0.345512     0.615205     0.393182
    0.481829     0.383405     0.336718
    0.294066     0.452737     0.472689
    0.382735     0.370629     0.391399
    0.498859     0.584445     0.683149
    0.318798     0.465517     0.586477
    0.653620     0.375220     0.563970
    0.624185     0.639138     0.566244
    0.695468     0.476129     0.559385
    0.570142     0.421435     0.676289
    0.525574     0.316869     0.588924
    0.487256     0.666621     0.607332
    0.522022     0.294816     0.476595
    0.678644     0.593465     0.476939
    0.382140     0.334009     0.481036
    0.365824     0.545886     0.646168
    0.462232     0.448377     0.694364
    0.446183     0.648342     0.387069
    0.565901     0.655762     0.392479
    0.624743     0.561321     0.358087
    0.659965     0.516211     0.442738
    0.600659     0.653620     0.493351
    0.441347     0.664498     0.493989
    0.384346     0.601346     0.343242
    0.320924     0.392689     0.470889
    0.654231     0.496799     0.370011
    0.394710     0.416819     0.343257
    0.575174     0.426784     0.329365
    0.313126     0.526255     0.396059
    0.469855     0.337215     0.384860
    0.471112     0.297784     0.516346
    0.651174     0.416712     0.613018
    0.697915     0.434638     0.510338
    0.543154     0.643862     0.629516
    0.373260     0.484602     0.659054
    0.442962     0.607204     0.660965
    0.683633     0.573673     0.538873
    0.510695     0.486900     0.703661
    0.521680     0.382911     0.666992
    0.576483     0.313902     0.549173
    0.311363     0.526800     0.573590
EA57   19.942 20.596 20.255 90.00 90.00 90.00 Sym.group:    0
1.0000
   19.942176     0.000000     0.000000
    0.000000    20.595869     0.000000
    0.000000     0.000000    20.254994
   O  Cu
  24   24 
Direct
    0.540452     0.526819     0.346768
    0.562654     0.426403     0.374696
    0.367477     0.378283     0.543968
    0.321598     0.452129     0.477610
    0.334572     0.555263     0.504402
    0.417738     0.428556     0.363741
    0.496038     0.334383     0.479057
    0.423820     0.589559     0.383590
    0.410625     0.387256     0.397846
    0.390038     0.546198     0.376211
    0.500456     0.333889     0.533682
    0.605721     0.604496     0.381833
    0.518552     0.672917     0.592690
    0.558988     0.673722     0.456568
    0.690078     0.446269     0.545876
    0.370586     0.476667     0.670529
    0.507326     0.457718     0.703170
    0.652529     0.360147     0.495837
    0.645766     0.614948     0.548063
    0.650034     0.435817     0.379646
    0.602737     0.417506     0.655713
    0.637523     0.548738     0.632344
    0.413615     0.674110     0.562879
    0.388355     0.581896     0.663516
    0.342423     0.586063     0.566721
    0.296626     0.512269     0.490933
    0.312241     0.405050     0.508208
    0.373655     0.371624     0.601271
    0.618132     0.400497     0.410890
    0.565986     0.466723     0.334320
    0.571805     0.575598     0.350389
    0.484012     0.604787     0.382018
    0.464610     0.462198     0.342705
    0.527349     0.357922     0.433238
    0.467389     0.349103     0.579286
    0.382361     0.374495     0.449087
    0.350210     0.513099     0.408205
    0.403089     0.626311     0.497523
    0.680373     0.406515     0.467149
    0.593203     0.474934     0.678007
    0.549283     0.633967     0.377840
    0.674901     0.537677     0.581361
    0.615427     0.644251     0.460560
    0.432676     0.655700     0.617854
    0.662234     0.399902     0.574565
    0.516860     0.400290     0.680876
    0.608387     0.626009     0.599045
    0.499491     0.691326     0.537716
EA117  20.390 20.712 20.706 90.00 90.00 90.00 Sym.group:    0
1.0000
   20.389857     0.000000     0.000000
    0.000000    20.711916     0.000000
    0.000000     0.000000    20.705836
   O  Cu
  24   24 
Direct
    0.490972     0.329993     0.582293
    0.400639     0.418530     0.339576
    0.457997     0.456543     0.681142
    0.520695     0.341894     0.397742
    0.341402     0.540885     0.355101
    0.519753     0.480880     0.306783
    0.337523     0.399805     0.578707
    0.334438     0.528428     0.623956
    0.409286     0.323693     0.473273
    0.602382     0.348194     0.506761
    0.293010     0.443889     0.459296
    0.538097     0.468592     0.662321
    0.422351     0.680756     0.538748
    0.530948     0.681994     0.501732
    0.417022     0.578780     0.657291
    0.585744     0.594355     0.623466
    0.535937     0.622253     0.636145
    0.626826     0.414389     0.616199
    0.675325     0.515629     0.390782
    0.689000     0.472024     0.533511
    0.444707     0.639644     0.329813
    0.634571     0.379724     0.437092
    0.663550     0.619998     0.426951
    0.557959     0.635549     0.328326
    0.482581     0.430496     0.317175
    0.572914     0.341959     0.559892
    0.352192     0.456411     0.352590
    0.378574     0.591268     0.344709
    0.311988     0.399773     0.499411
    0.438754     0.329928     0.420143
    0.315459     0.572544     0.583840
    0.576845     0.348162     0.427465
    0.434822     0.323725     0.552570
    0.282219     0.528362     0.461806
    0.345227     0.443954     0.621445
    0.561059     0.679695     0.432816
    0.481269     0.713959     0.521032
    0.370034     0.684657     0.510312
    0.593448     0.443744     0.653321
    0.610182     0.536132     0.621317
    0.459956     0.535830     0.674969
    0.493975     0.658495     0.606478
    0.615391     0.622662     0.500527
    0.650103     0.474604     0.620630
    0.665723     0.411809     0.529081
    0.643979     0.599840     0.369158
    0.638276     0.419783     0.383729
    0.694897     0.535786     0.448575
EA139  21.363 21.520 21.073 90.00 90.00 90.00 Sym.group:    0
1.0000
   21.363481     0.000000     0.000000
    0.000000    21.519697     0.000000
    0.000000     0.000000    21.073196
   O  Cu
  24   24 
Direct
    0.416637     0.525819     0.696305
    0.305792     0.537246     0.423368
    0.450863     0.652035     0.640756
    0.345581     0.637906     0.542515
    0.311355     0.511691     0.598064
    0.462566     0.533121     0.294283
    0.327978     0.377473     0.486165
    0.555728     0.656908     0.376144
    0.382171     0.372095     0.620812
    0.498505     0.708359     0.498709
    0.370131     0.436597     0.343521
    0.398225     0.633771     0.374130
    0.618080     0.332726     0.532996
    0.487349     0.374175     0.334652
    0.678832     0.615767     0.509460
    0.574465     0.425066     0.682661
    0.658905     0.569694     0.613712
    0.702635     0.476916     0.463513
    0.645402     0.571001     0.370741
    0.529208     0.309626     0.602410
    0.550557     0.531933     0.711834
    0.533503     0.311445     0.418484
    0.656987     0.393742     0.401233
    0.682422     0.523033     0.602897
    0.457980     0.602838     0.683474
    0.347136     0.614265     0.410535
    0.499279     0.696588     0.432995
    0.304238     0.560887     0.555346
    0.384427     0.337792     0.429314
    0.421222     0.456103     0.307116
    0.395897     0.669183     0.571823
    0.366322     0.494541     0.666997
    0.454675     0.594090     0.317280
    0.313683     0.476279     0.400372
    0.327204     0.389244     0.551879
    0.553471     0.691211     0.567641
    0.566378     0.598827     0.329645
    0.695975     0.555806     0.528303
    0.640538     0.629116     0.595225
    0.580506     0.346486     0.618185
    0.566966     0.347888     0.375828
    0.566758     0.296833     0.516195
    0.671568     0.389712     0.465440
    0.438121     0.348442     0.636656
    0.687065     0.481931     0.399865
    0.643294     0.621921     0.410252
    0.453852     0.337900     0.377416
    0.519572     0.443974     0.712853
EA140  19.719 19.985 20.370 90.00 90.00 90.00 Sym.group:    0
1.0000
   19.719057     0.000000     0.000000
    0.000000    19.985050     0.000000
    0.000000     0.000000    20.370161
   O  Cu
  24   24 
Direct
    0.621223     0.568372     0.641069
    0.440656     0.649750     0.598229
    0.663283     0.553379     0.596619
    0.387806     0.618379     0.604726
    0.598607     0.340201     0.565820
    0.339103     0.405998     0.423349
    0.560000     0.419006     0.670154
    0.300497     0.484802     0.527685
    0.498966     0.319909     0.452192
    0.419743     0.481620     0.666293
    0.382850     0.357887     0.473884
    0.343412     0.438390     0.580469
    0.480989     0.334901     0.509412
    0.573628     0.644514     0.426262
    0.542486     0.674926     0.521944
    0.384874     0.466435     0.387169
    0.416088     0.663771     0.450262
    0.495149     0.564935     0.345809
    0.386079     0.654610     0.492921
    0.664039     0.583254     0.415760
    0.646093     0.477087     0.379718
    0.684230     0.440071     0.504004
    0.623965     0.677587     0.556640
    0.504114     0.365750     0.364024
    0.592460     0.485342     0.634398
    0.625164     0.473683     0.599835
    0.402370     0.596876     0.518680
    0.525606     0.631561     0.562013
    0.484004     0.422806     0.670847
    0.331783     0.553428     0.516570
    0.535812     0.317053     0.530834
    0.607062     0.345646     0.509900
    0.321980     0.502377     0.576523
    0.319607     0.488858     0.442058
    0.533880     0.349390     0.625110
    0.351695     0.492475     0.610726
    0.398784     0.398010     0.397591
    0.332488     0.494981     0.394947
    0.575108     0.664490     0.582517
    0.624094     0.620600     0.406730
    0.556018     0.566577     0.361051
    0.476204     0.670947     0.437095
    0.390605     0.573033     0.379637
    0.628310     0.563993     0.367258
    0.681822     0.496350     0.428220
    0.505627     0.330391     0.411637
    0.650012     0.385450     0.503113
    0.591627     0.390149     0.378299
EA124  20.645 19.441 21.663 90.00 90.00 90.00 Sym.group:    0
1.0000
   20.645234     0.000000     0.000000
    0.000000    19.441119     0.000000
    0.000000     0.000000    21.662965
   O  Cu
  24   24 
Direct
    0.474120     0.308325     0.516003
    0.572632     0.394682     0.607337
    0.396281     0.621289     0.624076
    0.406647     0.417549     0.625092
    0.487387     0.519283     0.663075
    0.347379     0.369784     0.505982
    0.315539     0.519552     0.586093
    0.610729     0.603821     0.601672
    0.680080     0.495708     0.537652
    0.626499     0.347717     0.511589
    0.597041     0.534272     0.611630
    0.337056     0.471223     0.490187
    0.405783     0.581686     0.363155
    0.692166     0.510348     0.444960
    0.616854     0.674139     0.485647
    0.580666     0.446454     0.363363
    0.302250     0.506316     0.442366
    0.550874     0.597410     0.364220
    0.435575     0.430731     0.362298
    0.676257     0.367611     0.483900
    0.322125     0.643338     0.483493
    0.518496     0.307388     0.442401
    0.475920     0.709274     0.444924
    0.576293     0.636124     0.532917
    0.577885     0.351269     0.563254
    0.336826     0.456975     0.594515
    0.601705     0.475036     0.621792
    0.466100     0.581861     0.654653
    0.417200     0.330356     0.536559
    0.344613     0.599906     0.600549
    0.458313     0.438929     0.648619
    0.467847     0.702720     0.565879
    0.668656     0.569846     0.532233
    0.574611     0.310089     0.486488
    0.394032     0.489809     0.362437
    0.680414     0.418469     0.444242
    0.459606     0.618611     0.363766
    0.592417     0.538333     0.364080
    0.526844     0.409530     0.362751
    0.314002     0.598195     0.443084
    0.427227     0.328590     0.441949
    0.567188     0.688074     0.445377
    0.700289     0.555491     0.485369
    0.473516     0.478795     0.598347
    0.630615     0.581887     0.553441
    0.327728     0.511884     0.366641
    0.331347     0.388948     0.453478
    0.656368     0.562374     0.416465
EA112  21.366 21.487 21.098 90.00 90.00 90.00 Sym.group:    0
1.0000
   21.366325     0.000000     0.000000
    0.000000    21.486988     0.000000
    0.000000     0.000000    21.097893
   O  Cu
  24   24 
Direct
    0.604611     0.418255     0.341068
    0.415915     0.322488     0.414698
    0.690263     0.432457     0.466575
    0.558997     0.318500     0.446796
    0.588504     0.347787     0.606593
    0.680037     0.550302     0.391748
    0.453598     0.293354     0.580718
    0.538386     0.557343     0.294013
    0.723675     0.550795     0.469474
    0.742013     0.476759     0.577043
    0.754056     0.539312     0.571781
    0.635273     0.582866     0.474661
    0.363619     0.457881     0.657393
    0.378298     0.553694     0.309814
    0.281335     0.443297     0.541871
    0.298932     0.540095     0.393502
    0.414561     0.687891     0.553256
    0.536363     0.692712     0.468110
    0.369458     0.327716     0.574167
    0.554305     0.659206     0.604542
    0.500040     0.583310     0.670280
    0.474607     0.439819     0.683732
    0.275424     0.559259     0.540406
    0.354500     0.658987     0.460311
    0.606659     0.358831     0.409671
    0.554807     0.440015     0.306512
    0.413867     0.381911     0.346094
    0.465718     0.300727     0.449254
    0.688213     0.491882     0.397971
    0.684228     0.428786     0.532032
    0.546877     0.311128     0.578260
    0.445107     0.539571     0.296471
    0.582317     0.536409     0.589930
    0.664189     0.559586     0.457166
    0.689425     0.453315     0.575469
    0.660420     0.586017     0.510985
    0.585656     0.683345     0.509483
    0.349628     0.495785     0.325640
    0.334140     0.646663     0.520332
    0.327970     0.597937     0.378991
    0.328733     0.351365     0.530066
    0.566078     0.585439     0.658478
    0.444117     0.497797     0.691299
    0.269947     0.517009     0.488481
    0.394082     0.399865     0.650024
    0.287850     0.484738     0.593914
    0.434646     0.700312     0.493146
    0.488554     0.657483     0.617777
EA129  21.571 21.581 21.158 90.00 90.00 90.00 Sym.group:    0
1.0000
   21.571480     0.000000     0.000000
    0.000000    21.581468     0.000000
    0.000000     0.000000    21.157954
   O  Cu
  24   24 
Direct
    0.540418     0.699194     0.409738
    0.618866     0.411080     0.339115
    0.522436     0.345287     0.357645
    0.664005     0.366003     0.482473
    0.360518     0.534646     0.332569
    0.702204     0.501841     0.433704
    0.472334     0.635144     0.336543
    0.653006     0.595109     0.378338
    0.372086     0.352917     0.393003
    0.440210     0.454754     0.298415
    0.641060     0.658406     0.514921
    0.678022     0.404900     0.594544
    0.422418     0.322365     0.579202
    0.301063     0.533098     0.578350
    0.503685     0.649565     0.650165
    0.625040     0.438832     0.651018
    0.548098     0.555986     0.697691
    0.301566     0.419181     0.482276
    0.353759     0.403447     0.622673
    0.663129     0.572640     0.602253
    0.400756     0.682984     0.548514
    0.372693     0.581485     0.654508
    0.309807     0.494406     0.394540
    0.529165     0.377947     0.665855
    0.449377     0.681965     0.379825
    0.682627     0.596893     0.439639
    0.612896     0.363226     0.387479
    0.381683     0.439722     0.327127
    0.527288     0.393635     0.310020
    0.591631     0.704397     0.505690
    0.562773     0.653116     0.365364
    0.431732     0.322950     0.407461
    0.637702     0.353798     0.575168
    0.703275     0.417901     0.500974
    0.672471     0.499788     0.372518
    0.419025     0.549455     0.303635
    0.343731     0.371139     0.565442
    0.469412     0.604759     0.683931
    0.582372     0.600791     0.663925
    0.461520     0.697607     0.566998
    0.579901     0.360262     0.627109
    0.346202     0.611667     0.602258
    0.432445     0.354673     0.636433
    0.503176     0.294215     0.517531
    0.327554     0.502915     0.630600
    0.574302     0.456519     0.689763
    0.285102     0.481672     0.487256
    0.425460     0.695717     0.455798
EA126  20.733 20.796 20.726 90.00 90.00 90.00 Sym.group:    0
1.0000
   20.733336     0.000000     0.000000
    0.000000    20.796179     0.000000
    0.000000     0.000000    20.725585
   O  Cu
  24   24 
Direct
    0.698722     0.493678     0.437515
    0.408674     0.330833     0.419361
    0.650951     0.429535     0.586154
    0.573450     0.334620     0.443934
    0.481264     0.350833     0.605917
    0.389156     0.356419     0.504986
    0.574425     0.509630     0.664655
    0.639861     0.443546     0.392967
    0.543813     0.379599     0.402458
    0.436197     0.401318     0.602215
    0.643564     0.494487     0.573381
    0.414261     0.584494     0.334673
    0.506719     0.533286     0.300551
    0.521827     0.691356     0.532652
    0.334966     0.568521     0.607751
    0.442131     0.661892     0.603382
    0.579222     0.628960     0.377053
    0.356866     0.646891     0.490272
    0.611749     0.612032     0.610831
    0.312273     0.564037     0.432528
    0.357412     0.454740     0.351371
    0.395358     0.509202     0.679326
    0.636578     0.631141     0.471405
    0.352627     0.391999     0.610119
    0.593310     0.325721     0.563273
    0.688184     0.487551     0.520019
    0.488708     0.335869     0.401641
    0.458777     0.424707     0.660887
    0.441431     0.314173     0.469307
    0.540167     0.448287     0.680418
    0.681704     0.435229     0.452993
    0.681584     0.583602     0.463569
    0.413705     0.391292     0.344256
    0.647736     0.397698     0.445476
    0.450829     0.323267     0.518322
    0.582431     0.442997     0.652592
    0.432296     0.683304     0.544827
    0.652231     0.597061     0.564605
    0.347969     0.486325     0.645052
    0.417188     0.525233     0.312726
    0.586261     0.667524     0.459076
    0.503792     0.592547     0.322497
    0.349827     0.608326     0.408249
    0.316932     0.469712     0.397596
    0.531662     0.669946     0.591207
    0.629539     0.592576     0.389382
    0.382356     0.591399     0.642027
    0.319312     0.602603     0.514550
EA120  21.295 20.750 21.305 90.00 90.00 90.00 Sym.group:    0
1.0000
   21.294966     0.000000     0.000000
    0.000000    20.749506     0.000000
    0.000000     0.000000    21.304582
   O  Cu
  24   24 
Direct
    0.305420     0.586879     0.495089
    0.521436     0.707176     0.474508
    0.385622     0.669111     0.508456
    0.436717     0.475571     0.306165
    0.414824     0.304067     0.484275
    0.438254     0.372046     0.358363
    0.422651     0.647661     0.371506
    0.319940     0.414924     0.429241
    0.591172     0.467566     0.321432
    0.306354     0.444496     0.537087
    0.346701     0.543777     0.635454
    0.516758     0.595830     0.330403
    0.599271     0.359490     0.603575
    0.663557     0.463688     0.388845
    0.433649     0.377635     0.656044
    0.514836     0.303378     0.557453
    0.650551     0.376941     0.464973
    0.682415     0.478158     0.571100
    0.537374     0.580054     0.642898
    0.471499     0.630316     0.663012
    0.545102     0.663930     0.624622
    0.639690     0.627610     0.553394
    0.646911     0.344751     0.562685
    0.681877     0.622522     0.535266
    0.383983     0.411422     0.349752
    0.600377     0.532395     0.329548
    0.332702     0.606394     0.552270
    0.453348     0.579411     0.314816
    0.357870     0.650932     0.451008
    0.288819     0.483025     0.485592
    0.335788     0.479044     0.629561
    0.490300     0.435185     0.314079
    0.486328     0.664115     0.385828
    0.480705     0.709380     0.523750
    0.456039     0.304280     0.435314
    0.335972     0.376301     0.481020
    0.514726     0.331409     0.617456
    0.682589     0.433544     0.475593
    0.599380     0.331461     0.543574
    0.414393     0.464899     0.691568
    0.650267     0.449585     0.620482
    0.631517     0.407084     0.378223
    0.593691     0.643731     0.486927
    0.641570     0.577829     0.525189
    0.530235     0.510694     0.566499
    0.382820     0.378648     0.620286
    0.711809     0.553633     0.478622
    0.572192     0.628021     0.667196
EA138  20.582 20.686 20.980 90.00 90.00 90.00 Sym.group:    0
1.0000
   20.582245     0.000000     0.000000
    0.000000    20.686495     0.000000
    0.000000     0.000000    20.980359
   O  Cu
  24   24 
Direct
    0.438654     0.349017     0.411808
    0.390891     0.495110     0.348319
    0.549823     0.439260     0.320403
    0.520747     0.573562     0.316032
    0.305068     0.601446     0.549690
    0.292303     0.448878     0.531489
    0.440303     0.684537     0.416086
    0.432774     0.351106     0.572688
    0.330767     0.609568     0.460250
    0.317727     0.453713     0.441657
    0.422270     0.414718     0.600239
    0.425298     0.623461     0.384904
    0.647043     0.345211     0.484716
    0.477221     0.380548     0.654387
    0.565656     0.313380     0.558535
    0.687730     0.583578     0.587331
    0.634306     0.616204     0.352975
    0.455760     0.645037     0.642650
    0.682978     0.641632     0.488553
    0.621628     0.418759     0.647267
    0.713145     0.510030     0.424779
    0.568797     0.663566     0.627067
    0.656768     0.430049     0.363319
    0.591866     0.524964     0.683769
    0.398063     0.344750     0.488735
    0.365969     0.448625     0.383403
    0.398008     0.579816     0.358090
    0.564373     0.612473     0.340384
    0.499767     0.345904     0.390866
    0.513631     0.488856     0.306260
    0.353901     0.412289     0.580496
    0.371031     0.617029     0.604922
    0.341414     0.648205     0.526601
    0.320822     0.402108     0.497240
    0.317143     0.517886     0.599488
    0.370389     0.663679     0.485561
    0.347500     0.390120     0.452924
    0.713348     0.582981     0.498410
    0.543526     0.618319     0.668080
    0.591274     0.312783     0.469614
    0.647507     0.511559     0.652612
    0.621425     0.345808     0.573637
    0.687266     0.417230     0.419435
    0.657360     0.642229     0.577475
    0.481030     0.690285     0.601636
    0.565988     0.432164     0.678424
    0.477093     0.334717     0.608127
    0.682646     0.522849     0.368664
EA155  24.015 20.095 19.260 90.00 90.00 90.00 Sym.group:    0
1.0000
   24.015479     0.000000     0.000000
    0.000000    20.095238     0.000000
    0.000000     0.000000    19.260059
   O  Cu
  24   24 
Direct
    0.419266     0.478045     0.673096
    0.681310     0.479147     0.570261
    0.582865     0.329391     0.561958
    0.599410     0.578260     0.641785
    0.339884     0.549402     0.565762
    0.542752     0.440949     0.672023
    0.476035     0.616384     0.637990
    0.441313     0.685079     0.485866
    0.694523     0.605781     0.494970
    0.329440     0.407707     0.553662
    0.568657     0.700461     0.524125
    0.453406     0.330265     0.612125
    0.288125     0.464098     0.423772
    0.737309     0.449829     0.423289
    0.289929     0.455802     0.492602
    0.284596     0.580207     0.448979
    0.735943     0.511992     0.437506
    0.263897     0.526597     0.415686
    0.472070     0.557668     0.348672
    0.552933     0.360233     0.501081
    0.473508     0.475000     0.329472
    0.549719     0.370029     0.409741
    0.663684     0.492233     0.391195
    0.362104     0.421421     0.454404
    0.429222     0.565599     0.654252
    0.689478     0.567247     0.549874
    0.458441     0.434234     0.673190
    0.589355     0.489784     0.664992
    0.560419     0.623786     0.633581
    0.331515     0.461157     0.586939
    0.613936     0.694386     0.477629
    0.343916     0.588477     0.510583
    0.484261     0.694101     0.527737
    0.537865     0.335272     0.608007
    0.679051     0.425487     0.536595
    0.414243     0.518284     0.376738
    0.610674     0.396108     0.467693
    0.340797     0.434588     0.488759
    0.334471     0.592754     0.457978
    0.685179     0.517116     0.415517
    0.339036     0.442054     0.424695
    0.686446     0.459230     0.402268
    0.447392     0.453390     0.467214
    0.578384     0.496263     0.430709
    0.491050     0.508961     0.392529
    0.534084     0.414365     0.465454
    0.511016     0.397945     0.332338
    0.507093     0.623431     0.384704
EA74   20.430 20.017 20.499 90.00 90.00 90.00 Sym.group:    0
1.0000
   20.430140     0.000000     0.000000
    0.000000    20.016691     0.000000
    0.000000     0.000000    20.498842
   O  Cu
  24   24 
Direct
    0.489946     0.332451     0.434949
    0.693238     0.458875     0.557499
    0.410989     0.456419     0.360908
    0.610649     0.626969     0.388424
    0.596208     0.347442     0.586585
    0.689610     0.591807     0.523871
    0.571859     0.443325     0.343995
    0.510718     0.564247     0.328107
    0.618512     0.356935     0.455858
    0.671790     0.506046     0.404312
    0.612371     0.605446     0.641888
    0.297114     0.547046     0.542268
    0.325601     0.396258     0.536602
    0.419261     0.651361     0.600195
    0.404539     0.655057     0.412304
    0.477717     0.341935     0.588568
    0.322024     0.556617     0.456878
    0.525753     0.589486     0.660204
    0.351124     0.402579     0.451090
    0.554854     0.435447     0.654416
    0.450584     0.401738     0.609504
    0.416094     0.584308     0.616365
    0.407831     0.590733     0.386832
    0.642369     0.443449     0.493699
    0.654205     0.448359     0.630103
    0.450913     0.321935     0.507554
    0.705387     0.508100     0.521044
    0.660976     0.630045     0.563279
    0.398840     0.407193     0.397363
    0.642912     0.455798     0.382644
    0.635241     0.357957     0.513980
    0.395212     0.540126     0.363735
    0.539597     0.614495     0.349775
    0.538696     0.335431     0.604325
    0.547458     0.344461     0.417209
    0.656013     0.589753     0.407139
    0.526496     0.480540     0.325280
    0.553141     0.703765     0.467569
    0.454798     0.719293     0.505722
    0.389466     0.380204     0.588502
    0.351238     0.582557     0.596106
    0.319166     0.600233     0.517656
    0.564896     0.644571     0.629040
    0.365116     0.357005     0.508516
    0.327806     0.472863     0.597011
    0.514050     0.648821     0.625060
    0.343272     0.620444     0.478114
    0.394350     0.350074     0.467954
EA119  22.254 21.739 22.902 90.00 90.00 90.00 Sym.group:    0
1.0000
   22.253810     0.000000     0.000000
    0.000000    21.739398     0.000000
    0.000000     0.000000    22.901911
   O  Cu
  24   24 
Direct
    0.395962     0.581160     0.323169
    0.393907     0.682643     0.545502
    0.370905     0.309002     0.459491
    0.297146     0.589008     0.482524
    0.297058     0.398953     0.492555
    0.396256     0.391187     0.332585
    0.428042     0.460255     0.687745
    0.546296     0.370817     0.644119
    0.396512     0.674671     0.394967
    0.532714     0.618615     0.650230
    0.286529     0.526208     0.580475
    0.357230     0.393668     0.622169
    0.685428     0.488217     0.639693
    0.564393     0.724397     0.534468
    0.486391     0.616077     0.282524
    0.556006     0.428087     0.571529
    0.510807     0.260639     0.445935
    0.709277     0.445656     0.389021
    0.568724     0.536203     0.288327
    0.590280     0.545566     0.419618
    0.705289     0.595401     0.498175
    0.579415     0.567914     0.549245
    0.666840     0.342077     0.527123
    0.569636     0.405272     0.442311
    0.344759     0.356429     0.419607
    0.342469     0.457123     0.641617
    0.323722     0.352752     0.532990
    0.348782     0.623965     0.396227
    0.479709     0.687377     0.590983
    0.277201     0.501062     0.520108
    0.427076     0.704741     0.491048
    0.477753     0.282811     0.435874
    0.307598     0.614626     0.542204
    0.442505     0.396684     0.668351
    0.512737     0.531248     0.688633
    0.571135     0.594755     0.312944
    0.690625     0.361796     0.427427
    0.519436     0.312007     0.399770
    0.548162     0.674219     0.579474
    0.601892     0.594490     0.487870
    0.699259     0.572851     0.600559
    0.479571     0.545176     0.290700
    0.569297     0.375163     0.507050
    0.575419     0.496398     0.595875
    0.663691     0.381772     0.607995
    0.595593     0.473270     0.398997
    0.710286     0.555416     0.417579
    0.600280     0.602172     0.642617
EA70   20.908 20.749 20.613 90.00 90.00 90.00 Sym.group:    0
1.0000
   20.907891     0.000000     0.000000
    0.000000    20.748696     0.000000
    0.000000     0.000000    20.613033
   O  Cu
  24   24 
Direct
    0.664120     0.585641     0.447420
    0.610721     0.563930     0.454778
    0.614167     0.450627     0.347706
    0.411706     0.539510     0.320620
    0.553070     0.673398     0.548912
    0.386185     0.632560     0.404663
    0.354960     0.631170     0.480463
    0.584604     0.673071     0.473230
    0.402345     0.458396     0.324414
    0.623342     0.531827     0.345659
    0.355884     0.367974     0.416494
    0.529597     0.316705     0.573838
    0.338457     0.619312     0.552171
    0.392700     0.357158     0.593204
    0.335572     0.526116     0.615755
    0.564698     0.545941     0.677940
    0.435976     0.305311     0.463782
    0.673004     0.544730     0.581475
    0.665109     0.432515     0.581060
    0.609318     0.329491     0.495565
    0.429187     0.430130     0.670716
    0.456385     0.572398     0.679114
    0.684619     0.438235     0.436207
    0.616545     0.486328     0.543638
    0.477066     0.534835     0.444892
    0.524293     0.466763     0.453521
    0.592364     0.488660     0.379911
    0.425840     0.505062     0.360401
    0.552510     0.633971     0.511156
    0.399452     0.601274     0.447298
    0.313159     0.565879     0.457026
    0.645777     0.630568     0.504106
    0.338893     0.472046     0.372276
    0.675103     0.523643     0.407532
    0.456566     0.725661     0.471772
    0.520819     0.491382     0.260173
    0.306438     0.566099     0.537201
    0.480151     0.514830     0.694544
    0.367591     0.579329     0.630725
    0.385017     0.327990     0.495048
    0.692302     0.467403     0.534364
    0.614144     0.347816     0.557233
    0.406843     0.345295     0.385227
    0.373402     0.434485     0.640315
    0.524771     0.298380     0.512170
    0.448485     0.352803     0.623605
    0.540932     0.603508     0.662509
    0.645810     0.509842     0.628172
EA95   22.834 22.751 22.226 90.00 90.00 90.00 Sym.group:    0
1.0000
   22.833840     0.000000     0.000000
    0.000000    22.751420     0.000000
    0.000000     0.000000    22.226227
   O  Cu
  24   24 
Direct
    0.382732     0.604428     0.374888
    0.658906     0.624146     0.376086
    0.600499     0.627144     0.631763
    0.408859     0.607405     0.599808
    0.497024     0.665501     0.624173
    0.513772     0.397760     0.661769
    0.408907     0.355919     0.432966
    0.534484     0.544966     0.365451
    0.458844     0.370673     0.325841
    0.271057     0.455406     0.352788
    0.693732     0.380039     0.456389
    0.366736     0.388377     0.512813
    0.588904     0.323821     0.607762
    0.479859     0.654771     0.370335
    0.462216     0.545446     0.763136
    0.616012     0.454207     0.547921
    0.390924     0.278754     0.605759
    0.739391     0.542844     0.527704
    0.595899     0.597117     0.506657
    0.616183     0.456989     0.311147
    0.561077     0.400990     0.420806
    0.426242     0.452619     0.665535
    0.348831     0.723170     0.524254
    0.352289     0.547516     0.453459
    0.598245     0.388119     0.631247
    0.408236     0.390122     0.592219
    0.380480     0.380319     0.374368
    0.658279     0.378291     0.368505
    0.484380     0.344314     0.384300
    0.459695     0.614049     0.325931
    0.582557     0.673399     0.592430
    0.462667     0.449522     0.750336
    0.514621     0.617519     0.661865
    0.625522     0.538170     0.554770
    0.372541     0.608975     0.518100
    0.699539     0.622576     0.461670
    0.402551     0.646877     0.417650
    0.501542     0.335424     0.638144
    0.534936     0.460125     0.352649
    0.280568     0.552202     0.359634
    0.566698     0.609413     0.425383
    0.352779     0.460709     0.452199
    0.353637     0.287697     0.514872
    0.430005     0.541485     0.662486
    0.396579     0.710871     0.610277
    0.619945     0.548879     0.308098
    0.600741     0.392044     0.497214
    0.739879     0.448892     0.526445
EA12   20.420 19.308 18.961 90.00 90.00 90.00 Sym.group:    0
1.0000
   20.420416     0.000000     0.000000
    0.000000    19.308045     0.000000
    0.000000     0.000000    18.961355
   O  Cu
  24   24 
Direct
    0.431678     0.516347     0.684604
    0.431678     0.648828     0.393282
    0.431678     0.334825     0.422113
    0.568322     0.516347     0.684604
    0.568322     0.648828     0.393282
    0.568322     0.334825     0.422113
    0.359799     0.426986     0.574172
    0.359799     0.599589     0.527302
    0.359799     0.473425     0.398526
    0.640201     0.426986     0.574172
    0.640201     0.599589     0.527302
    0.640201     0.473425     0.398526
    0.430205     0.570756     0.357867
    0.430205     0.343741     0.508669
    0.430205     0.585502     0.633463
    0.569795     0.570756     0.357867
    0.569795     0.343741     0.508669
    0.569795     0.585502     0.633463
    0.582723     0.622814     0.527973
    0.582723     0.462384     0.377709
    0.582723     0.414803     0.594318
    0.417277     0.622814     0.527973
    0.417277     0.462384     0.377709
    0.417277     0.414803     0.594318
    0.690506     0.500000     0.500000
    0.309494     0.500000     0.500000
    0.591686     0.451721     0.646529
    0.591686     0.648758     0.469311
    0.591686     0.399520     0.384161
    0.408314     0.451721     0.646529
    0.408314     0.648758     0.469311
    0.408314     0.399520     0.384161
    0.389793     0.609834     0.399054
    0.389793     0.359231     0.453615
    0.389793     0.530935     0.647331
    0.610207     0.609834     0.399054
    0.610207     0.359231     0.453615
    0.610207     0.530935     0.647331
    0.500000     0.360292     0.370786
    0.500000     0.459961     0.687809
    0.500000     0.679747     0.441404
    0.377495     0.559002     0.609482
    0.377495     0.563611     0.393228
    0.377495     0.377388     0.497291
    0.622505     0.559002     0.609482
    0.622505     0.563611     0.393228
    0.622505     0.377388     0.497291
    0.500000     0.500000     0.500000
EA131  20.682 20.627 20.515 90.00 90.00 90.00 Sym.group:    0
1.0000
   20.681947     0.000000     0.000000
    0.000000    20.626752     0.000000
    0.000000     0.000000    20.515082
   O  Cu
  24   24 
Direct
    0.585648     0.504392     0.397496
    0.475925     0.609760     0.321564
    0.349211     0.408873     0.357303
    0.525187     0.540923     0.295340
    0.261118     0.533008     0.515939
    0.448784     0.682857     0.608013
    0.314605     0.637718     0.543912
    0.621065     0.656991     0.529469
    0.480397     0.718038     0.496338
    0.568581     0.662914     0.380545
    0.592721     0.579015     0.500108
    0.588076     0.610420     0.624204
    0.363017     0.450389     0.644436
    0.450831     0.366881     0.346411
    0.506725     0.448804     0.688151
    0.511691     0.298653     0.482441
    0.354912     0.347892     0.481723
    0.673931     0.573092     0.504466
    0.628448     0.483402     0.636188
    0.668882     0.409637     0.492948
    0.422103     0.338475     0.598513
    0.593793     0.359701     0.391580
    0.586780     0.348588     0.583809
    0.657177     0.511808     0.384087
    0.459446     0.452054     0.450877
    0.465071     0.542207     0.456679
    0.494558     0.562190     0.352041
    0.361671     0.448818     0.398375
    0.281083     0.427700     0.454260
    0.592206     0.579125     0.335412
    0.380610     0.517154     0.265893
    0.301536     0.586970     0.589474
    0.638213     0.641028     0.464451
    0.524143     0.704288     0.549054
    0.274187     0.583756     0.470377
    0.405038     0.696607     0.555297
    0.427981     0.602082     0.680534
    0.636346     0.542756     0.620767
    0.411287     0.382724     0.641000
    0.458455     0.516469     0.691587
    0.565060     0.437457     0.669140
    0.641313     0.392604     0.415057
    0.539261     0.315686     0.560332
    0.684746     0.528842     0.461978
    0.650169     0.394533     0.550857
    0.394533     0.321441     0.520621
    0.530405     0.313757     0.424532
    0.653070     0.427522     0.616422
EA116  20.217 21.573 20.120 90.00 90.00 90.00 Sym.group:    0
1.0000
   20.216524     0.000000     0.000000
    0.000000    21.573456     0.000000
    0.000000     0.000000    20.120005
   O  Cu
  24   24 
Direct
    0.266299     0.525615     0.460515
    0.447053     0.476265     0.305473
    0.644724     0.614802     0.429894
    0.463968     0.664152     0.584935
    0.559892     0.671571     0.473603
    0.327539     0.398168     0.366831
    0.326754     0.533802     0.365992
    0.644848     0.490775     0.368373
    0.523499     0.566785     0.329630
    0.363148     0.638587     0.509964
    0.692149     0.499554     0.449456
    0.698709     0.550822     0.522545
    0.572848     0.577481     0.654723
    0.388295     0.475510     0.664021
    0.674190     0.486495     0.589070
    0.434780     0.609326     0.640495
    0.526364     0.443664     0.678250
    0.582963     0.336860     0.568621
    0.302366     0.400516     0.539916
    0.442258     0.331541     0.606008
    0.747330     0.424756     0.497499
    0.298651     0.537285     0.557390
    0.769857     0.462728     0.445582
    0.449909     0.589382     0.372007
    0.289791     0.483083     0.385210
    0.583384     0.629040     0.398299
    0.621232     0.657334     0.505198
    0.682472     0.529886     0.411514
    0.363808     0.626982     0.572325
    0.547214     0.513435     0.318084
    0.303262     0.576333     0.441296
    0.423337     0.529615     0.317022
    0.463309     0.675758     0.522573
    0.388219     0.395537     0.336064
    0.623018     0.404512     0.401240
    0.576342     0.605957     0.590380
    0.573373     0.492423     0.671417
    0.299178     0.452226     0.574085
    0.525287     0.617597     0.644113
    0.387770     0.560568     0.647328
    0.435856     0.435394     0.674634
    0.397885     0.319947     0.561227
    0.677378     0.434787     0.554900
    0.532766     0.339812     0.609624
    0.693295     0.414968     0.509383
    0.518216     0.358013     0.450640
    0.399649     0.320653     0.459479
    0.545569     0.319698     0.463174
EA98   20.420 19.403 18.982 90.00 90.00 90.00 Sym.group:    0
1.0000
   20.420421     0.000000     0.000000
    0.000000    19.403401     0.000000
    0.000000     0.000000    18.982004
   O  Cu
  24   24 
Direct
    0.566691     0.465428     0.682897
    0.567176     0.362658     0.378338
    0.571099     0.672071     0.439640
    0.433309     0.465428     0.682897
    0.432824     0.362658     0.378338
    0.428901     0.672071     0.439640
    0.642458     0.563239     0.581538
    0.638406     0.397239     0.515878
    0.639738     0.535868     0.401757
    0.357542     0.563239     0.581538
    0.361594     0.397239     0.515878
    0.360262     0.535868     0.401757
    0.566794     0.444971     0.349364
    0.575688     0.657428     0.524723
    0.566902     0.402633     0.625121
    0.433206     0.444971     0.349364
    0.424312     0.657428     0.524723
    0.433098     0.402633     0.625121
    0.420511     0.377811     0.516800
    0.417726     0.549909     0.381928
    0.413595     0.578127     0.601714
    0.579489     0.377811     0.516800
    0.582274     0.549909     0.381928
    0.586405     0.578127     0.601714
    0.309494     0.497301     0.500102
    0.690506     0.497301     0.500102
    0.407087     0.532848     0.651042
    0.409930     0.355349     0.453680
    0.407925     0.611307     0.395229
    0.592913     0.532848     0.651042
    0.590070     0.355349     0.453680
    0.592075     0.611307     0.395229
    0.608605     0.401064     0.388191
    0.613170     0.643536     0.469138
    0.608845     0.453721     0.643313
    0.391395     0.401064     0.388191
    0.386830     0.643536     0.469138
    0.391155     0.453721     0.643313
    0.500000     0.652562     0.381708
    0.500000     0.523003     0.693967
    0.500000     0.323230     0.423146
    0.621161     0.429574     0.602344
    0.620871     0.447427     0.387372
    0.625483     0.620629     0.510663
    0.378839     0.429574     0.602344
    0.379129     0.447427     0.387372
    0.374517     0.620629     0.510663
    0.500000     0.500930     0.499637
EA137  20.755 20.421 20.587 90.00 90.00 90.00 Sym.group:    0
1.0000
   20.754558     0.000000     0.000000
    0.000000    20.420527     0.000000
    0.000000     0.000000    20.586928
   O  Cu
  24   24 
Direct
    0.567058     0.575412     0.680890
    0.546861     0.366928     0.627792
    0.369884     0.489021     0.657545
    0.361586     0.527432     0.571406
    0.539023     0.373366     0.533536
    0.587663     0.598073     0.590956
    0.376687     0.461676     0.451405
    0.543518     0.518005     0.611219
    0.446100     0.516343     0.610104
    0.496749     0.435700     0.589982
    0.334797     0.624779     0.466528
    0.366688     0.359375     0.554762
    0.394476     0.581695     0.374093
    0.632673     0.660134     0.485324
    0.583428     0.591242     0.360143
    0.661922     0.388916     0.497032
    0.685845     0.516239     0.603037
    0.361815     0.434941     0.406148
    0.488262     0.674982     0.408689
    0.489641     0.497956     0.325547
    0.502078     0.348451     0.400551
    0.693148     0.537191     0.470415
    0.552928     0.311780     0.520130
    0.611070     0.425587     0.377452
    0.314297     0.581519     0.562773
    0.344969     0.396947     0.456773
    0.463624     0.707619     0.536525
    0.328974     0.577441     0.473471
    0.484071     0.668479     0.615100
    0.349077     0.403556     0.546851
    0.597329     0.407225     0.618859
    0.377367     0.433636     0.624003
    0.510020     0.604256     0.668283
    0.352122     0.466552     0.493385
    0.343496     0.516811     0.527664
    0.431486     0.513674     0.338590
    0.669683     0.592113     0.449819
    0.413959     0.637049     0.398149
    0.546416     0.659263     0.395646
    0.563944     0.535889     0.336087
    0.509981     0.311348     0.475479
    0.654018     0.426020     0.422104
    0.385280     0.380020     0.426743
    0.536767     0.387654     0.366912
    0.701052     0.500087     0.545343
    0.617465     0.676285     0.543018
    0.627232     0.349713     0.530670
    0.683475     0.451625     0.473067
EA87   21.505 20.531 23.356 90.00 90.00 90.00 Sym.group:    0
1.0000
   21.505092     0.000000     0.000000
    0.000000    20.531352     0.000000
    0.000000     0.000000    23.355908
   O  Cu
  24   24 
Direct
    0.449500     0.709912     0.364886
    0.731064     0.543329     0.375493
    0.550500     0.290088     0.364886
    0.268936     0.456671     0.375493
    0.448282     0.351687     0.331068
    0.449507     0.290108     0.635103
    0.448280     0.648310     0.668942
    0.590663     0.598155     0.453644
    0.550493     0.709892     0.635103
    0.409328     0.598171     0.546350
    0.731039     0.456676     0.624500
    0.268961     0.543324     0.624500
    0.551720     0.351690     0.668942
    0.551718     0.648313     0.331068
    0.409337     0.401845     0.453644
    0.590672     0.401829     0.546350
    0.407766     0.445968     0.582463
    0.718297     0.365398     0.461930
    0.592229     0.445972     0.417549
    0.718292     0.634614     0.538069
    0.592234     0.554032     0.582463
    0.281708     0.365386     0.538069
    0.407771     0.554028     0.417549
    0.281703     0.634602     0.461930
    0.548722     0.306257     0.622205
    0.271682     0.438752     0.622881
    0.451278     0.693743     0.622205
    0.728318     0.561248     0.622881
    0.546201     0.635411     0.656628
    0.548717     0.693762     0.377790
    0.546202     0.364591     0.343381
    0.395263     0.384974     0.535676
    0.451283     0.306238     0.377790
    0.604746     0.384975     0.464317
    0.271663     0.561245     0.377110
    0.728337     0.438755     0.377110
    0.453798     0.635409     0.343381
    0.453799     0.364589     0.656628
    0.604737     0.615026     0.535676
    0.395254     0.615025     0.464317
    0.604640     0.539202     0.404315
    0.280663     0.636284     0.552742
    0.395358     0.539198     0.595703
    0.280660     0.363711     0.447257
    0.395360     0.460798     0.404315
    0.719340     0.636289     0.447257
    0.604642     0.460802     0.595703
    0.719337     0.363716     0.552742
EA73   20.065 20.557 20.100 90.00 90.00 90.00 Sym.group:    0
1.0000
   20.064982     0.000000     0.000000
    0.000000    20.557207     0.000000
    0.000000     0.000000    20.099903
   O  Cu
  24   24 
Direct
    0.297100     0.566797     0.505349
    0.457612     0.565824     0.319613
    0.643531     0.641988     0.466786
    0.483018     0.642961     0.652521
    0.568743     0.687591     0.539157
    0.347530     0.471648     0.361830
    0.350847     0.608041     0.412208
    0.638973     0.541846     0.361927
    0.530235     0.641764     0.367802
    0.423604     0.388425     0.345998
    0.389354     0.653868     0.583564
    0.335148     0.528706     0.643267
    0.661281     0.463363     0.499605
    0.561621     0.341845     0.542936
    0.398119     0.369514     0.556508
    0.438480     0.301956     0.521378
    0.683546     0.515420     0.436451
    0.628573     0.337424     0.488463
    0.447132     0.324117     0.609003
    0.692198     0.537581     0.524075
    0.637223     0.359585     0.576088
    0.439266     0.421531     0.685259
    0.644046     0.513037     0.636299
    0.572041     0.408975     0.671726
    0.316013     0.552181     0.415489
    0.587655     0.672975     0.449297
    0.624618     0.656604     0.556646
    0.675048     0.561456     0.413127
    0.390595     0.617618     0.638045
    0.550036     0.591167     0.334090
    0.331934     0.622656     0.502068
    0.368968     0.383161     0.382992
    0.299073     0.509097     0.592067
    0.437811     0.616420     0.353326
    0.481779     0.679212     0.598038
    0.402166     0.476912     0.324836
    0.412282     0.352410     0.411950
    0.617061     0.443916     0.362991
    0.545055     0.339854     0.398418
    0.522794     0.436203     0.665644
    0.437961     0.474006     0.666746
    0.583596     0.574650     0.622916
    0.595610     0.486526     0.643729
    0.496797     0.369611     0.402337
    0.569613     0.419934     0.380423
    0.430746     0.462005     0.528969
    0.560300     0.448324     0.516127
    0.493266     0.419296     0.531919
EA60   20.586 19.818 20.667 90.00 90.00 90.00 Sym.group:    0
1.0000
   20.586338     0.000000     0.000000
    0.000000    19.817807     0.000000
    0.000000     0.000000    20.666969
   O  Cu
  24   24 
Direct
    0.312036     0.424458     0.512542
    0.482634     0.414617     0.678797
    0.646031     0.360145     0.510326
    0.475434     0.369986     0.344070
    0.568536     0.316115     0.441107
    0.372636     0.511553     0.658994
    0.372736     0.374542     0.593178
    0.612169     0.422583     0.345700
    0.650544     0.453580     0.624703
    0.547992     0.344146     0.616383
    0.393279     0.346512     0.417902
    0.334259     0.480556     0.379990
    0.663294     0.545250     0.496486
    0.554815     0.671390     0.477318
    0.392480     0.641069     0.477363
    0.432841     0.706295     0.513799
    0.306927     0.556181     0.530433
    0.693714     0.485312     0.549092
    0.626235     0.670861     0.523129
    0.434118     0.694658     0.427333
    0.627512     0.659224     0.436663
    0.423455     0.604914     0.345579
    0.635460     0.511042     0.363021
    0.555963     0.619176     0.346918
    0.338555     0.431380     0.599869
    0.595053     0.323037     0.528435
    0.619514     0.353223     0.422998
    0.680112     0.440318     0.569449
    0.388666     0.390088     0.369340
    0.569403     0.394515     0.653528
    0.346217     0.367620     0.505851
    0.304692     0.493817     0.435244
    0.461223     0.364247     0.641651
    0.556576     0.429050     0.315246
    0.480048     0.326410     0.392633
    0.428228     0.505085     0.689448
    0.419471     0.641213     0.615272
    0.631476     0.547339     0.632716
    0.551979     0.655474     0.616612
    0.508880     0.589644     0.354673
    0.426266     0.549409     0.357948
    0.585490     0.537679     0.363342
    0.505041     0.624613     0.614498
    0.422429     0.584379     0.617773
    0.581652     0.572649     0.623167
    0.431623     0.544688     0.490949
    0.560821     0.560099     0.492057
    0.491485     0.589859     0.486475
EA134  22.181 22.085 20.282 90.00 90.00 90.00 Sym.group:    0
1.0000
   22.180910     0.000000     0.000000
    0.000000    22.084957     0.000000
    0.000000     0.000000    20.282267
   O  Cu
  24   24 
Direct
    0.694989     0.441065     0.554776
    0.654191     0.492566     0.305522
    0.578352     0.645527     0.606893
    0.413120     0.322237     0.567223
    0.644337     0.367503     0.395009
    0.488740     0.294428     0.481936
    0.539676     0.368318     0.642264
    0.411297     0.439094     0.656733
    0.729424     0.482291     0.443821
    0.643684     0.606614     0.317053
    0.671586     0.579668     0.586153
    0.598165     0.464166     0.671696
    0.283576     0.593953     0.482989
    0.470519     0.738611     0.540078
    0.322671     0.353194     0.486411
    0.403816     0.516591     0.497226
    0.509823     0.607547     0.466221
    0.408923     0.460927     0.451510
    0.421394     0.562414     0.503607
    0.462497     0.600587     0.470957
    0.438671     0.422064     0.440394
    0.337257     0.540548     0.448226
    0.510733     0.669354     0.539753
    0.362023     0.420283     0.511864
    0.480417     0.315181     0.575061
    0.421952     0.302447     0.473064
    0.703315     0.420882     0.461487
    0.625962     0.565213     0.635775
    0.719818     0.502779     0.537707
    0.560424     0.318311     0.403099
    0.623514     0.417982     0.633832
    0.691258     0.526778     0.347533
    0.513410     0.414718     0.678844
    0.623837     0.659901     0.557136
    0.628730     0.390343     0.330488
    0.358184     0.595102     0.455822
    0.397440     0.374015     0.498629
    0.454388     0.661067     0.545392
    0.399056     0.442425     0.503212
    0.509446     0.625148     0.523507
    0.380315     0.530186     0.448863
    0.466740     0.618866     0.527781
    0.425900     0.407356     0.493181
    0.396176     0.571534     0.454621
    0.340744     0.479107     0.480935
    0.562104     0.659129     0.486545
    0.400695     0.635390     0.502697
    0.316710     0.576590     0.376474
EA128  20.947 21.288 21.851 90.00 90.00 90.00 Sym.group:    0
1.0000
   20.947306     0.000000     0.000000
    0.000000    21.287942     0.000000
    0.000000     0.000000    21.850626
   O  Cu
  24   24 
Direct
    0.674236     0.443021     0.376204
    0.573500     0.413121     0.665096
    0.586336     0.387513     0.571352
    0.666809     0.460058     0.472022
    0.516555     0.454281     0.595029
    0.600577     0.492166     0.408043
    0.513118     0.438995     0.403870
    0.583050     0.305717     0.445916
    0.672701     0.628879     0.429513
    0.696597     0.520079     0.605833
    0.430375     0.513828     0.345531
    0.314727     0.445595     0.538318
    0.509066     0.526559     0.635924
    0.317518     0.499267     0.633688
    0.356526     0.299570     0.633774
    0.413347     0.707035     0.516025
    0.352321     0.390803     0.477002
    0.367595     0.607033     0.374284
    0.483933     0.607860     0.454684
    0.275538     0.430570     0.371055
    0.593588     0.705730     0.488841
    0.434639     0.629265     0.661654
    0.392296     0.580066     0.555055
    0.461090     0.417986     0.356645
    0.590394     0.313709     0.556972
    0.637151     0.666502     0.529923
    0.730032     0.487674     0.506266
    0.616703     0.337062     0.468637
    0.626974     0.649492     0.437499
    0.684654     0.475273     0.589125
    0.596589     0.610795     0.362396
    0.630787     0.389985     0.393234
    0.613968     0.463766     0.647184
    0.662644     0.435101     0.517051
    0.622414     0.387317     0.535923
    0.435593     0.598735     0.367847
    0.381699     0.422282     0.407131
    0.317772     0.418468     0.595525
    0.383607     0.682057     0.593132
    0.311879     0.524130     0.576241
    0.485833     0.445295     0.281125
    0.363475     0.518951     0.352598
    0.426509     0.547904     0.628243
    0.403639     0.366390     0.546236
    0.254748     0.401649     0.453198
    0.521401     0.611729     0.684608
    0.410497     0.612573     0.485470
    0.504997     0.728161     0.469076
EA127  22.099 21.820 22.601 90.00 90.00 90.00 Sym.group:    0
1.0000
   22.098896     0.000000     0.000000
    0.000000    21.820367     0.000000
    0.000000     0.000000    22.601045
   O  Cu
  24   24 
Direct
    0.317583     0.397783     0.527299
    0.375343     0.575933     0.426524
    0.372767     0.658058     0.492894
    0.547482     0.338114     0.447799
    0.535065     0.287276     0.545236
    0.385100     0.265727     0.418108
    0.518547     0.393760     0.383367
    0.319298     0.458889     0.613529
    0.485994     0.690657     0.360817
    0.640187     0.422415     0.321373
    0.525375     0.560993     0.361960
    0.236005     0.547601     0.454979
    0.367622     0.416638     0.447818
    0.580242     0.299291     0.563943
    0.711918     0.530271     0.584151
    0.657536     0.586695     0.337525
    0.733010     0.537526     0.466633
    0.502886     0.708422     0.571201
    0.419065     0.482021     0.682900
    0.428469     0.635582     0.636658
    0.557046     0.562222     0.691570
    0.611316     0.453647     0.678513
    0.679031     0.374464     0.565663
    0.550164     0.719462     0.424777
    0.553093     0.470744     0.371292
    0.501753     0.293984     0.465255
    0.334233     0.398968     0.611716
    0.428565     0.671389     0.472424
    0.339926     0.500980     0.444473
    0.300710     0.457137     0.530210
    0.310874     0.319078     0.447528
    0.439353     0.376233     0.425337
    0.596261     0.343659     0.345535
    0.452958     0.600979     0.390379
    0.286435     0.625704     0.440069
    0.496408     0.646176     0.650064
    0.726532     0.475280     0.545496
    0.573647     0.721708     0.489508
    0.718398     0.592517     0.505288
    0.641158     0.516986     0.665844
    0.634575     0.366117     0.616987
    0.434947     0.697828     0.557795
    0.624697     0.307639     0.512618
    0.634276     0.674225     0.399052
    0.695631     0.533950     0.363602
    0.380968     0.534767     0.656825
    0.527203     0.498884     0.704239
    0.310348     0.471619     0.383230
EA118  20.084 19.706 20.836 90.00 90.00 90.00 Sym.group:    0
1.0000
   20.084456     0.000000     0.000000
    0.000000    19.706376     0.000000
    0.000000     0.000000    20.836430
   O  Cu
  24   24 
Direct
    0.341891     0.550730     0.388901
    0.640201     0.459802     0.391543
    0.499715     0.344763     0.402159
    0.561992     0.587981     0.374311
    0.463178     0.484696     0.339929
    0.440705     0.654015     0.423283
    0.699396     0.554900     0.472309
    0.583293     0.678388     0.503235
    0.352841     0.389711     0.400445
    0.720248     0.385138     0.490954
    0.731246     0.445672     0.490574
    0.487772     0.366013     0.467030
    0.342643     0.619110     0.586082
    0.550984     0.654867     0.623484
    0.440331     0.335633     0.607203
    0.314872     0.558894     0.591325
    0.425950     0.383766     0.647090
    0.593135     0.666948     0.578356
    0.557604     0.315921     0.551257
    0.532065     0.537270     0.685773
    0.293612     0.429712     0.461793
    0.507434     0.483866     0.690424
    0.280858     0.472402     0.497168
    0.606377     0.600893     0.399820
    0.375500     0.624741     0.418981
    0.673809     0.533813     0.421624
    0.371979     0.502673     0.361773
    0.528383     0.513971     0.344230
    0.531904     0.636038     0.401438
    0.638968     0.651418     0.526793
    0.492093     0.696364     0.525080
    0.444040     0.371734     0.378601
    0.630672     0.403556     0.410799
    0.564517     0.377100     0.483854
    0.683055     0.457504     0.525421
    0.672813     0.401138     0.525773
    0.519838     0.385652     0.594113
    0.333540     0.548637     0.504751
    0.605851     0.572147     0.577872
    0.508657     0.423082     0.625127
    0.429065     0.483325     0.644778
    0.338503     0.467002     0.565001
    0.477904     0.589220     0.635558
    0.473772     0.333674     0.520769
    0.424848     0.654216     0.548699
    0.363791     0.382354     0.494858
    0.386134     0.561670     0.357464
    0.562020     0.467876     0.542196
EA149  24.387 22.838 22.838 90.00 90.00 90.00 Sym.group:    0
1.0000
   24.386945     0.000000     0.000000
    0.000000    22.838235     0.000000
    0.000000     0.000000    22.838235
   O  Cu
  24   24 
Direct
    0.426950     0.589825     0.476562
    0.571204     0.602309     0.465104
    0.580945     0.273190     0.508971
    0.259130     0.426687     0.440789
    0.472171     0.665014     0.564236
    0.580945     0.726810     0.491029
    0.547485     0.652975     0.406059
    0.419058     0.476562     0.410175
    0.426950     0.410175     0.523438
    0.419058     0.523438     0.589825
    0.259130     0.573313     0.559211
    0.571204     0.397691     0.534896
    0.472171     0.334986     0.435764
    0.547485     0.347025     0.593941
    0.573048     0.491029     0.273190
    0.573048     0.508971     0.726810
    0.428845     0.559211     0.426687
    0.452522     0.564236     0.334986
    0.428845     0.440789     0.573313
    0.527822     0.593941     0.652975
    0.740820     0.465104     0.397691
    0.452522     0.435764     0.665014
    0.740820     0.534896     0.602309
    0.527822     0.406059     0.347025
    0.586289     0.358502     0.545521
    0.376266     0.405779     0.534540
    0.432294     0.677273     0.517480
    0.688279     0.578658     0.553106
    0.546596     0.313021     0.443167
    0.432294     0.322727     0.482520
    0.471297     0.366576     0.581441
    0.567703     0.545521     0.641498
    0.586289     0.641498     0.454479
    0.567703     0.454479     0.358502
    0.688279     0.421342     0.446894
    0.376266     0.594221     0.465460
    0.546596     0.686979     0.556833
    0.471297     0.633424     0.418559
    0.413714     0.482520     0.677273
    0.413714     0.517480     0.322727
    0.623745     0.446894     0.578658
    0.528711     0.443167     0.686979
    0.623745     0.553106     0.421342
    0.453397     0.418559     0.366576
    0.311709     0.534540     0.594221
    0.528711     0.556833     0.313021
    0.311709     0.465460     0.405779
    0.453397     0.581441     0.633424
EA54   22.713 29.681 15.653 90.00 90.00 90.00 Sym.group:    0
1.0000
   22.713064     0.000000     0.000000
    0.000000    29.681409     0.000000
    0.000000     0.000000    15.653220
   O  Cu
  24   24 
Direct
    0.928135     0.562262     0.494968
    0.670465     0.579082     0.500454
    0.815858     0.451167     0.484056
    0.474874     0.405480     0.510387
    0.583566     0.506148     0.541408
    0.781691     0.510851     0.521441
    0.554139     0.571297     0.514404
    0.677602     0.439887     0.446839
    0.682363     0.537409     0.556912
    0.458804     0.431607     0.535346
    0.543731     0.405618     0.496097
    0.343882     0.352236     0.461026
    0.149116     0.559688     0.439309
    0.432758     0.665596     0.463325
    0.348277     0.348752     0.534808
    0.153512     0.556204     0.513091
    0.437153     0.662112     0.537107
    0.281107     0.459775     0.562396
    0.331255     0.593361     0.564499
    0.272418     0.466663     0.416529
    0.322566     0.600248     0.418632
    0.426442     0.456411     0.534024
    0.405422     0.519518     0.530920
    0.393054     0.570971     0.529669
    0.514875     0.507062     0.523000
    0.681093     0.607475     0.520176
    0.923252     0.530799     0.507847
    0.508953     0.449934     0.532180
    0.553247     0.435778     0.484527
    0.624853     0.537077     0.510886
    0.724240     0.523408     0.460203
    0.772821     0.445397     0.464811
    0.866376     0.539028     0.468564
    0.641214     0.407834     0.478498
    0.783267     0.477652     0.446965
    0.529876     0.545779     0.537454
    0.422759     0.459331     0.472195
    0.401738     0.522437     0.469092
    0.468219     0.601240     0.504432
    0.387705     0.400875     0.500792
    0.272490     0.538152     0.487673
    0.253089     0.583358     0.563563
    0.297763     0.413581     0.570824
    0.243675     0.590820     0.405539
    0.288350     0.421043     0.412800
    0.654643     0.379120     0.525658
    0.311882     0.439516     0.516206
    0.405427     0.430962     0.528466
EA123  23.587 23.462 22.794 90.00 90.00 90.00 Sym.group:    0
1.0000
   23.586514     0.000000     0.000000
    0.000000    23.461881     0.000000
    0.000000     0.000000    22.794163
   O  Cu
  24   24 
Direct
    0.519119     0.541588     0.659348
    0.338247     0.473836     0.519088
    0.526947     0.333162     0.448762
    0.600647     0.353541     0.363714
    0.679437     0.299799     0.549089
    0.494365     0.345138     0.536483
    0.320776     0.458833     0.402450
    0.347221     0.564489     0.680288
    0.362892     0.302462     0.516917
    0.389082     0.457742     0.608159
    0.620667     0.435134     0.591154
    0.729587     0.575636     0.561881
    0.573338     0.641035     0.316602
    0.572398     0.605603     0.474442
    0.486975     0.687162     0.649083
    0.336994     0.631062     0.421675
    0.702427     0.591668     0.451082
    0.430404     0.534059     0.300464
    0.534586     0.501309     0.390352
    0.486754     0.722519     0.454372
    0.450015     0.601864     0.528063
    0.630936     0.459056     0.554525
    0.303853     0.462205     0.519897
    0.331412     0.353861     0.541725
    0.330570     0.514192     0.439513
    0.421160     0.388268     0.551206
    0.592573     0.320615     0.448728
    0.535097     0.362875     0.364735
    0.311007     0.495379     0.626968
    0.594053     0.503570     0.641392
    0.330407     0.417998     0.484897
    0.717516     0.374600     0.592725
    0.579938     0.374699     0.548389
    0.448712     0.267145     0.498248
    0.432773     0.521430     0.646653
    0.516786     0.613947     0.699511
    0.384497     0.696828     0.465591
    0.438556     0.640306     0.633361
    0.685723     0.627936     0.498154
    0.570677     0.406851     0.344778
    0.467395     0.478092     0.383545
    0.527294     0.571952     0.276219
    0.713190     0.526015     0.516256
    0.510525     0.640299     0.518625
    0.623503     0.499613     0.614199
    0.582373     0.566783     0.413214
    0.559653     0.707407     0.403053
    0.356943     0.550437     0.350425
EA152  24.100 22.436 22.626 90.00 90.00 90.00 Sym.group:    0
1.0000
   24.100423     0.000000     0.000000
    0.000000    22.435868     0.000000
    0.000000     0.000000    22.626112
   O  Cu
  24   24 
Direct
    0.615318     0.555646     0.474284
    0.529072     0.563656     0.368413
    0.469099     0.282308     0.338734
    0.701846     0.353378     0.557634
    0.550941     0.339803     0.454493
    0.331618     0.298346     0.619665
    0.451352     0.628972     0.670931
    0.532384     0.745146     0.376336
    0.454185     0.604952     0.531534
    0.660749     0.678417     0.654558
    0.309578     0.569883     0.452077
    0.532784     0.533731     0.684861
    0.336026     0.438550     0.549462
    0.658135     0.557101     0.333856
    0.530293     0.370554     0.518074
    0.391083     0.474287     0.468927
    0.476561     0.427487     0.646320
    0.341809     0.467273     0.311996
    0.491431     0.456752     0.330088
    0.436845     0.688483     0.455351
    0.307544     0.624671     0.576185
    0.545516     0.352373     0.639889
    0.706407     0.435536     0.449097
    0.639423     0.552709     0.537229
    0.305125     0.364862     0.534758
    0.541662     0.424685     0.713861
    0.502113     0.617297     0.610031
    0.378265     0.631102     0.513505
    0.388598     0.681585     0.626401
    0.583495     0.578051     0.396111
    0.516028     0.383013     0.382758
    0.490615     0.361051     0.598168
    0.508879     0.251701     0.427308
    0.419570     0.446102     0.392302
    0.693782     0.469954     0.515735
    0.451468     0.513975     0.305638
    0.709265     0.541353     0.411723
    0.409257     0.411642     0.595240
    0.482844     0.739704     0.468141
    0.700246     0.645698     0.564860
    0.571269     0.518659     0.285107
    0.585040     0.567283     0.600611
    0.464807     0.527136     0.698446
    0.596075     0.305632     0.579285
    0.624101     0.369316     0.493189
    0.488431     0.641319     0.393528
    0.306642     0.524959     0.511985
    0.282427     0.483906     0.381314
EA49   19.424 20.304 18.087 90.00 90.00 90.00 Sym.group:    0
1.0000
   19.424065     0.000000     0.000000
    0.000000    20.304457     0.000000
    0.000000     0.000000    18.087095
   O  Cu
  24   24 
Direct
    0.624151     0.488857     0.650580
    0.448012     0.608428     0.650580
    0.427837     0.402715     0.650580
    0.389369     0.444962     0.349420
    0.505491     0.619174     0.349420
    0.605141     0.435864     0.349420
    0.606339     0.417694     0.447231
    0.521340     0.629252     0.447231
    0.372321     0.453054     0.447231
    0.433878     0.385450     0.552769
    0.429362     0.612056     0.552769
    0.636761     0.502494     0.552769
    0.444140     0.496137     0.405474
    0.531427     0.455654     0.405474
    0.524432     0.548210     0.405474
    0.553270     0.516540     0.594526
    0.488338     0.447597     0.594526
    0.458392     0.535862     0.594526
    0.600378     0.346550     0.579310
    0.588726     0.659885     0.579310
    0.310896     0.493565     0.579310
    0.467399     0.321688     0.420690
    0.354878     0.616165     0.420690
    0.677723     0.562147     0.420690
    0.305279     0.468807     0.469719
    0.625599     0.354275     0.469719
    0.569122     0.676918     0.469719
    0.692669     0.541235     0.530281
    0.440994     0.319761     0.530281
    0.366336     0.639005     0.530281
    0.625479     0.381785     0.559911
    0.544278     0.663064     0.559911
    0.330242     0.455152     0.559911
    0.430278     0.345290     0.440089
    0.394804     0.635117     0.440089
    0.674917     0.519593     0.440089
    0.508690     0.621510     0.630650
    0.385653     0.446444     0.630650
    0.605656     0.432045     0.630650
    0.444128     0.609440     0.369350
    0.627009     0.491569     0.369350
    0.428862     0.398991     0.369350
    0.405835     0.385002     0.511010
    0.651188     0.479486     0.511010
    0.442977     0.635513     0.511010
    0.632494     0.427379     0.488990
    0.368010     0.426542     0.488990
    0.499496     0.646079     0.488990
EA90   20.163 19.840 18.146 90.00 90.00 90.00 Sym.group:    0
1.0000
   20.163243     0.000000     0.000000
    0.000000    19.839776     0.000000
    0.000000     0.000000    18.146415
   O  Cu
  24   24 
Direct
    0.486846     0.622182     0.651393
    0.607958     0.453278     0.650376
    0.403474     0.431132     0.648487
    0.448045     0.388801     0.350858
    0.623223     0.512201     0.350909
    0.430481     0.604680     0.347963
    0.412743     0.600813     0.445451
    0.629306     0.526231     0.448255
    0.457469     0.372916     0.448505
    0.387763     0.431734     0.551055
    0.614609     0.435343     0.552754
    0.498112     0.633198     0.553980
    0.499598     0.445705     0.407281
    0.455950     0.529670     0.399458
    0.549329     0.526111     0.410610
    0.513248     0.553404     0.598291
    0.446028     0.487422     0.587718
    0.535855     0.461252     0.596640
    0.341933     0.588300     0.576022
    0.651159     0.590984     0.579916
    0.498830     0.317481     0.581217
    0.325513     0.456533     0.418632
    0.627248     0.363920     0.420741
    0.555301     0.675801     0.423479
    0.473627     0.308604     0.472023
    0.348118     0.617752     0.467967
    0.674310     0.573644     0.469463
    0.536308     0.690295     0.532091
    0.321710     0.435733     0.529303
    0.645926     0.374135     0.529152
    0.377018     0.615956     0.558276
    0.658993     0.547882     0.559507
    0.459996     0.333741     0.561364
    0.348462     0.423052     0.439624
    0.642535     0.402529     0.439565
    0.512985     0.671621     0.441670
    0.619320     0.513064     0.630126
    0.450503     0.389050     0.630440
    0.429236     0.599643     0.630101
    0.614009     0.451234     0.369742
    0.485300     0.624934     0.369679
    0.401638     0.424801     0.369909
    0.389078     0.402308     0.510971
    0.473825     0.645185     0.511388
    0.638414     0.449156     0.510567
    0.421592     0.624711     0.488495
    0.431298     0.367320     0.489804
    0.645778     0.504559     0.488783
EA133  20.966 23.279 19.696 90.00 90.00 90.00 Sym.group:    0
1.0000
   20.965548     0.000000     0.000000
    0.000000    23.279099     0.000000
    0.000000     0.000000    19.695646
   O  Cu
  24   24 
Direct
    0.755336     0.497751     0.569803
    0.757721     0.426781     0.426402
    0.760117     0.390254     0.496095
    0.752940     0.534279     0.500109
    0.784390     0.431693     0.549845
    0.524753     0.591488     0.407449
    0.528140     0.515311     0.355215
    0.674877     0.384722     0.451097
    0.521747     0.631567     0.524437
    0.439979     0.671068     0.527827
    0.608727     0.618368     0.517612
    0.590589     0.693732     0.497710
    0.552010     0.565139     0.528882
    0.264911     0.554706     0.444734
    0.334699     0.398735     0.638056
    0.398603     0.652589     0.399626
    0.246447     0.433642     0.493671
    0.412660     0.564352     0.665229
    0.464082     0.452152     0.692378
    0.283278     0.510937     0.610907
    0.334416     0.418526     0.367777
    0.439364     0.429934     0.344067
    0.431695     0.571091     0.335489
    0.328174     0.566868     0.509073
    0.599066     0.526490     0.414618
    0.606078     0.419582     0.618593
    0.701080     0.379793     0.489969
    0.692654     0.553085     0.520576
    0.694884     0.519074     0.585470
    0.698848     0.413806     0.425075
    0.570589     0.428381     0.488446
    0.508800     0.526882     0.436865
    0.489368     0.443274     0.332724
    0.685048     0.669087     0.511982
    0.605957     0.657908     0.525200
    0.566404     0.522459     0.552954
    0.312278     0.562910     0.365633
    0.242322     0.510347     0.488672
    0.273349     0.397854     0.454958
    0.326260     0.555589     0.627832
    0.351236     0.644386     0.478727
    0.421098     0.407500     0.675453
    0.287403     0.434231     0.615906
    0.459955     0.528857     0.687378
    0.388727     0.326859     0.560307
    0.501921     0.309217     0.518434
    0.383828     0.381220     0.383847
    0.443191     0.375522     0.386895
EA122  23.978 24.665 19.880 90.00 90.00 90.00 Sym.group:    0
1.0000
   23.978281     0.000000     0.000000
    0.000000    24.664785     0.000000
    0.000000     0.000000    19.879698
   O  Cu
  24   24 
Direct
    0.657020     0.487608     0.320194
    0.657910     0.667980     0.506646
    0.629722     0.477407     0.649385
    0.695687     0.591217     0.567044
    0.388623     0.635473     0.615042
    0.402600     0.581334     0.381478
    0.690652     0.374748     0.392737
    0.562117     0.613742     0.661952
    0.484416     0.689711     0.459736
    0.587707     0.658202     0.391589
    0.707851     0.569553     0.391645
    0.453343     0.550829     0.695055
    0.678487     0.396411     0.568137
    0.352899     0.577603     0.497749
    0.499384     0.335940     0.530043
    0.416419     0.326518     0.519280
    0.279211     0.421250     0.504605
    0.304478     0.522370     0.488274
    0.580674     0.319770     0.522922
    0.437902     0.476330     0.465391
    0.249298     0.368533     0.492574
    0.251049     0.588005     0.445945
    0.383391     0.509892     0.517024
    0.541473     0.390364     0.539421
    0.397903     0.665501     0.532222
    0.704967     0.621244     0.484225
    0.460638     0.612775     0.671934
    0.648630     0.637952     0.589465
    0.585895     0.690679     0.449753
    0.662607     0.583813     0.355902
    0.681371     0.344720     0.475557
    0.702264     0.473347     0.355938
    0.554822     0.551797     0.685072
    0.684074     0.492617     0.603844
    0.486228     0.657235     0.401571
    0.212698     0.513783     0.466200
    0.633508     0.244797     0.523663
    0.344078     0.459706     0.492513
    0.608736     0.382723     0.522654
    0.483562     0.463083     0.519726
    0.333647     0.390041     0.488788
    0.378316     0.452959     0.512167
    0.567413     0.283287     0.537043
    0.275370     0.550965     0.487831
    0.374251     0.380238     0.463024
    0.524107     0.418652     0.464022
    0.405590     0.512164     0.447247
    0.397013     0.485129     0.345771
EA114  21.232 20.189 25.513 90.00 90.00 90.00 Sym.group:    0
1.0000
   21.231745     0.000000     0.000000
    0.000000    20.189063     0.000000
    0.000000     0.000000    25.513085
   O  Cu
  24   24 
Direct
    0.797380     0.506344     0.542529
    0.634373     0.359511     0.377041
    0.685753     0.643870     0.568227
    0.764651     0.369918     0.503507
    0.609230     0.563588     0.348491
    0.701451     0.636580     0.455586
    0.743047     0.471073     0.404256
    0.667031     0.366478     0.599162
    0.522193     0.677012     0.561116
    0.551392     0.402199     0.609486
    0.619285     0.557191     0.617718
    0.722818     0.538131     0.484179
    0.191597     0.413423     0.482435
    0.296193     0.535517     0.461463
    0.163933     0.432452     0.520876
    0.437492     0.451696     0.464021
    0.340818     0.371036     0.514592
    0.375465     0.544987     0.447628
    0.188214     0.467223     0.468376
    0.239866     0.380846     0.488030
    0.354641     0.597218     0.580708
    0.396976     0.674551     0.445162
    0.333115     0.709439     0.527574
    0.500461     0.588155     0.486904
    0.752563     0.522069     0.603387
    0.801527     0.454133     0.508254
    0.721973     0.334136     0.532821
    0.709781     0.531719     0.386749
    0.730570     0.628146     0.507368
    0.609809     0.668735     0.580034
    0.600898     0.668450     0.417328
    0.706172     0.386858     0.399509
    0.548658     0.287647     0.435915
    0.592561     0.337268     0.581497
    0.520669     0.344850     0.573772
    0.228365     0.474655     0.468657
    0.253434     0.425034     0.496562
    0.395742     0.490263     0.507586
    0.411280     0.339763     0.498049
    0.501595     0.453406     0.495279
    0.308873     0.338422     0.494342
    0.425636     0.386181     0.510719
    0.485893     0.557437     0.515378
    0.398467     0.689631     0.495046
    0.325265     0.523339     0.585328
    0.303857     0.647744     0.584762
    0.498970     0.573075     0.437021
    0.330066     0.678601     0.425570
EA145  25.258 25.258 13.982 90.00 90.00 90.00 Sym.group:    0
1.0000
   25.258021     0.000000     0.000000
    0.000000    25.258021     0.000000
    0.000000     0.000000    13.982358
   O  Cu
  24   24 
Direct
    0.286209     0.603664     0.475609
    0.396336     0.286209     0.475609
    0.713791     0.396336     0.475609
    0.603664     0.713791     0.475609
    0.263986     0.472609     0.475609
    0.472609     0.736014     0.475609
    0.736014     0.527391     0.475609
    0.527391     0.263986     0.475609
    0.650981     0.540788     0.523695
    0.459212     0.650981     0.523695
    0.349019     0.459212     0.523695
    0.540788     0.349019     0.523695
    0.629095     0.411720     0.523695
    0.411720     0.370905     0.523695
    0.370905     0.588280     0.523695
    0.588280     0.629095     0.523695
    0.472187     0.609313     0.543871
    0.390687     0.472187     0.543871
    0.527813     0.390687     0.543871
    0.609313     0.527813     0.543871
    0.437706     0.405967     0.543871
    0.405967     0.562294     0.543871
    0.562294     0.594033     0.543871
    0.594033     0.437706     0.543871
    0.285834     0.387923     0.463243
    0.612077     0.285834     0.463243
    0.714166     0.612077     0.463243
    0.387923     0.714166     0.463243
    0.334753     0.676413     0.463243
    0.676413     0.665247     0.463243
    0.665247     0.323587     0.463243
    0.323587     0.334753     0.463243
    0.600191     0.571139     0.526147
    0.428861     0.600191     0.526147
    0.399809     0.428861     0.526147
    0.571139     0.399809     0.526147
    0.520051     0.750989     0.506575
    0.249011     0.520051     0.506575
    0.479949     0.249011     0.506575
    0.750989     0.479949     0.506575
    0.436190     0.256431     0.506575
    0.256431     0.563810     0.506575
    0.563810     0.743569     0.506575
    0.743569     0.436190     0.506575
    0.593485     0.566378     0.447867
    0.433622     0.593485     0.447867
    0.406515     0.433622     0.447867
    0.566378     0.406515     0.447867
EA159  20.834 22.423 21.785 90.00 90.00 90.00 Sym.group:    0
1.0000
   20.834323     0.000000     0.000000
    0.000000    22.423058     0.000000
    0.000000     0.000000    21.785365
   O  Cu
  24   24 
Direct
    0.636643     0.604681     0.485950
    0.483717     0.567577     0.613262
    0.520598     0.685993     0.426268
    0.540701     0.505875     0.336286
    0.662192     0.480988     0.520470
    0.596892     0.508195     0.428734
    0.641352     0.428707     0.463165
    0.706855     0.551730     0.496808
    0.459104     0.496465     0.317368
    0.601075     0.683222     0.451005
    0.353541     0.426954     0.363915
    0.306019     0.521700     0.571557
    0.615503     0.398287     0.525881
    0.326687     0.394287     0.530034
    0.448015     0.375095     0.451679
    0.600013     0.438663     0.687987
    0.305626     0.492472     0.435793
    0.560543     0.574924     0.628200
    0.446867     0.573315     0.631509
    0.343979     0.615795     0.541300
    0.403796     0.391876     0.609556
    0.557253     0.384879     0.561314
    0.475593     0.667713     0.534931
    0.499275     0.574209     0.563486
    0.431628     0.493880     0.490398
    0.386541     0.603072     0.452153
    0.548758     0.644291     0.438369
    0.497338     0.511889     0.369379
    0.647830     0.515093     0.475324
    0.577409     0.470798     0.474914
    0.595300     0.383993     0.397993
    0.656214     0.571144     0.559084
    0.472087     0.424287     0.350509
    0.569628     0.674767     0.528628
    0.745255     0.385320     0.463058
    0.510910     0.627884     0.304896
    0.618898     0.293791     0.427254
    0.516521     0.410248     0.609245
    0.515997     0.255313     0.545857
    0.309001     0.432507     0.442177
    0.482694     0.627087     0.623790
    0.342264     0.595010     0.601346
    0.332675     0.483729     0.348597
    0.371142     0.326067     0.579164
    0.297891     0.546131     0.515946
    0.325063     0.428720     0.579905
    0.632452     0.429731     0.608866
    0.524664     0.521644     0.636689
EA161  20.254 20.005 19.658 90.00 90.00 90.00 Sym.group:    0
1.0000
   20.254366     0.000000     0.000000
    0.000000    20.005390     0.000000
    0.000000     0.000000    19.657674
   O  Cu
  24   24 
Direct
    0.329860     0.408781     0.468563
    0.495797     0.323565     0.399846
    0.459027     0.631876     0.362241
    0.314160     0.466781     0.454801
    0.427050     0.584903     0.338388
    0.543038     0.312035     0.437166
    0.579374     0.633964     0.384999
    0.482417     0.419203     0.316742
    0.376405     0.366003     0.578639
    0.351650     0.610987     0.552017
    0.468301     0.470534     0.304797
    0.324657     0.568086     0.530237
    0.410101     0.563752     0.638572
    0.688359     0.531590     0.537450
    0.389207     0.436176     0.620715
    0.667707     0.399637     0.524901
    0.547526     0.622346     0.606761
    0.611160     0.624046     0.446494
    0.503594     0.345889     0.581051
    0.633453     0.536560     0.598860
    0.612020     0.402431     0.586363
    0.509781     0.401292     0.610595
    0.623136     0.566334     0.432927
    0.535455     0.564273     0.626455
    0.370543     0.443823     0.542461
    0.523148     0.572623     0.369971
    0.358281     0.488895     0.531787
    0.569993     0.393199     0.411381
    0.498377     0.536187     0.351758
    0.413221     0.497384     0.362734
    0.356133     0.548269     0.454458
    0.439826     0.394989     0.387468
    0.510966     0.642209     0.435443
    0.404938     0.365168     0.496130
    0.412834     0.629873     0.494830
    0.543034     0.680344     0.513526
    0.452790     0.398818     0.625891
    0.637432     0.386467     0.456505
    0.481246     0.580330     0.643820
    0.666107     0.564414     0.473509
    0.659389     0.577130     0.551432
    0.425079     0.609793     0.601417
    0.625578     0.363599     0.530939
    0.689010     0.468598     0.477843
    0.441865     0.491323     0.661798
    0.427473     0.626921     0.556986
    0.623532     0.593258     0.575651
    0.585969     0.355343     0.552681
EA96   21.517 22.390 18.041 90.00 90.00 90.00 Sym.group:    0
1.0000
   21.516576     0.000000     0.000000
    0.000000    22.390286     0.000000
    0.000000     0.000000    18.040723
   O  Cu
  24   24 
Direct
    0.355537     0.426277     0.649851
    0.367032     0.431845     0.353330
    0.629640     0.423339     0.647008
    0.495369     0.347603     0.351401
    0.493776     0.350570     0.647922
    0.644463     0.573723     0.649851
    0.636935     0.416713     0.350488
    0.506224     0.649430     0.647922
    0.632968     0.568155     0.353330
    0.370360     0.576661     0.647008
    0.504631     0.652397     0.351401
    0.363065     0.583287     0.350488
    0.384889     0.344297     0.501723
    0.582763     0.326349     0.498590
    0.697874     0.482052     0.499687
    0.615111     0.655703     0.501723
    0.417237     0.673651     0.498590
    0.302126     0.517948     0.499687
    0.370290     0.377018     0.500790
    0.545974     0.330560     0.498788
    0.675686     0.453541     0.500422
    0.629710     0.622982     0.500790
    0.454026     0.669440     0.498788
    0.324314     0.546459     0.500422
    0.273833     0.517877     0.612469
    0.274881     0.512801     0.387040
    0.598926     0.306697     0.610655
    0.372711     0.321852     0.389591
    0.374001     0.317913     0.615020
    0.726167     0.482123     0.612469
    0.599071     0.302390     0.385226
    0.625999     0.682087     0.615020
    0.725119     0.487199     0.387040
    0.401074     0.693303     0.610655
    0.627289     0.678148     0.389591
    0.400929     0.697610     0.385226
    0.388009     0.458425     0.574044
    0.392109     0.460402     0.422654
    0.590547     0.430254     0.576956
    0.482283     0.387570     0.424696
    0.480928     0.388852     0.576086
    0.611991     0.541575     0.574044
    0.592545     0.427341     0.425565
    0.519072     0.611148     0.576086
    0.607891     0.539598     0.422654
    0.409453     0.569746     0.576956
    0.517717     0.612430     0.424696
    0.407455     0.572659     0.425565
EA51   21.447 22.340 17.989 90.00 90.00 90.00 Sym.group:    0
1.0000
   21.446738     0.000000     0.000000
    0.000000    22.340476     0.000000
    0.000000     0.000000    17.989428
   O  Cu
  24   24 
Direct
    0.561737     0.639252     0.648683
    0.561737     0.639252     0.351317
    0.343510     0.481701     0.648683
    0.405247     0.620953     0.351317
    0.405247     0.620953     0.648683
    0.438263     0.360748     0.648683
    0.343510     0.481701     0.351317
    0.594753     0.379047     0.648683
    0.438263     0.360748     0.351317
    0.656490     0.518299     0.648683
    0.594753     0.379047     0.351317
    0.656490     0.518299     0.351317
    0.487714     0.691060     0.500000
    0.321499     0.585316     0.500000
    0.333785     0.394256     0.500000
    0.512286     0.308940     0.500000
    0.678501     0.414684     0.500000
    0.666215     0.605744     0.500000
    0.520572     0.674381     0.500000
    0.352975     0.604294     0.500000
    0.332401     0.429913     0.500000
    0.479428     0.325619     0.500000
    0.647025     0.395706     0.500000
    0.667599     0.570087     0.500000
    0.686178     0.624582     0.613036
    0.686178     0.624582     0.386964
    0.294524     0.592493     0.613036
    0.480702     0.717075     0.386964
    0.480702     0.717075     0.613036
    0.313822     0.375418     0.613036
    0.294524     0.592493     0.386964
    0.519298     0.282925     0.613036
    0.313822     0.375418     0.386964
    0.705476     0.407507     0.613036
    0.519298     0.282925     0.386964
    0.705476     0.407507     0.386964
    0.559188     0.598173     0.575911
    0.559188     0.598173     0.424089
    0.381843     0.500121     0.575911
    0.441031     0.598294     0.424089
    0.441031     0.598294     0.575911
    0.440812     0.401827     0.575911
    0.381843     0.500121     0.424089
    0.558969     0.401706     0.575911
    0.440812     0.401827     0.424089
    0.618157     0.499879     0.575911
    0.558969     0.401706     0.424089
    0.618157     0.499879     0.424089
EA150  19.384 19.754 19.754 90.00 90.00 90.00 Sym.group:    0
1.0000
   19.383773     0.000000     0.000000
    0.000000    19.754197     0.000000
    0.000000     0.000000    19.754197
   O  Cu
  24   24 
Direct
    0.675234     0.466291     0.562762
    0.669309     0.545810     0.439935
    0.328128     0.563158     0.539281
    0.327358     0.440338     0.459774
    0.382610     0.548437     0.530411
    0.382014     0.453326     0.468843
    0.619989     0.473189     0.548477
    0.615405     0.534765     0.453362
    0.590912     0.406448     0.369001
    0.590418     0.586430     0.631721
    0.411850     0.528590     0.344714
    0.406805     0.471952     0.658088
    0.590812     0.653767     0.526704
    0.590523     0.340388     0.470058
    0.406680     0.369572     0.589251
    0.411981     0.632283     0.409275
    0.387378     0.646978     0.483660
    0.384893     0.354421     0.516215
    0.614742     0.359655     0.542019
    0.612994     0.639906     0.451945
    0.386894     0.455033     0.359967
    0.385374     0.545109     0.640214
    0.612928     0.482230     0.356602
    0.614794     0.514782     0.649164
    0.483383     0.527546     0.456570
    0.482587     0.471390     0.543318
    0.516981     0.455830     0.471829
    0.517044     0.542579     0.527986
    0.579082     0.452486     0.395664
    0.579974     0.544425     0.606363
    0.421656     0.499001     0.385401
    0.419281     0.501382     0.615271
    0.579090     0.613958     0.497402
    0.579972     0.384084     0.499779
    0.419024     0.395192     0.545828
    0.421914     0.605884     0.453888
    0.333177     0.591757     0.474552
    0.330878     0.411215     0.525691
    0.668947     0.407681     0.514418
    0.667004     0.593345     0.487156
    0.332822     0.488007     0.407128
    0.331234     0.515269     0.592787
    0.667003     0.475209     0.409355
    0.668951     0.526346     0.589903
    0.499703     0.711301     0.449099
    0.499164     0.448912     0.290610
    0.500296     0.283946     0.540591
    0.500809     0.540398     0.717964
EA27   19.318 19.754 19.754 90.00 90.00 90.00 Sym.group:    0
1.0000
   19.318095     0.000000     0.000000
    0.000000    19.754196     0.000000
    0.000000     0.000000    19.754196
   O  Cu
  24   24 
Direct
    0.672846     0.486679     0.428068
    0.672846     0.513321     0.571932
    0.327154     0.571932     0.486679
    0.327154     0.428068     0.513321
    0.381910     0.555703     0.489685
    0.381910     0.444297     0.510315
    0.618090     0.489685     0.444297
    0.618090     0.510315     0.555703
    0.590980     0.366705     0.587098
    0.590980     0.633295     0.412902
    0.409020     0.466409     0.655645
    0.409020     0.533591     0.344355
    0.590980     0.655645     0.533591
    0.590980     0.344355     0.466409
    0.409020     0.412902     0.366705
    0.409020     0.587098     0.633295
    0.385747     0.629009     0.570849
    0.385747     0.370991     0.429151
    0.614253     0.387652     0.404916
    0.614253     0.612348     0.595084
    0.385747     0.404916     0.612348
    0.385747     0.595084     0.387652
    0.614253     0.429151     0.629009
    0.614253     0.570849     0.370991
    0.482928     0.509409     0.550806
    0.482928     0.490591     0.449194
    0.517072     0.449194     0.509409
    0.517072     0.550806     0.490591
    0.579802     0.417318     0.579846
    0.579802     0.582682     0.420154
    0.420198     0.455057     0.605791
    0.420198     0.544943     0.394209
    0.579802     0.605791     0.544943
    0.579802     0.394209     0.455057
    0.420198     0.420154     0.417318
    0.420198     0.579846     0.582682
    0.331454     0.573693     0.558073
    0.331454     0.426307     0.441927
    0.668546     0.419389     0.451989
    0.668546     0.580611     0.548011
    0.331454     0.451989     0.580611
    0.331454     0.548011     0.419389
    0.668546     0.441927     0.573693
    0.668546     0.558073     0.426307
    0.500000     0.680068     0.623797
    0.500000     0.376203     0.680068
    0.500000     0.319932     0.376203
    0.500000     0.623797     0.319932
EA76   21.437 26.287 21.810 90.00 90.00 90.00 Sym.group:    0
1.0000
   21.437134     0.000000     0.000000
    0.000000    26.286567     0.000000
    0.000000     0.000000    21.809988
   O  Cu
  24   24 
Direct
    0.220807     0.484035     0.432172
    0.210690     0.539167     0.563047
    0.207369     0.577560     0.499603
    0.224128     0.445641     0.495616
    0.183346     0.539929     0.450204
    0.188574     0.479480     0.550093
    0.485545     0.415667     0.582641
    0.462315     0.640412     0.368567
    0.553955     0.662667     0.499410
    0.476023     0.481943     0.630427
    0.558367     0.611654     0.583704
    0.303204     0.590495     0.541654
    0.493957     0.387298     0.475936
    0.728190     0.580132     0.488104
    0.589573     0.361586     0.473713
    0.776520     0.422644     0.475198
    0.393872     0.387780     0.481151
    0.774216     0.517998     0.491062
    0.598209     0.503246     0.515897
    0.798291     0.368144     0.479064
    0.418544     0.319049     0.499291
    0.849693     0.571176     0.516153
    0.674451     0.524798     0.477672
    0.455643     0.445107     0.471713
    0.397162     0.466658     0.575403
    0.387442     0.579027     0.389719
    0.642092     0.612412     0.513008
    0.273915     0.594421     0.505925
    0.294419     0.437494     0.477631
    0.291327     0.473243     0.418556
    0.277008     0.558671     0.565000
    0.425498     0.566255     0.508738
    0.500583     0.479531     0.556208
    0.539298     0.597666     0.516011
    0.503436     0.691085     0.421679
    0.515472     0.551946     0.651598
    0.883163     0.497106     0.498555
    0.309732     0.330640     0.485221
    0.707972     0.470670     0.489974
    0.568731     0.548942     0.485378
    0.542782     0.500367     0.482565
    0.702582     0.404461     0.489477
    0.666400     0.471343     0.479656
    0.814105     0.540754     0.487471
    0.399530     0.352126     0.474154
    0.649996     0.403172     0.510077
    0.644615     0.529995     0.526183
    0.437259     0.484405     0.449723
