EA97   20.474 20.111 20.325 90.00 90.00 90.00 Sym.group:    0
1.0000
   20.473769     0.000000     0.000000
    0.000000    20.110590     0.000000
    0.000000     0.000000    20.324840
   O  Cu
  24   24 
Direct
    0.638398     0.389613     0.420304
    0.368162     0.623566     0.572686
    0.566000     0.375090     0.369518
    0.423972     0.606596     0.640962
    0.382193     0.543974     0.356488
    0.399817     0.376542     0.611964
    0.352010     0.461705     0.380164
    0.550246     0.677381     0.436079
    0.656088     0.527897     0.608881
    0.613011     0.621973     0.402997
    0.606828     0.470054     0.657396
    0.436626     0.323160     0.549255
    0.452867     0.318103     0.427921
    0.434496     0.472303     0.681389
    0.693811     0.527369     0.432170
    0.425271     0.685153     0.452032
    0.447580     0.349062     0.374748
    0.400452     0.346759     0.413845
    0.374971     0.649982     0.448065
    0.699865     0.548262     0.489849
    0.478041     0.514254     0.693316
    0.413064     0.654100     0.400122
    0.705272     0.487457     0.477957
    0.492118     0.453760     0.690650
    0.338028     0.579756     0.508410
    0.649640     0.407379     0.501245
    0.505529     0.603576     0.656133
    0.504954     0.420698     0.336143
    0.562419     0.400041     0.644844
    0.614852     0.543018     0.373920
    0.639954     0.591540     0.556650
    0.508916     0.315713     0.509555
    0.344411     0.419769     0.451951
    0.362456     0.451624     0.616010
    0.454837     0.582383     0.344883
    0.507257     0.682014     0.507051
    0.616017     0.369302     0.466716
    0.351895     0.570439     0.567080
    0.563530     0.427428     0.350149
    0.467225     0.631607     0.617393
    0.431451     0.525693     0.340021
    0.368242     0.404859     0.576433
    0.336716     0.477187     0.431040
    0.563745     0.668849     0.489038
    0.618608     0.568821     0.609219
    0.578295     0.592330     0.371757
    0.611438     0.427695     0.621520
    0.488426     0.334164     0.564077
