EA9    19.944 19.953 16.517 90.00 90.00 90.00 Sym.group:    0
1.0000
   19.943747     0.000000     0.000000
    0.000000    19.952687     0.000000
    0.000000     0.000000    16.516982
   O  Cu
   8   24 
Direct
    0.438436     0.332698     0.549122
    0.385829     0.636943     0.549122
    0.675735     0.530359     0.549122
    0.614171     0.636943     0.450878
    0.324265     0.530359     0.450878
    0.561564     0.332698     0.450878
    0.438436     0.332698     0.450878
    0.385829     0.636943     0.450878
    0.675735     0.530359     0.450878
    0.614171     0.636943     0.549122
    0.324265     0.530359     0.549122
    0.561564     0.332698     0.549122
    0.500000     0.654454     0.500000
    0.633821     0.422774     0.500000
    0.366179     0.422774     0.500000
    0.550130     0.649160     0.455246
    0.604170     0.382026     0.455246
    0.345701     0.468814     0.455246
    0.395830     0.382026     0.544754
    0.654299     0.468814     0.544754
    0.449870     0.649160     0.544754
    0.550130     0.649160     0.544754
    0.604170     0.382026     0.544754
    0.345701     0.468814     0.544754
    0.395830     0.382026     0.455246
    0.654299     0.468814     0.455246
    0.449870     0.649160     0.455246
    0.500000     0.288400     0.500000
    0.316667     0.605800     0.500000
    0.683333     0.605800     0.500000
    0.500000     0.500000     0.617364
    0.500000     0.500000     0.382636
EA68   20.433 17.202 20.869 90.00 90.00 90.00 Sym.group:    0
1.0000
   20.432606     0.000000     0.000000
    0.000000    17.202236     0.000000
    0.000000     0.000000    20.869339
   O  Cu
   8   24 
Direct
    0.565678     0.499200     0.501290
    0.542877     0.561750     0.502135
    0.532193     0.444448     0.501997
    0.547444     0.665361     0.502388
    0.333395     0.551982     0.525867
    0.342250     0.422477     0.472263
    0.488661     0.296176     0.526082
    0.414326     0.626613     0.505850
    0.604459     0.387385     0.499833
    0.642511     0.545747     0.499380
    0.500775     0.671828     0.503675
    0.623605     0.597612     0.500080
    0.632223     0.432783     0.499247
    0.569136     0.248296     0.500283
    0.725066     0.438710     0.496756
    0.665323     0.697410     0.499314
    0.614182     0.742901     0.500864
    0.731975     0.514562     0.496845
    0.627185     0.278657     0.498823
    0.508430     0.506258     0.545183
    0.365098     0.632857     0.527468
    0.454614     0.709121     0.477939
    0.386058     0.350302     0.472324
    0.501773     0.235815     0.481796
    0.311865     0.648605     0.482701
    0.338562     0.322948     0.514873
    0.288070     0.587900     0.481499
    0.305680     0.377121     0.514827
    0.409421     0.495479     0.500641
    0.467419     0.399925     0.500721
    0.451394     0.602554     0.502761
    0.508352     0.507217     0.464297
EA139  14.332 20.595 22.793 90.00 90.00 90.00 Sym.group:    0
1.0000
   14.331826     0.000000     0.000000
    0.000000    20.594557     0.000000
    0.000000     0.000000    22.793299
   O  Cu
   8   24 
Direct
    0.402131     0.698681     0.512507
    0.716608     0.668074     0.482022
    0.674467     0.520247     0.485898
    0.399468     0.547069     0.515551
    0.625478     0.484407     0.499816
    0.571114     0.353353     0.502764
    0.260963     0.468363     0.521482
    0.373140     0.399152     0.504581
    0.631318     0.640144     0.516436
    0.476590     0.654227     0.479766
    0.175034     0.555147     0.501566
    0.166655     0.499145     0.502861
    0.875360     0.539053     0.492156
    0.209744     0.602908     0.507568
    0.595467     0.586970     0.531612
    0.495665     0.595283     0.467181
    0.725703     0.532352     0.511823
    0.353099     0.567501     0.488874
    0.760269     0.570191     0.510117
    0.330676     0.610811     0.488705
    0.735902     0.438605     0.499149
    0.498522     0.353351     0.503717
    0.698669     0.399165     0.500309
    0.746785     0.314611     0.501120
    0.878047     0.453658     0.497027
    0.536729     0.486188     0.539788
    0.296736     0.400131     0.524163
    0.421707     0.327909     0.480268
    0.212428     0.392238     0.482943
    0.185578     0.443453     0.480931
    0.433798     0.414258     0.501693
    0.536150     0.483356     0.465604
