EA139  14.332 20.595 22.793 90.00 90.00 90.00 Sym.group:    0
1.0000
   14.331826     0.000000     0.000000
    0.000000    20.594557     0.000000
    0.000000     0.000000    22.793299
   O  Cu
   8   24 
Direct
    0.402131     0.698681     0.512507
    0.716608     0.668074     0.482022
    0.674467     0.520247     0.485898
    0.399468     0.547069     0.515551
    0.625478     0.484407     0.499816
    0.571114     0.353353     0.502764
    0.260963     0.468363     0.521482
    0.373140     0.399152     0.504581
    0.631318     0.640144     0.516436
    0.476590     0.654227     0.479766
    0.175034     0.555147     0.501566
    0.166655     0.499145     0.502861
    0.875360     0.539053     0.492156
    0.209744     0.602908     0.507568
    0.595467     0.586970     0.531612
    0.495665     0.595283     0.467181
    0.725703     0.532352     0.511823
    0.353099     0.567501     0.488874
    0.760269     0.570191     0.510117
    0.330676     0.610811     0.488705
    0.735902     0.438605     0.499149
    0.498522     0.353351     0.503717
    0.698669     0.399165     0.500309
    0.746785     0.314611     0.501120
    0.878047     0.453658     0.497027
    0.536729     0.486188     0.539788
    0.296736     0.400131     0.524163
    0.421707     0.327909     0.480268
    0.212428     0.392238     0.482943
    0.185578     0.443453     0.480931
    0.433798     0.414258     0.501693
    0.536150     0.483356     0.465604
EA68   20.433 17.202 20.869 90.00 90.00 90.00 Sym.group:    0
1.0000
   20.432606     0.000000     0.000000
    0.000000    17.202236     0.000000
    0.000000     0.000000    20.869339
   O  Cu
   8   24 
Direct
    0.565678     0.499200     0.501290
    0.542877     0.561750     0.502135
    0.532193     0.444448     0.501997
    0.547444     0.665361     0.502388
    0.333395     0.551982     0.525867
    0.342250     0.422477     0.472263
    0.488661     0.296176     0.526082
    0.414326     0.626613     0.505850
    0.604459     0.387385     0.499833
    0.642511     0.545747     0.499380
    0.500775     0.671828     0.503675
    0.623605     0.597612     0.500080
    0.632223     0.432783     0.499247
    0.569136     0.248296     0.500283
    0.725066     0.438710     0.496756
    0.665323     0.697410     0.499314
    0.614182     0.742901     0.500864
    0.731975     0.514562     0.496845
    0.627185     0.278657     0.498823
    0.508430     0.506258     0.545183
    0.365098     0.632857     0.527468
    0.454614     0.709121     0.477939
    0.386058     0.350302     0.472324
    0.501773     0.235815     0.481796
    0.311865     0.648605     0.482701
    0.338562     0.322948     0.514873
    0.288070     0.587900     0.481499
    0.305680     0.377121     0.514827
    0.409421     0.495479     0.500641
    0.467419     0.399925     0.500721
    0.451394     0.602554     0.502761
    0.508352     0.507217     0.464297
EA121  20.037 20.843 18.882 90.00 90.00 90.00 Sym.group:    0
1.0000
   20.036953     0.000000     0.000000
    0.000000    20.843236     0.000000
    0.000000     0.000000    18.881841
   O  Cu
   8   24 
Direct
    0.485610     0.562542     0.499373
    0.437296     0.529929     0.498966
    0.538359     0.540043     0.499095
    0.348982     0.516343     0.498793
    0.602932     0.362578     0.529491
    0.669971     0.452796     0.470581
    0.355117     0.394287     0.473076
    0.531866     0.333294     0.529606
    0.572362     0.618952     0.500078
    0.431300     0.627866     0.500185
    0.352659     0.470647     0.498224
    0.391239     0.600824     0.499847
    0.528625     0.637607     0.500309
    0.696629     0.609307     0.499962
    0.505454     0.725260     0.501401
    0.298871     0.623383     0.500125
    0.270498     0.566656     0.499418
    0.440103     0.718720     0.501317
    0.659653     0.659493     0.500587
    0.489570     0.507366     0.456330
    0.418098     0.349008     0.470991
    0.678055     0.527357     0.472551
    0.562784     0.290442     0.477218
    0.378411     0.310993     0.521242
    0.731151     0.509811     0.522157
    0.616125     0.312422     0.477131
    0.725084     0.453844     0.520679
    0.331138     0.344979     0.522808
    0.399265     0.471797     0.504927
    0.482647     0.411850     0.502166
    0.576733     0.450620     0.502013
    0.493413     0.508982     0.549352
EA9    19.944 19.953 16.517 90.00 90.00 90.00 Sym.group:    0
1.0000
   19.943747     0.000000     0.000000
    0.000000    19.952687     0.000000
    0.000000     0.000000    16.516982
   O  Cu
   8   24 
Direct
    0.438436     0.332698     0.549122
    0.385829     0.636943     0.549122
    0.675735     0.530359     0.549122
    0.614171     0.636943     0.450878
    0.324265     0.530359     0.450878
    0.561564     0.332698     0.450878
    0.438436     0.332698     0.450878
    0.385829     0.636943     0.450878
    0.675735     0.530359     0.450878
    0.614171     0.636943     0.549122
    0.324265     0.530359     0.549122
    0.561564     0.332698     0.549122
    0.500000     0.654454     0.500000
    0.633821     0.422774     0.500000
    0.366179     0.422774     0.500000
    0.550130     0.649160     0.455246
    0.604170     0.382026     0.455246
    0.345701     0.468814     0.455246
    0.395830     0.382026     0.544754
    0.654299     0.468814     0.544754
    0.449870     0.649160     0.544754
    0.550130     0.649160     0.544754
    0.604170     0.382026     0.544754
    0.345701     0.468814     0.544754
    0.395830     0.382026     0.455246
    0.654299     0.468814     0.455246
    0.449870     0.649160     0.455246
    0.500000     0.288400     0.500000
    0.316667     0.605800     0.500000
    0.683333     0.605800     0.500000
    0.500000     0.500000     0.617364
    0.500000     0.500000     0.382636
EA148  19.959 19.914 16.514 90.00 90.00 90.00 Sym.group:    0
1.0000
   19.959055     0.000000     0.000000
    0.000000    19.914461     0.000000
    0.000000     0.000000    16.514415
   O  Cu
   8   24 
Direct
    0.554169     0.670699     0.548537
    0.620988     0.373276     0.547284
    0.325368     0.458739     0.553098
    0.394868     0.355727     0.453506
    0.672636     0.477418     0.453909
    0.426729     0.666641     0.447732
    0.550705     0.669473     0.450282
    0.622553     0.364057     0.449015
    0.329578     0.460332     0.454845
    0.391307     0.354588     0.551768
    0.681784     0.480382     0.552149
    0.431373     0.660914     0.546005
    0.508325     0.346814     0.497516
    0.361449     0.570067     0.499717
    0.629912     0.584436     0.501746
    0.458788     0.343427     0.454498
    0.389315     0.612985     0.453798
    0.652329     0.539588     0.457493
    0.600352     0.624735     0.545660
    0.346396     0.520746     0.546060
    0.557365     0.358968     0.542244
    0.457261     0.355039     0.544006
    0.387598     0.612396     0.543328
    0.652408     0.538914     0.547007
    0.596630     0.623059     0.456137
    0.341379     0.524740     0.456528
    0.558721     0.350835     0.452724
    0.488528     0.710897     0.496867
    0.688980     0.403872     0.501359
    0.322829     0.383711     0.505967
    0.501039     0.505048     0.611912
    0.498337     0.497475     0.377303
EA129  21.152 22.191 17.390 90.00 90.00 90.00 Sym.group:    0
1.0000
   21.151767     0.000000     0.000000
    0.000000    22.191122     0.000000
    0.000000     0.000000    17.389683
   O  Cu
   8   24 
Direct
    0.590583     0.384917     0.538248
    0.692156     0.587205     0.458953
    0.480789     0.375976     0.469684
    0.651762     0.424666     0.536515
    0.369577     0.661183     0.462681
    0.363470     0.436569     0.471178
    0.348877     0.563700     0.523534
    0.354350     0.493354     0.528123
    0.414137     0.406571     0.466827
    0.697628     0.516859     0.463542
    0.672048     0.378034     0.483013
    0.401151     0.359365     0.526451
    0.749631     0.530310     0.520142
    0.626126     0.348198     0.484314
    0.745524     0.583110     0.516698
    0.451180     0.336400     0.528595
    0.530498     0.447147     0.499614
    0.604252     0.592906     0.491244
    0.611496     0.499773     0.497320
    0.522236     0.539413     0.443706
    0.492728     0.650411     0.518666
    0.466859     0.577016     0.489622
    0.372991     0.606183     0.535095
    0.414831     0.675785     0.517487
    0.336118     0.502179     0.469868
    0.316709     0.644066     0.477051
    0.290619     0.476735     0.525910
    0.311149     0.427489     0.526893
    0.448765     0.461623     0.502122
    0.412553     0.548486     0.500387
    0.754230     0.646364     0.543624
    0.504974     0.318005     0.482891
EA136  19.959 19.263 19.631 90.00 90.00 90.00 Sym.group:    0
1.0000
   19.958816     0.000000     0.000000
    0.000000    19.263376     0.000000
    0.000000     0.000000    19.630750
   O  Cu
   8   24 
Direct
    0.441128     0.472767     0.497584
    0.439131     0.531145     0.496480
    0.489947     0.445105     0.498217
    0.398536     0.609278     0.494914
    0.626540     0.370320     0.542731
    0.538172     0.693158     0.536574
    0.643581     0.614203     0.449692
    0.624734     0.367174     0.455857
    0.446441     0.369276     0.499545
    0.357028     0.475071     0.497348
    0.437357     0.634748     0.494523
    0.355372     0.523477     0.496432
    0.405963     0.392212     0.499021
    0.526647     0.277192     0.501464
    0.322099     0.356077     0.499510
    0.283401     0.582367     0.495157
    0.312386     0.639981     0.494139
    0.289241     0.411713     0.498387
    0.464803     0.275215     0.501361
    0.488143     0.503125     0.457867
    0.645387     0.617348     0.536567
    0.653510     0.490748     0.495938
    0.651248     0.544004     0.455093
    0.644618     0.438406     0.536949
    0.471478     0.675147     0.534253
    0.652893     0.546870     0.534242
    0.642972     0.435541     0.457799
    0.469833     0.672281     0.455103
    0.587115     0.296616     0.501648
    0.617381     0.693288     0.491750
    0.492933     0.507851     0.602138
    0.579983     0.538296     0.491717
EA120  22.735 16.211 23.087 90.00 90.00 90.00 Sym.group:    0
1.0000
   22.735238     0.000000     0.000000
    0.000000    16.210614     0.000000
    0.000000     0.000000    23.087266
   O  Cu
   8   24 
Direct
    0.423883     0.484465     0.484831
    0.352261     0.552044     0.487808
    0.553119     0.713976     0.475481
    0.633404     0.608089     0.522941
    0.455885     0.673948     0.492132
    0.480576     0.404332     0.539017
    0.563879     0.441605     0.472133
    0.685349     0.457456     0.533437
    0.375246     0.608850     0.489936
    0.261637     0.531701     0.487416
    0.480790     0.735420     0.474522
    0.377051     0.684095     0.519538
    0.500807     0.801621     0.522500
    0.702378     0.546530     0.478079
    0.555097     0.785523     0.523221
    0.685539     0.621255     0.482205
    0.545954     0.586967     0.493090
    0.450194     0.615360     0.491819
    0.479836     0.481147     0.522358
    0.344900     0.393852     0.477859
    0.532808     0.252017     0.523996
    0.407041     0.352705     0.488124
    0.579661     0.322701     0.515569
    0.740590     0.373622     0.488510
    0.262772     0.415865     0.520050
    0.489350     0.156097     0.478018
    0.667315     0.440043     0.493883
    0.350494     0.421884     0.517788
    0.512723     0.273012     0.486039
    0.524416     0.352118     0.503905
    0.615604     0.478981     0.507150
    0.409441     0.432719     0.506645
EA14   23.849 20.284 14.113 90.00 90.00 90.00 Sym.group:    0
1.0000
   23.848959     0.000000     0.000000
    0.000000    20.283687     0.000000
    0.000000     0.000000    14.112749
   O  Cu
   8   24 
Direct
    0.397433     0.311580     0.524911
    0.602567     0.311580     0.475089
    0.397433     0.688420     0.524911
    0.602567     0.688420     0.475089
    0.589684     0.540429     0.475789
    0.410316     0.540429     0.524211
    0.589684     0.459571     0.475789
    0.410316     0.459571     0.524211
    0.550591     0.347354     0.529636
    0.449409     0.347354     0.470364
    0.550591     0.652646     0.529636
    0.449409     0.652646     0.470364
    0.265001     0.472322     0.501325
    0.734999     0.472322     0.498675
    0.265001     0.527678     0.501325
    0.734999     0.527678     0.498675
    0.717212     0.422679     0.487094
    0.282788     0.422679     0.512906
    0.717212     0.577321     0.487094
    0.282788     0.577321     0.512906
    0.532732     0.597234     0.552178
    0.467268     0.597234     0.447822
    0.532732     0.402766     0.552178
    0.467268     0.402766     0.447822
    0.621670     0.443490     0.518377
    0.378330     0.443490     0.481623
    0.621670     0.556510     0.518377
    0.378330     0.556510     0.481623
    0.640267     0.596616     0.517095
    0.359733     0.596616     0.482905
    0.640267     0.403384     0.517095
    0.359733     0.403384     0.482905
EA55   19.284 18.677 18.945 90.00 90.00 90.00 Sym.group:    0
1.0000
   19.283886     0.000000     0.000000
    0.000000    18.677264     0.000000
    0.000000     0.000000    18.945451
   O  Cu
   8   24 
Direct
    0.318993     0.512809     0.561267
    0.581451     0.345749     0.549403
    0.664554     0.451929     0.479494
    0.357787     0.401484     0.464939
    0.602456     0.624765     0.421114
    0.479469     0.689958     0.543554
    0.538902     0.467529     0.351490
    0.627217     0.597944     0.599942
    0.581960     0.355558     0.465999
    0.664044     0.442119     0.562898
    0.357278     0.391674     0.548343
    0.465980     0.355749     0.505001
    0.418097     0.375701     0.467430
    0.516062     0.346600     0.543884
    0.655816     0.509664     0.566718
    0.417633     0.366764     0.543418
    0.516526     0.355537     0.467896
    0.296106     0.442266     0.510179
    0.656077     0.368520     0.511882
    0.497475     0.501628     0.623779
    0.339905     0.573015     0.549601
    0.424886     0.609357     0.390002
    0.649781     0.567428     0.498660
    0.417503     0.622991     0.601670
    0.438890     0.502333     0.372893
    0.616113     0.517710     0.403944
    0.402229     0.639535     0.491364
    0.524976     0.574468     0.369162
    0.527034     0.632495     0.620861
    0.502320     0.659264     0.442381
    0.579453     0.654912     0.522415
    0.363027     0.542547     0.448418
EA124  21.553 21.491 17.830 90.00 90.00 90.00 Sym.group:    0
1.0000
   21.552568     0.000000     0.000000
    0.000000    21.490806     0.000000
    0.000000     0.000000    17.829627
   O  Cu
   8   24 
Direct
    0.513896     0.543101     0.506733
    0.325820     0.432610     0.533160
    0.325600     0.537824     0.465315
    0.460808     0.658442     0.531900
    0.401771     0.302113     0.519159
    0.619846     0.320374     0.481225
    0.589864     0.455998     0.479306
    0.580947     0.530742     0.477967
    0.581017     0.597930     0.504689
    0.536652     0.706454     0.501440
    0.595841     0.688744     0.501738
    0.494777     0.490819     0.560087
    0.363686     0.601542     0.464960
    0.469553     0.708264     0.476971
    0.315057     0.618686     0.515076
    0.283761     0.397434     0.478705
    0.286469     0.570861     0.515342
    0.396692     0.487089     0.503108
    0.447115     0.571446     0.502637
    0.560053     0.349335     0.522201
    0.453673     0.339290     0.476998
    0.736013     0.532611     0.495654
    0.742117     0.481441     0.496571
    0.711854     0.576720     0.486001
    0.728908     0.433772     0.488561
    0.534699     0.399193     0.538463
    0.466806     0.391877     0.458902
    0.612465     0.549078     0.510171
    0.624929     0.444604     0.512042
    0.649076     0.409226     0.511733
    0.352292     0.382986     0.485611
    0.237941     0.489392     0.497574
EA116  21.810 15.856 22.064 90.00 90.00 90.00 Sym.group:    0
1.0000
   21.810240     0.000000     0.000000
    0.000000    15.855821     0.000000
    0.000000     0.000000    22.063680
   O  Cu
   8   24 
Direct
    0.335113     0.479676     0.530390
    0.263539     0.489238     0.519333
    0.606142     0.297819     0.527282
    0.468875     0.522246     0.479409
    0.595134     0.759450     0.476110
    0.372906     0.735545     0.522508
    0.591723     0.568925     0.484362
    0.597506     0.465749     0.488187
    0.320318     0.316267     0.500822
    0.347345     0.595111     0.467197
    0.488018     0.345512     0.481940
    0.280842     0.611032     0.538934
    0.237223     0.421413     0.458539
    0.358440     0.345279     0.546056
    0.388974     0.500704     0.497987
    0.528101     0.439026     0.500138
    0.309913     0.433649     0.468888
    0.610654     0.373663     0.468613
    0.280245     0.543564     0.472516
    0.557818     0.289826     0.485578
    0.659547     0.306923     0.516105
    0.496085     0.507635     0.526246
    0.542043     0.710925     0.518258
    0.754931     0.503366     0.494544
    0.738962     0.436742     0.490030
    0.727903     0.634068     0.482715
    0.454138     0.622768     0.469864
    0.526944     0.639518     0.537381
    0.634097     0.452776     0.516186
    0.626014     0.596992     0.510839
    0.643343     0.650580     0.506950
    0.657163     0.404013     0.516091
EA158  18.723 19.040 18.958 90.00 90.00 90.00 Sym.group:    0
1.0000
   18.722533     0.000000     0.000000
    0.000000    19.039632     0.000000
    0.000000     0.000000    18.958149
   O  Cu
   8   24 
Direct
    0.586430     0.455130     0.359194
    0.501911     0.667874     0.541569
    0.508319     0.387310     0.631568
    0.415726     0.545277     0.646373
    0.399201     0.455742     0.364761
    0.651046     0.413408     0.519811
    0.645899     0.585144     0.463212
    0.497069     0.335257     0.457360
    0.347998     0.586032     0.481033
    0.349721     0.412113     0.535839
    0.602635     0.546226     0.631826
    0.492380     0.611414     0.368627
    0.593004     0.381911     0.436907
    0.510172     0.491295     0.668754
    0.333108     0.481319     0.452092
    0.551977     0.642922     0.445008
    0.656551     0.475488     0.434874
    0.510991     0.607453     0.624717
    0.435489     0.348386     0.547965
    0.396671     0.559213     0.382583
    0.594575     0.563487     0.381010
    0.404148     0.623623     0.570611
    0.610432     0.437070     0.607805
    0.402017     0.384045     0.440798
    0.490983     0.510052     0.335409
    0.341972     0.514552     0.565466
    0.605224     0.624822     0.551463
    0.566559     0.353491     0.546548
    0.492982     0.396878     0.371745
    0.409548     0.438818     0.628910
    0.437413     0.646198     0.458387
    0.657850     0.518050     0.547775
EA155  18.829 19.057 18.940 90.00 90.00 90.00 Sym.group:    0
1.0000
   18.828872     0.000000     0.000000
    0.000000    19.057403     0.000000
    0.000000     0.000000    18.940223
   O  Cu
   8   24 
Direct
    0.412891     0.535437     0.354449
    0.630324     0.609233     0.543073
    0.404601     0.433575     0.630525
    0.588135     0.465528     0.647099
    0.531293     0.395338     0.365066
    0.333871     0.557689     0.518162
    0.472753     0.667647     0.463377
    0.371498     0.389486     0.457190
    0.664655     0.441022     0.482419
    0.526184     0.332447     0.536445
    0.469748     0.606039     0.633571
    0.593103     0.566351     0.369121
    0.357115     0.493330     0.430534
    0.484976     0.502717     0.663621
    0.589893     0.365926     0.452912
    0.582332     0.634781     0.447913
    0.380725     0.603539     0.432765
    0.574725     0.573953     0.628896
    0.422123     0.356871     0.548937
    0.616641     0.460751     0.385396
    0.490411     0.611033     0.376821
    0.660255     0.506752     0.571499
    0.383479     0.539684     0.613156
    0.471430     0.349121     0.441747
    0.514849     0.498911     0.331058
    0.610586     0.392127     0.566801
    0.529105     0.656287     0.555171
    0.335195     0.452815     0.543127
    0.424421     0.425629     0.373073
    0.508038     0.395405     0.630434
    0.653524     0.546991     0.458945
    0.411121     0.633583     0.546697
EA23   18.579 18.579 18.579 90.00 90.00 90.00 Sym.group:    0
1.0000
   18.578774     0.000000     0.000000
    0.000000    18.578774     0.000000
    0.000000     0.000000    18.578774
   O  Cu
   8   24 
Direct
    0.539834     0.500000     0.326765
    0.607540     0.406548     0.606297
    0.434305     0.651208     0.566464
    0.460166     0.500000     0.673235
    0.392460     0.406548     0.393703
    0.565695     0.651208     0.433536
    0.672761     0.500000     0.458156
    0.392460     0.593452     0.393703
    0.434305     0.348792     0.566464
    0.327239     0.500000     0.541844
    0.607540     0.593452     0.606297
    0.565695     0.348792     0.433536
    0.499188     0.598778     0.360309
    0.500812     0.598778     0.639691
    0.360309     0.401222     0.500812
    0.639691     0.401222     0.499188
    0.612356     0.561048     0.386331
    0.570753     0.500000     0.655774
    0.360309     0.598778     0.500812
    0.456582     0.340173     0.457084
    0.612356     0.438952     0.386331
    0.500812     0.401222     0.639691
    0.543418     0.659827     0.542916
    0.343414     0.500000     0.431062
    0.499188     0.401222     0.360309
    0.387644     0.438952     0.613669
    0.656586     0.500000     0.568938
    0.456582     0.659827     0.457084
    0.429247     0.500000     0.344226
    0.387644     0.561048     0.613669
    0.543418     0.340173     0.542916
    0.639691     0.598778     0.499188
EA157  18.847 18.473 18.979 90.00 90.00 90.00 Sym.group:    0
1.0000
   18.846519     0.000000     0.000000
    0.000000    18.473248     0.000000
    0.000000     0.000000    18.979383
   O  Cu
   8   24 
Direct
    0.362217     0.475067     0.599192
    0.640129     0.577233     0.573517
    0.469038     0.538455     0.339154
    0.638213     0.527402     0.399258
    0.467385     0.332746     0.545225
    0.360596     0.603544     0.471578
    0.464913     0.618995     0.615550
    0.359466     0.425311     0.427921
    0.639411     0.397926     0.528389
    0.533674     0.377512     0.383497
    0.532606     0.665338     0.454816
    0.532339     0.458084     0.661955
    0.331334     0.498761     0.499534
    0.555966     0.592760     0.376037
    0.556310     0.340268     0.482487
    0.557635     0.558789     0.642721
    0.370072     0.579976     0.574102
    0.625532     0.607059     0.470807
    0.443184     0.440426     0.359534
    0.556560     0.372803     0.595375
    0.444483     0.525516     0.651275
    0.668683     0.505430     0.500373
    0.444023     0.623347     0.406335
    0.443603     0.354608     0.444844
    0.444365     0.407097     0.620897
    0.629200     0.423710     0.426610
    0.556069     0.645395     0.558224
    0.378330     0.527381     0.395598
    0.374472     0.393382     0.529181
    0.554690     0.473606     0.346504
    0.622431     0.476259     0.603529
    0.443070     0.655814     0.515980
EA132  19.030 19.092 19.036 90.00 90.00 90.00 Sym.group:    0
1.0000
   19.030016     0.000000     0.000000
    0.000000    19.091668     0.000000
    0.000000     0.000000    19.035738
   O  Cu
   8   24 
Direct
    0.356639     0.521249     0.393644
    0.426256     0.658292     0.498207
    0.378795     0.363541     0.487074
    0.496393     0.407520     0.350092
    0.438317     0.409073     0.650563
    0.666519     0.548725     0.493513
    0.561574     0.334510     0.508146
    0.652383     0.474276     0.427739
    0.525725     0.589686     0.356972
    0.335446     0.518526     0.578614
    0.475755     0.341515     0.436876
    0.347196     0.580728     0.487405
    0.452336     0.508212     0.338120
    0.328033     0.461725     0.482910
    0.571738     0.489246     0.351885
    0.393013     0.416907     0.390647
    0.586212     0.386221     0.412920
    0.424019     0.609458     0.397920
    0.370614     0.414030     0.586161
    0.564904     0.552952     0.655917
    0.613910     0.385761     0.576407
    0.604467     0.611995     0.566830
    0.507189     0.344043     0.585384
    0.640994     0.496124     0.591043
    0.455391     0.520765     0.669425
    0.656267     0.435274     0.482789
    0.548860     0.439740     0.654451
    0.559798     0.646006     0.443912
    0.507051     0.669021     0.492956
    0.408250     0.606277     0.603669
    0.651301     0.595127     0.451082
    0.494656     0.663477     0.596727
EA75   18.689 18.605 18.705 90.00 90.00 90.00 Sym.group:    0
1.0000
   18.689175     0.000000     0.000000
    0.000000    18.605137     0.000000
    0.000000     0.000000    18.704697
   O  Cu
   8   24 
Direct
    0.369316     0.617700     0.472907
    0.612990     0.532311     0.621206
    0.540025     0.669034     0.520768
    0.336779     0.442797     0.502541
    0.622494     0.377899     0.497337
    0.472165     0.360770     0.595389
    0.419528     0.528940     0.644186
    0.462219     0.349448     0.411784
    0.512168     0.602972     0.352656
    0.662767     0.550199     0.444311
    0.431627     0.574029     0.638879
    0.532301     0.605019     0.607924
    0.592613     0.530001     0.365965
    0.344741     0.513035     0.456461
    0.439407     0.637571     0.551390
    0.487315     0.498336     0.336445
    0.470110     0.648605     0.442275
    0.581981     0.622872     0.431373
    0.361924     0.553785     0.560157
    0.620416     0.595934     0.533750
    0.411604     0.571638     0.383606
    0.596109     0.488831     0.640970
    0.407658     0.359967     0.505180
    0.654020     0.469126     0.551259
    0.390422     0.432435     0.599010
    0.566556     0.378071     0.401540
    0.577069     0.390040     0.595611
    0.478113     0.431656     0.340886
    0.523012     0.333765     0.503079
    0.379908     0.420466     0.404940
    0.647523     0.461729     0.431317
    0.495123     0.451020     0.654899
EA137  18.851 19.375 20.223 90.00 90.00 90.00 Sym.group:    0
1.0000
   18.850744     0.000000     0.000000
    0.000000    19.374628     0.000000
    0.000000     0.000000    20.223029
   O  Cu
   8   24 
Direct
    0.285972     0.492198     0.526368
    0.339763     0.627187     0.450906
    0.503526     0.699472     0.562071
    0.669648     0.463416     0.515091
    0.660201     0.569039     0.454120
    0.467581     0.346308     0.479716
    0.636531     0.400751     0.522238
    0.589001     0.363282     0.536148
    0.292317     0.489925     0.444538
    0.333417     0.629459     0.532736
    0.357018     0.389706     0.485418
    0.322254     0.433207     0.522554
    0.402534     0.665462     0.533327
    0.395161     0.357277     0.523527
    0.328036     0.431136     0.448000
    0.265795     0.569923     0.486817
    0.483068     0.523767     0.593266
    0.458749     0.689477     0.464255
    0.591833     0.633424     0.583230
    0.581421     0.684349     0.484831
    0.544311     0.344511     0.477247
    0.616205     0.633609     0.448349
    0.690232     0.377968     0.474332
    0.539946     0.297719     0.525057
    0.667107     0.651892     0.490573
    0.714911     0.425117     0.469181
    0.700127     0.603422     0.494900
    0.482356     0.299057     0.526925
    0.549579     0.434576     0.499915
    0.592967     0.517692     0.488985
    0.490430     0.518731     0.452196
    0.448003     0.436941     0.503181
EA127  19.091 18.542 18.742 90.00 90.00 90.00 Sym.group:    0
1.0000
   19.091043     0.000000     0.000000
    0.000000    18.541800     0.000000
    0.000000     0.000000    18.741699
   O  Cu
   8   24 
Direct
    0.607106     0.596637     0.404399
    0.399289     0.590591     0.617532
    0.665367     0.502220     0.553037
    0.564156     0.650236     0.577993
    0.536535     0.350619     0.592436
    0.520624     0.496976     0.341656
    0.365899     0.417350     0.571591
    0.632160     0.399830     0.450328
    0.442661     0.651253     0.444260
    0.601167     0.557374     0.618849
    0.378474     0.592075     0.509963
    0.600747     0.443333     0.618529
    0.543020     0.651607     0.470500
    0.644034     0.503878     0.445593
    0.463796     0.649301     0.551751
    0.436621     0.497843     0.658312
    0.627920     0.594792     0.511969
    0.499732     0.591062     0.643436
    0.506662     0.595806     0.378495
    0.356065     0.507804     0.416600
    0.456794     0.352121     0.429797
    0.336092     0.510925     0.521670
    0.543637     0.398386     0.385412
    0.627923     0.396796     0.557321
    0.369699     0.409830     0.464627
    0.550062     0.339296     0.486661
    0.437168     0.562941     0.371463
    0.442562     0.346369     0.535619
    0.617530     0.492406     0.393496
    0.453986     0.408240     0.636537
    0.432167     0.441978     0.371794
    0.340346     0.500127     0.468376
EA131  20.670 19.559 20.133 90.00 90.00 90.00 Sym.group:    0
1.0000
   20.670384     0.000000     0.000000
    0.000000    19.558816     0.000000
    0.000000     0.000000    20.133202
   O  Cu
   8   24 
Direct
    0.391112     0.289049     0.470727
    0.505675     0.490783     0.502069
    0.372065     0.634708     0.529624
    0.312275     0.538619     0.477884
    0.437837     0.666370     0.524162
    0.697441     0.572763     0.525976
    0.695903     0.457844     0.465086
    0.562269     0.327695     0.531133
    0.503314     0.342735     0.511496
    0.454957     0.414989     0.487616
    0.376955     0.355788     0.533572
    0.438658     0.290033     0.515656
    0.308041     0.456705     0.478730
    0.336161     0.292532     0.486696
    0.406187     0.715891     0.478470
    0.356818     0.692126     0.482570
    0.260780     0.535702     0.529944
    0.400520     0.539015     0.499378
    0.394914     0.430567     0.500497
    0.487599     0.580934     0.492147
    0.481685     0.472657     0.451190
    0.656771     0.638119     0.525295
    0.550656     0.690031     0.468620
    0.657918     0.388456     0.468145
    0.711857     0.373159     0.512478
    0.735243     0.610589     0.475965
    0.484782     0.740835     0.517464
    0.740232     0.425301     0.510022
    0.621528     0.511777     0.499972
    0.571314     0.419846     0.503558
    0.567618     0.598271     0.498890
    0.520915     0.506111     0.544969
EA153  19.792 21.245 18.252 90.00 90.00 90.00 Sym.group:    0
1.0000
   19.792221     0.000000     0.000000
    0.000000    21.244572     0.000000
    0.000000     0.000000    18.251758
   O  Cu
   8   24 
Direct
    0.499538     0.584135     0.571844
    0.284043     0.470863     0.415116
    0.360540     0.619230     0.563385
    0.554208     0.644488     0.537522
    0.481093     0.431934     0.501208
    0.643431     0.518229     0.443403
    0.575430     0.452025     0.460517
    0.384642     0.448013     0.475224
    0.425074     0.587515     0.406559
    0.395402     0.552271     0.610515
    0.325714     0.505122     0.384287
    0.682968     0.621311     0.437260
    0.467837     0.645504     0.593015
    0.476695     0.477032     0.341864
    0.588225     0.578023     0.568254
    0.329487     0.580842     0.458932
    0.552480     0.552219     0.419239
    0.309902     0.514784     0.521270
    0.445773     0.644369     0.514017
    0.443073     0.419067     0.575292
    0.639795     0.446554     0.545105
    0.462491     0.397659     0.462510
    0.668702     0.506247     0.405749
    0.689042     0.469550     0.458233
    0.446880     0.372619     0.508689
    0.734394     0.468166     0.494067
    0.468346     0.333933     0.557736
    0.605108     0.357516     0.530576
    0.316289     0.400294     0.487927
    0.538259     0.388352     0.590627
    0.698396     0.531009     0.510617
    0.506742     0.481127     0.649440
EA117  18.797 18.847 19.467 90.00 90.00 90.00 Sym.group:    0
1.0000
   18.796640     0.000000     0.000000
    0.000000    18.847467     0.000000
    0.000000     0.000000    19.466965
   O  Cu
   8   24 
Direct
    0.379922     0.474242     0.395156
    0.421965     0.375244     0.544588
    0.418273     0.647119     0.437092
    0.484016     0.654965     0.612442
    0.574318     0.376620     0.456224
    0.567652     0.456508     0.642554
    0.460499     0.381450     0.598603
    0.628489     0.548139     0.608238
    0.343574     0.547497     0.563969
    0.524485     0.631444     0.397136
    0.353783     0.455941     0.499580
    0.500740     0.679299     0.507416
    0.396731     0.461066     0.614129
    0.483949     0.448713     0.352810
    0.352292     0.565706     0.456180
    0.421783     0.573999     0.641524
    0.432739     0.561240     0.365471
    0.435152     0.383636     0.435694
    0.394320     0.638670     0.543906
    0.635155     0.468251     0.421906
    0.628947     0.635161     0.503586
    0.565503     0.534558     0.650685
    0.630638     0.470089     0.600107
    0.634897     0.419054     0.481071
    0.462907     0.352597     0.531307
    0.574577     0.425816     0.397058
    0.631354     0.606308     0.436290
    0.592836     0.552133     0.307709
    0.447773     0.333643     0.389536
    0.736665     0.536008     0.508035
    0.591603     0.317517     0.589861
    0.292462     0.487366     0.510139
EA58   22.023 19.552 20.119 90.00 90.00 90.00 Sym.group:    0
1.0000
   22.023009     0.000000     0.000000
    0.000000    19.551899     0.000000
    0.000000     0.000000    20.119296
   O  Cu
   8   24 
Direct
    0.645495     0.471233     0.462491
    0.714742     0.485749     0.476707
    0.390247     0.301112     0.470849
    0.508246     0.497220     0.515603
    0.382048     0.638082     0.531912
    0.611406     0.604648     0.477088
    0.321278     0.545190     0.472465
    0.447392     0.668773     0.532971
    0.669024     0.342072     0.508258
    0.622517     0.567285     0.528323
    0.500981     0.352480     0.523843
    0.690892     0.581623     0.445273
    0.741716     0.436731     0.552924
    0.632087     0.359604     0.452469
    0.589328     0.485541     0.497490
    0.456456     0.423612     0.495306
    0.669920     0.439792     0.538060
    0.377682     0.365535     0.534229
    0.692213     0.531023     0.527340
    0.436061     0.301247     0.521397
    0.314463     0.465179     0.472274
    0.552877     0.653968     0.476220
    0.336463     0.304562     0.481857
    0.418758     0.717911     0.483586
    0.265021     0.481833     0.520501
    0.588903     0.691607     0.525813
    0.369710     0.694875     0.482791
    0.270136     0.541888     0.520645
    0.407160     0.544871     0.503012
    0.398137     0.438942     0.502758
    0.493672     0.585505     0.504414
    0.484965     0.480307     0.461128
EA118  18.828 20.426 19.122 90.00 90.00 90.00 Sym.group:    0
1.0000
   18.827636     0.000000     0.000000
    0.000000    20.426076     0.000000
    0.000000     0.000000    19.122299
   O  Cu
   8   24 
Direct
    0.604911     0.550593     0.494137
    0.645365     0.470607     0.470056
    0.519676     0.594799     0.488805
    0.547125     0.349535     0.489350
    0.308641     0.546344     0.470345
    0.439896     0.346885     0.541309
    0.310477     0.478093     0.470418
    0.434078     0.587393     0.386900
    0.645769     0.424921     0.541274
    0.576944     0.589993     0.564480
    0.625449     0.587146     0.459483
    0.632638     0.616249     0.497759
    0.672909     0.332160     0.492667
    0.678273     0.623844     0.531457
    0.745795     0.490022     0.489452
    0.505819     0.682712     0.519328
    0.579744     0.340836     0.536472
    0.666562     0.534708     0.560801
    0.457028     0.601670     0.573385
    0.662283     0.361690     0.440552
    0.373127     0.383156     0.535968
    0.260908     0.483056     0.517270
    0.352274     0.343511     0.483401
    0.259529     0.534284     0.517216
    0.402390     0.316285     0.487410
    0.491768     0.412925     0.515261
    0.403370     0.460946     0.508189
    0.486045     0.507920     0.470236
    0.358165     0.636603     0.566400
    0.545396     0.605084     0.420557
    0.449612     0.641789     0.485744
    0.358034     0.564244     0.473921
EA149  20.954 20.970 15.444 90.00 90.00 90.00 Sym.group:    0
1.0000
   20.953922     0.000000     0.000000
    0.000000    20.969915     0.000000
    0.000000     0.000000    15.444292
   O  Cu
   8   24 
Direct
    0.508809     0.663503     0.539819
    0.348310     0.417826     0.537280
    0.332999     0.518761     0.456414
    0.605627     0.628692     0.474888
    0.480406     0.430034     0.405565
    0.571230     0.473326     0.587137
    0.689596     0.514152     0.525377
    0.523589     0.313410     0.469246
    0.439584     0.650824     0.534204
    0.358186     0.584801     0.456316
    0.441017     0.700851     0.474183
    0.310688     0.591470     0.508227
    0.493062     0.710002     0.478952
    0.317869     0.378812     0.477463
    0.292006     0.541809     0.507908
    0.646982     0.654881     0.535209
    0.532474     0.583709     0.507554
    0.407642     0.479895     0.503722
    0.440744     0.567445     0.502559
    0.497137     0.497130     0.557227
    0.544268     0.443011     0.440727
    0.557517     0.538498     0.553915
    0.476602     0.387436     0.449559
    0.616267     0.469143     0.543394
    0.552071     0.320163     0.512825
    0.683997     0.543971     0.482640
    0.657745     0.385974     0.496109
    0.393616     0.351475     0.494676
    0.548054     0.352914     0.585009
    0.655251     0.542749     0.410378
    0.416838     0.352292     0.565315
    0.659819     0.411040     0.426202
EA119  21.444 18.590 21.798 90.00 90.00 90.00 Sym.group:    0
1.0000
   21.444287     0.000000     0.000000
    0.000000    18.589851     0.000000
    0.000000     0.000000    21.797705
   O  Cu
   8   24 
Direct
    0.500968     0.516510     0.505889
    0.533666     0.680354     0.474851
    0.360810     0.629337     0.533746
    0.573442     0.316431     0.528510
    0.337959     0.522394     0.522639
    0.464150     0.307400     0.474091
    0.343447     0.439848     0.522168
    0.633516     0.364571     0.527821
    0.717309     0.483795     0.487811
    0.561662     0.653847     0.521481
    0.613353     0.712301     0.442281
    0.729660     0.615461     0.535878
    0.677675     0.475716     0.435800
    0.575991     0.559489     0.487133
    0.667377     0.571210     0.522442
    0.639460     0.667273     0.517688
    0.458641     0.685915     0.477594
    0.311865     0.654822     0.489771
    0.469181     0.742638     0.527126
    0.282130     0.602103     0.487984
    0.443302     0.585755     0.500812
    0.398637     0.342285     0.473091
    0.287550     0.447212     0.476622
    0.654294     0.313770     0.484550
    0.387594     0.285179     0.512343
    0.609049     0.277893     0.485388
    0.283632     0.509178     0.477181
    0.436761     0.258982     0.513106
    0.514765     0.390614     0.504694
    0.428045     0.436810     0.503374
    0.594611     0.453857     0.505156
    0.509498     0.497050     0.540982
EA56   19.339 20.858 18.696 90.00 90.00 90.00 Sym.group:    0
1.0000
   19.338713     0.000000     0.000000
    0.000000    20.857973     0.000000
    0.000000     0.000000    18.695815
   O  Cu
   8   24 
Direct
    0.486850     0.335652     0.530894
    0.666200     0.579359     0.526313
    0.678432     0.477684     0.467075
    0.382343     0.372786     0.476909
    0.524843     0.568833     0.420394
    0.422610     0.529500     0.571964
    0.294034     0.490842     0.522540
    0.480005     0.687791     0.475889
    0.562104     0.346729     0.528275
    0.649063     0.412049     0.467628
    0.557890     0.297117     0.479372
    0.703042     0.402489     0.514292
    0.501404     0.288803     0.481337
    0.701164     0.617303     0.476672
    0.725086     0.451755     0.513876
    0.335935     0.348449     0.527066
    0.462445     0.416455     0.503377
    0.600961     0.518019     0.499177
    0.562076     0.431120     0.499910
    0.502635     0.503161     0.545360
    0.454728     0.557706     0.450754
    0.436057     0.463204     0.543026
    0.529348     0.612008     0.457299
    0.374498     0.534353     0.536736
    0.448265     0.682188     0.512455
    0.299834     0.460242     0.486621
    0.332344     0.618408     0.499956
    0.619424     0.646675     0.493165
    0.450614     0.649965     0.571499
    0.332126     0.459771     0.426274
    0.593072     0.647105     0.552088
    0.330567     0.592480     0.441809
EA128  20.202 17.680 20.323 90.00 90.00 90.00 Sym.group:    0
1.0000
   20.202043     0.000000     0.000000
    0.000000    17.679936     0.000000
    0.000000     0.000000    20.323360
   O  Cu
   8   24 
Direct
    0.429815     0.322192     0.529676
    0.680824     0.523024     0.515248
    0.655208     0.400262     0.469261
    0.500614     0.303091     0.531272
    0.533490     0.723564     0.534266
    0.321038     0.453539     0.536474
    0.323675     0.590195     0.452908
    0.321234     0.445333     0.455261
    0.660870     0.604179     0.509131
    0.604363     0.338208     0.473782
    0.479822     0.246648     0.489214
    0.712882     0.610274     0.462568
    0.646796     0.306634     0.522473
    0.426680     0.260985     0.488016
    0.727858     0.549361     0.467159
    0.684961     0.353210     0.519080
    0.439834     0.422889     0.494616
    0.600884     0.479755     0.490742
    0.533568     0.397600     0.496727
    0.507580     0.504078     0.448087
    0.323479     0.598401     0.534122
    0.644292     0.646193     0.536696
    0.419681     0.675135     0.493194
    0.376357     0.638400     0.456285
    0.468388     0.700833     0.530340
    0.372046     0.400761     0.534258
    0.376177     0.645876     0.530277
    0.468567     0.693356     0.456349
    0.372226     0.393285     0.460266
    0.613030     0.724904     0.494401
    0.275798     0.523920     0.494170
    0.497961     0.523915     0.593679
EA60   20.268 20.195 18.101 90.00 90.00 90.00 Sym.group:    0
1.0000
   20.268340     0.000000     0.000000
    0.000000    20.195091     0.000000
    0.000000     0.000000    18.100794
   O  Cu
   8   24 
Direct
    0.454140     0.448816     0.642428
    0.441209     0.668070     0.431058
    0.332442     0.562299     0.558870
    0.357339     0.370791     0.529356
    0.585417     0.558344     0.485178
    0.553106     0.403340     0.459814
    0.610491     0.473243     0.459105
    0.515960     0.614852     0.473791
    0.349347     0.506298     0.398722
    0.417571     0.558978     0.617946
    0.430219     0.588304     0.363332
    0.454930     0.319970     0.482131
    0.357561     0.453298     0.596822
    0.446483     0.463199     0.344051
    0.443887     0.356554     0.586749
    0.349113     0.596528     0.458742
    0.375430     0.394104     0.427545
    0.412350     0.647499     0.532608
    0.315252     0.476506     0.498429
    0.565581     0.601498     0.566883
    0.604176     0.428096     0.543622
    0.608815     0.591329     0.445253
    0.581338     0.378660     0.411606
    0.612693     0.371422     0.453613
    0.618922     0.619001     0.491021
    0.615861     0.332377     0.487705
    0.660188     0.619631     0.533646
    0.702009     0.477277     0.487981
    0.515492     0.703771     0.509053
    0.637465     0.533385     0.567859
    0.534227     0.355014     0.534152
    0.540985     0.527546     0.620929
EA147  21.459 22.132 14.313 90.00 90.00 90.00 Sym.group:    0
1.0000
   21.459243     0.000000     0.000000
    0.000000    22.132238     0.000000
    0.000000     0.000000    14.313090
   O  Cu
   8   24 
Direct
    0.329963     0.468002     0.537083
    0.556543     0.659438     0.541225
    0.613521     0.373040     0.537450
    0.669071     0.461360     0.459359
    0.449663     0.660722     0.460841
    0.381800     0.378079     0.463849
    0.549878     0.338882     0.538604
    0.331394     0.538460     0.537531
    0.618839     0.623027     0.540743
    0.444049     0.341595     0.463004
    0.670395     0.531861     0.460233
    0.385981     0.626709     0.460653
    0.582823     0.300348     0.471951
    0.279707     0.530435     0.469744
    0.637216     0.669262     0.475030
    0.409153     0.303304     0.531569
    0.721103     0.522507     0.526816
    0.369473     0.673853     0.526859
    0.278600     0.477573     0.469352
    0.590452     0.696582     0.475410
    0.630697     0.325791     0.470715
    0.720057     0.469589     0.526073
    0.417256     0.699390     0.527034
    0.362390     0.330626     0.532335
    0.415714     0.454835     0.499523
    0.498171     0.406607     0.498800
    0.501817     0.593287     0.500369
    0.417544     0.548170     0.500298
    0.582455     0.451718     0.498794
    0.584279     0.545058     0.499618
    0.500104     0.499734     0.441121
    0.499892     0.500157     0.558013
EA159  19.971 19.123 20.407 90.00 90.00 90.00 Sym.group:    0
1.0000
   19.971104     0.000000     0.000000
    0.000000    19.122742     0.000000
    0.000000     0.000000    20.407309
   O  Cu
   8   24 
Direct
    0.335453     0.538273     0.552389
    0.576555     0.591596     0.376215
    0.594105     0.409454     0.593075
    0.696967     0.494599     0.447563
    0.273214     0.463604     0.402112
    0.495168     0.547098     0.644548
    0.456821     0.694512     0.537838
    0.426120     0.375056     0.592622
    0.534344     0.433173     0.365306
    0.546081     0.322726     0.489265
    0.638454     0.610703     0.539893
    0.388549     0.562704     0.412837
    0.381441     0.498594     0.608296
    0.660472     0.515068     0.530979
    0.483965     0.358614     0.411054
    0.441816     0.615739     0.441424
    0.440531     0.620787     0.601142
    0.653210     0.588042     0.440993
    0.512487     0.326691     0.570753
    0.421630     0.458325     0.381521
    0.370080     0.634021     0.515194
    0.635159     0.519012     0.343621
    0.616818     0.524493     0.627402
    0.424978     0.358864     0.498967
    0.317397     0.505233     0.444151
    0.591726     0.355776     0.450316
    0.555244     0.666670     0.478624
    0.517858     0.407054     0.624295
    0.331503     0.437380     0.525503
    0.629045     0.408219     0.543889
    0.502249     0.542455     0.414448
    0.550560     0.615467     0.593766
EA96   22.141 22.000 14.314 90.00 90.00 90.00 Sym.group:    0
1.0000
   22.140874     0.000000     0.000000
    0.000000    22.000183     0.000000
    0.000000     0.000000    14.313632
   O  Cu
   8   24 
Direct
    0.466735     0.334288     0.544323
    0.659187     0.554331     0.540898
    0.374275     0.610724     0.536766
    0.462511     0.665400     0.462511
    0.662549     0.450003     0.455215
    0.375517     0.384232     0.460696
    0.340236     0.548592     0.537013
    0.537218     0.335684     0.541472
    0.623053     0.615253     0.540362
    0.339353     0.445137     0.459889
    0.533001     0.666437     0.461481
    0.628139     0.388078     0.457581
    0.299302     0.581525     0.466155
    0.530531     0.285000     0.473530
    0.670100     0.633459     0.473085
    0.303618     0.412965     0.522738
    0.523093     0.715504     0.527575
    0.672656     0.372087     0.519206
    0.477620     0.284242     0.476175
    0.697240     0.587743     0.473449
    0.325016     0.628068     0.466290
    0.470182     0.714721     0.528341
    0.698375     0.418627     0.517210
    0.330752     0.367246     0.523364
    0.454517     0.418033     0.506894
    0.406654     0.498666     0.505831
    0.593294     0.501495     0.502791
    0.547844     0.419451     0.505286
    0.452083     0.580717     0.503371
    0.545410     0.582126     0.501832
    0.500363     0.500618     0.445873
    0.499575     0.499545     0.562799
EA150  19.684 20.536 17.858 90.00 90.00 90.00 Sym.group:    0
1.0000
   19.683670     0.000000     0.000000
    0.000000    20.536434     0.000000
    0.000000     0.000000    17.857502
   O  Cu
   8   24 
Direct
    0.583625     0.369016     0.558920
    0.324473     0.511851     0.554620
    0.394068     0.641063     0.514615
    0.453963     0.335565     0.462567
    0.569774     0.648372     0.450576
    0.705870     0.546548     0.514907
    0.432309     0.569641     0.368963
    0.537152     0.557323     0.633367
    0.354407     0.530557     0.467625
    0.382866     0.610749     0.597906
    0.461049     0.353297     0.559221
    0.362239     0.411106     0.496377
    0.397105     0.372332     0.456988
    0.344296     0.453824     0.542016
    0.447104     0.620701     0.608704
    0.356722     0.348323     0.534239
    0.375817     0.472251     0.463194
    0.526444     0.313657     0.516410
    0.325048     0.589964     0.528973
    0.554186     0.472269     0.466759
    0.644668     0.386434     0.517525
    0.594004     0.493831     0.370158
    0.508085     0.642904     0.544416
    0.731883     0.449096     0.577454
    0.488484     0.482489     0.389657
    0.465672     0.649250     0.426874
    0.665817     0.468982     0.454411
    0.536181     0.579083     0.376392
    0.669730     0.531304     0.628521
    0.633816     0.569099     0.431671
    0.609601     0.601041     0.544774
    0.563545     0.418080     0.441200
EA67   19.395 19.497 19.188 90.00 90.00 90.00 Sym.group:    0
1.0000
   19.394709     0.000000     0.000000
    0.000000    19.497410     0.000000
    0.000000     0.000000    19.188029
   O  Cu
   8   24 
Direct
    0.411124     0.493972     0.342313
    0.692198     0.519485     0.471675
    0.437442     0.344337     0.459918
    0.568572     0.602219     0.349578
    0.458819     0.653758     0.422193
    0.484660     0.665549     0.558455
    0.573192     0.566039     0.648233
    0.335053     0.492276     0.517217
    0.611156     0.360106     0.539869
    0.581764     0.412286     0.356312
    0.500060     0.342909     0.557333
    0.635416     0.512481     0.370994
    0.455050     0.598822     0.356197
    0.657865     0.581402     0.560614
    0.549754     0.344017     0.443075
    0.666482     0.457326     0.565014
    0.468993     0.398064     0.363315
    0.638665     0.615490     0.440704
    0.652610     0.414730     0.447821
    0.413794     0.544532     0.636521
    0.374719     0.428414     0.424409
    0.392123     0.418944     0.586009
    0.537076     0.676984     0.503126
    0.406403     0.642323     0.477522
    0.443823     0.434288     0.639475
    0.593031     0.493207     0.650185
    0.362094     0.529188     0.583053
    0.354881     0.501246     0.422458
    0.329572     0.574263     0.494312
    0.483104     0.619830     0.653095
    0.388487     0.357972     0.500109
    0.542019     0.403540     0.658892
EA161  20.490 20.287 17.553 90.00 90.00 90.00 Sym.group:    0
1.0000
   20.489853     0.000000     0.000000
    0.000000    20.286546     0.000000
    0.000000     0.000000    17.553124
   O  Cu
   8   24 
Direct
    0.482948     0.407838     0.517181
    0.571467     0.420746     0.496726
    0.403317     0.450810     0.507364
    0.418159     0.637582     0.433607
    0.532524     0.504343     0.341811
    0.330267     0.572520     0.578912
    0.433432     0.631760     0.501256
    0.603186     0.603207     0.489193
    0.606406     0.442858     0.578215
    0.432256     0.404992     0.591267
    0.464526     0.372943     0.476538
    0.441908     0.349510     0.516462
    0.700594     0.473226     0.531897
    0.456880     0.307953     0.553336
    0.604663     0.330063     0.517888
    0.321304     0.411599     0.533702
    0.645223     0.540928     0.578446
    0.523903     0.365275     0.592161
    0.361294     0.492334     0.599324
    0.673118     0.467855     0.472350
    0.358909     0.461910     0.406739
    0.489102     0.676745     0.622167
    0.462403     0.424360     0.365455
    0.674522     0.571808     0.530426
    0.393475     0.654038     0.548800
    0.422706     0.537717     0.366202
    0.601134     0.660204     0.589870
    0.524968     0.609958     0.393600
    0.628036     0.541519     0.408573
    0.341198     0.565261     0.461740
    0.589163     0.426718     0.391854
    0.507011     0.681418     0.506937
EA41   18.792 18.133 18.467 90.00 90.00 90.00 Sym.group:    0
1.0000
   18.792499     0.000000     0.000000
    0.000000    18.133118     0.000000
    0.000000     0.000000    18.466647
   O  Cu
   8   24 
Direct
    0.441596     0.627180     0.393033
    0.544178     0.345469     0.425675
    0.595792     0.553715     0.635224
    0.558404     0.372820     0.606967
    0.331929     0.535943     0.508430
    0.604672     0.638164     0.471396
    0.572773     0.509460     0.341888
    0.455822     0.654531     0.574325
    0.395328     0.361836     0.528604
    0.427227     0.490540     0.658112
    0.668071     0.464057     0.491570
    0.404208     0.446285     0.364776
    0.500796     0.660066     0.476651
    0.622856     0.458291     0.589116
    0.368281     0.457424     0.574394
    0.508066     0.424219     0.359839
    0.545381     0.604762     0.388041
    0.603179     0.378903     0.509230
    0.491934     0.575781     0.640161
    0.359506     0.440554     0.462568
    0.468960     0.531613     0.347394
    0.499204     0.339934     0.523349
    0.640494     0.559446     0.537432
    0.391343     0.569007     0.591824
    0.377144     0.541709     0.410884
    0.454619     0.395238     0.611959
    0.608657     0.430993     0.408176
    0.559580     0.632059     0.568980
    0.396821     0.621097     0.490770
    0.531040     0.468387     0.652606
    0.440420     0.367941     0.431020
    0.631719     0.542576     0.425606
EA133  20.098 18.442 19.382 90.00 90.00 90.00 Sym.group:    0
1.0000
   20.097949     0.000000     0.000000
    0.000000    18.441639     0.000000
    0.000000     0.000000    19.382110
   O  Cu
   8   24 
Direct
    0.442652     0.522109     0.519632
    0.652678     0.564634     0.528869
    0.586099     0.642556     0.469654
    0.405563     0.644693     0.539078
    0.499474     0.315381     0.422822
    0.643631     0.399060     0.515355
    0.576657     0.492169     0.368286
    0.510050     0.330535     0.598581
    0.357403     0.518664     0.522995
    0.319212     0.629744     0.517856
    0.287177     0.577056     0.522154
    0.489305     0.496576     0.565081
    0.665831     0.493816     0.534897
    0.516376     0.665145     0.472534
    0.368212     0.675244     0.491484
    0.718206     0.511897     0.481956
    0.539463     0.711401     0.513590
    0.708333     0.565052     0.477431
    0.591796     0.694447     0.511428
    0.565749     0.557865     0.507708
    0.473441     0.587770     0.511521
    0.400853     0.481657     0.358974
    0.558818     0.325609     0.513297
    0.583149     0.390106     0.426369
    0.508391     0.442821     0.650843
    0.351966     0.486428     0.444216
    0.491119     0.418074     0.363816
    0.419577     0.393273     0.591900
    0.409046     0.378185     0.416911
    0.593533     0.404988     0.598961
    0.450282     0.319744     0.508102
    0.315958     0.363301     0.533700
EA100  19.028 18.336 18.455 90.00 90.00 90.00 Sym.group:    0
1.0000
   19.027894     0.000000     0.000000
    0.000000    18.335516     0.000000
    0.000000     0.000000    18.454581
   O  Cu
   8   24 
Direct
    0.579234     0.625823     0.408261
    0.421093     0.375575     0.408785
    0.425179     0.549351     0.647816
    0.421092     0.375208     0.590720
    0.670489     0.496031     0.499993
    0.427834     0.657898     0.500315
    0.425179     0.549947     0.352382
    0.579234     0.625451     0.592239
    0.572978     0.340768     0.499682
    0.575250     0.449318     0.648588
    0.327466     0.504596     0.500009
    0.575250     0.449917     0.351212
    0.533345     0.656789     0.500312
    0.373331     0.472460     0.591918
    0.621309     0.418383     0.556579
    0.470577     0.453809     0.357418
    0.474191     0.625393     0.409917
    0.371143     0.405593     0.499811
    0.531381     0.548182     0.650323
    0.621309     0.418614     0.443097
    0.531381     0.548788     0.349870
    0.468498     0.351193     0.499704
    0.377834     0.581040     0.556879
    0.623515     0.526999     0.591640
    0.623516     0.527368     0.408467
    0.528355     0.369076     0.593586
    0.373331     0.472830     0.407973
    0.474192     0.625027     0.590581
    0.625745     0.594615     0.500188
    0.470578     0.453234     0.642398
    0.528355     0.369455     0.405894
    0.377836     0.581269     0.443444
EA78   20.374 19.970 18.610 90.00 90.00 90.00 Sym.group:    0
1.0000
   20.374456     0.000000     0.000000
    0.000000    19.969825     0.000000
    0.000000     0.000000    18.609963
   O  Cu
   8   24 
Direct
    0.351014     0.568940     0.480696
    0.644174     0.577173     0.449367
    0.422881     0.637350     0.534779
    0.596089     0.626245     0.454522
    0.329952     0.503700     0.482926
    0.564389     0.393476     0.645560
    0.402403     0.337741     0.531926
    0.585174     0.470103     0.360282
    0.492028     0.653519     0.527394
    0.634556     0.652411     0.502215
    0.281432     0.524569     0.539914
    0.476405     0.698110     0.477282
    0.297242     0.573538     0.538240
    0.670648     0.615578     0.498346
    0.424504     0.685974     0.482825
    0.432541     0.556616     0.502850
    0.524087     0.578022     0.493073
    0.404656     0.470243     0.505802
    0.499620     0.492114     0.450154
    0.569345     0.314309     0.474888
    0.415248     0.385100     0.355614
    0.677347     0.475280     0.539478
    0.524641     0.384621     0.391852
    0.611937     0.488848     0.612852
    0.456050     0.410866     0.608569
    0.616483     0.416222     0.456280
    0.512857     0.341176     0.553598
    0.623721     0.532294     0.451106
    0.460597     0.338241     0.451998
    0.517285     0.502133     0.645190
    0.371491     0.406118     0.444178
    0.609201     0.389371     0.556243
EA160  20.838 21.235 15.425 90.00 90.00 90.00 Sym.group:    0
1.0000
   20.837867     0.000000     0.000000
    0.000000    21.234826     0.000000
    0.000000     0.000000    15.424692
   O  Cu
   8   24 
Direct
    0.520490     0.658712     0.495083
    0.349688     0.438058     0.495108
    0.629822     0.403232     0.495114
    0.540841     0.695701     0.492849
    0.306868     0.436856     0.492785
    0.652291     0.367442     0.492792
    0.403815     0.364739     0.438165
    0.667466     0.485888     0.438166
    0.428716     0.649364     0.438155
    0.400478     0.365585     0.559260
    0.668388     0.482632     0.559261
    0.431137     0.651791     0.559248
    0.342578     0.364278     0.495727
    0.698491     0.434078     0.495730
    0.458932     0.701642     0.495704
    0.377175     0.605094     0.560135
    0.468667     0.343071     0.560131
    0.654162     0.551839     0.560128
    0.374892     0.602754     0.444727
    0.471863     0.342309     0.444723
    0.653238     0.554933     0.444721
    0.476233     0.415312     0.533628
    0.586626     0.522147     0.533628
    0.437148     0.562549     0.533623
    0.477933     0.414895     0.470096
    0.586142     0.523800     0.470096
    0.435916     0.561297     0.470091
    0.617056     0.674644     0.509130
    0.287342     0.512154     0.509170
    0.595601     0.313201     0.509138
    0.500002     0.500000     0.411576
    0.500000     0.500002     0.592111
EA138  18.764 20.098 20.707 90.00 90.00 90.00 Sym.group:    0
1.0000
   18.763988     0.000000     0.000000
    0.000000    20.098117     0.000000
    0.000000     0.000000    20.707098
   O  Cu
   8   24 
Direct
    0.347107     0.423967     0.530528
    0.425608     0.354059     0.483547
    0.327877     0.490597     0.529245
    0.627455     0.467008     0.380661
    0.596549     0.574673     0.641715
    0.487511     0.617414     0.393530
    0.696300     0.441843     0.532947
    0.651915     0.624231     0.477529
    0.610741     0.366821     0.555608
    0.357451     0.590215     0.478999
    0.499990     0.337936     0.490623
    0.277312     0.468659     0.478857
    0.654605     0.339992     0.514340
    0.327343     0.629640     0.521712
    0.476983     0.292498     0.533283
    0.291746     0.418647     0.479820
    0.421151     0.304601     0.527972
    0.413194     0.525118     0.510831
    0.438653     0.436903     0.512530
    0.537132     0.415557     0.521899
    0.512330     0.503569     0.560052
    0.468177     0.685095     0.555460
    0.684488     0.512597     0.454092
    0.410829     0.648270     0.477948
    0.655125     0.395682     0.451713
    0.582799     0.659178     0.565294
    0.394681     0.546062     0.414364
    0.541187     0.670157     0.465507
    0.514827     0.505458     0.362212
    0.683468     0.554543     0.558563
    0.604828     0.583167     0.395465
    0.480637     0.615841     0.643153
EA79   16.155 20.130 19.766 90.00 90.00 90.00 Sym.group:    0
1.0000
   16.155022     0.000000     0.000000
    0.000000    20.130009     0.000000
    0.000000     0.000000    19.766018
   O  Cu
   8   24 
Direct
    0.300032     0.569156     0.542065
    0.572682     0.661980     0.467415
    0.275702     0.440365     0.462465
    0.299871     0.568212     0.461530
    0.690726     0.430186     0.501507
    0.743326     0.421884     0.501547
    0.308205     0.528142     0.452580
    0.631033     0.652922     0.450744
    0.572843     0.662924     0.547949
    0.275863     0.441309     0.543000
    0.428243     0.632419     0.504325
    0.375708     0.354518     0.506358
    0.329836     0.389984     0.468055
    0.370876     0.607169     0.539845
    0.490663     0.648341     0.542429
    0.329983     0.390844     0.541428
    0.370729     0.606309     0.466472
    0.231750     0.510314     0.500752
    0.499615     0.482659     0.411772
    0.615028     0.366301     0.454164
    0.611342     0.367455     0.550523
    0.686499     0.356107     0.502391
    0.523455     0.356543     0.548487
    0.685686     0.598998     0.545430
    0.526968     0.355443     0.456652
    0.689199     0.597898     0.453595
    0.604463     0.567305     0.525254
    0.528589     0.428977     0.526979
    0.606396     0.566699     0.474699
    0.530523     0.428372     0.476424
    0.780669     0.493038     0.500662
    0.513498     0.517226     0.572504
EA140  19.053 19.724 18.573 90.00 90.00 90.00 Sym.group:    0
1.0000
   19.053252     0.000000     0.000000
    0.000000    19.724498     0.000000
    0.000000     0.000000    18.573415
   O  Cu
   8   24 
Direct
    0.402206     0.610141     0.393358
    0.570924     0.560945     0.459257
    0.577700     0.409075     0.460730
    0.488130     0.589625     0.441049
    0.313840     0.557927     0.452618
    0.573337     0.556920     0.616440
    0.337716     0.383082     0.507541
    0.386755     0.509650     0.637467
    0.413699     0.527355     0.341366
    0.461451     0.417583     0.342564
    0.536978     0.603231     0.531430
    0.619061     0.456283     0.535992
    0.587965     0.592966     0.414898
    0.614062     0.389773     0.417576
    0.645364     0.397504     0.458315
    0.589305     0.626144     0.454193
    0.656621     0.367310     0.497327
    0.628560     0.643982     0.493991
    0.707232     0.523308     0.471904
    0.464344     0.673456     0.460639
    0.625493     0.563646     0.541429
    0.384134     0.555995     0.625686
    0.472312     0.606321     0.591461
    0.324008     0.446778     0.451264
    0.373386     0.606705     0.529009
    0.325088     0.506910     0.549116
    0.570472     0.513205     0.642372
    0.432753     0.319713     0.523250
    0.390614     0.400960     0.606145
    0.584803     0.404718     0.611330
    0.552768     0.322034     0.526453
    0.388919     0.356752     0.413830
EA70   19.660 19.461 18.695 90.00 90.00 90.00 Sym.group:    0
1.0000
   19.660096     0.000000     0.000000
    0.000000    19.460793     0.000000
    0.000000     0.000000    18.695254
   O  Cu
   8   24 
Direct
    0.397337     0.372909     0.534256
    0.637555     0.392876     0.499293
    0.333067     0.460535     0.473823
    0.465455     0.342204     0.539079
    0.651895     0.597620     0.441339
    0.626950     0.555987     0.627067
    0.359293     0.610522     0.539519
    0.570844     0.456570     0.358393
    0.328007     0.532411     0.477375
    0.574497     0.351705     0.490918
    0.431731     0.300991     0.483876
    0.277614     0.518703     0.521405
    0.613710     0.314964     0.542268
    0.380600     0.324039     0.480256
    0.661041     0.345865     0.548555
    0.281412     0.464753     0.518739
    0.424993     0.455759     0.511981
    0.598662     0.469613     0.529455
    0.515178     0.415107     0.518367
    0.510105     0.509803     0.566816
    0.521150     0.692768     0.553280
    0.486474     0.631325     0.387231
    0.432661     0.638530     0.603636
    0.578538     0.569247     0.377349
    0.665188     0.522778     0.525287
    0.448047     0.664210     0.489073
    0.478701     0.518516     0.368859
    0.613148     0.630572     0.543075
    0.398053     0.577206     0.437909
    0.534697     0.617740     0.637012
    0.643800     0.484878     0.422862
    0.559594     0.659292     0.451644
EA85   18.438 19.502 19.502 90.00 90.00 90.00 Sym.group:    0
1.0000
   18.438112     0.000000     0.000000
    0.000000    19.502033     0.000000
    0.000000     0.000000    19.502033
   O  Cu
   8   24 
Direct
    0.437247     0.636731     0.552583
    0.345424     0.446824     0.528194
    0.544898     0.357388     0.553295
    0.636721     0.547295     0.577684
    0.494722     0.441414     0.646708
    0.562753     0.363269     0.447417
    0.505278     0.558586     0.353292
    0.393571     0.621528     0.490707
    0.455102     0.642612     0.446705
    0.498777     0.657815     0.508581
    0.363279     0.452705     0.422316
    0.654576     0.553176     0.471806
    0.544159     0.457697     0.353549
    0.455841     0.542303     0.646451
    0.606429     0.378472     0.509293
    0.501223     0.342185     0.491419
    0.577322     0.526285     0.362357
    0.373791     0.399320     0.475383
    0.422678     0.473715     0.637643
    0.334911     0.500210     0.475127
    0.472116     0.489998     0.344484
    0.665089     0.499790     0.524873
    0.527884     0.510002     0.655516
    0.626209     0.600680     0.524617
    0.349504     0.584032     0.352153
    0.306929     0.570009     0.604615
    0.442211     0.343468     0.352765
    0.399637     0.329445     0.605227
    0.600363     0.670555     0.394773
    0.557789     0.656532     0.647235
    0.693071     0.429991     0.395385
    0.650496     0.415968     0.647847
EA76   19.237 21.575 18.250 90.00 90.00 90.00 Sym.group:    0
1.0000
   19.237463     0.000000     0.000000
    0.000000    21.575029     0.000000
    0.000000     0.000000    18.249945
   O  Cu
   8   24 
Direct
    0.413548     0.671591     0.483833
    0.620304     0.649554     0.435633
    0.601980     0.512058     0.447249
    0.421353     0.531121     0.493240
    0.633497     0.405421     0.567438
    0.470013     0.493687     0.647421
    0.360667     0.401014     0.368231
    0.719064     0.476278     0.421927
    0.568025     0.619767     0.483573
    0.463285     0.634185     0.440975
    0.270555     0.485233     0.486167
    0.733218     0.531215     0.448131
    0.292737     0.581257     0.487118
    0.548655     0.568876     0.506116
    0.478717     0.580998     0.426303
    0.636447     0.521592     0.478453
    0.388029     0.551791     0.459751
    0.370604     0.591590     0.458712
    0.411995     0.358905     0.534253
    0.301396     0.490964     0.524305
    0.659792     0.566228     0.578001
    0.565917     0.348146     0.394889
    0.531894     0.575733     0.617419
    0.325871     0.402882     0.476120
    0.666794     0.394388     0.458947
    0.604144     0.489464     0.623917
    0.432667     0.345221     0.423870
    0.504100     0.405761     0.606254
    0.370018     0.440298     0.588839
    0.704696     0.482436     0.532877
    0.387196     0.545346     0.595739
    0.542820     0.347000     0.504297
EA11   19.505 19.505 19.505 90.00 90.00 90.00 Sym.group:    0
1.0000
   19.504754     0.000000     0.000000
    0.000000    19.504754     0.000000
    0.000000     0.000000    19.504754
   O  Cu
   8   24 
Direct
    0.554348     0.567820     0.324024
    0.432180     0.554348     0.324024
    0.445652     0.432180     0.324024
    0.567820     0.445652     0.324024
    0.339446     0.604752     0.457924
    0.471412     0.582073     0.675976
    0.686314     0.545142     0.542076
    0.571273     0.666308     0.576045
    0.528588     0.417927     0.675976
    0.511663     0.319440     0.423955
    0.582073     0.528588     0.675976
    0.417927     0.471412     0.675976
    0.313686     0.454858     0.542076
    0.660554     0.395248     0.457924
    0.428727     0.333692     0.576045
    0.488337     0.680560     0.423955
    0.545142     0.313686     0.542076
    0.333692     0.571273     0.576045
    0.604752     0.660554     0.457924
    0.680560     0.511663     0.423955
    0.454858     0.686314     0.542076
    0.319440     0.488337     0.423955
    0.395248     0.339446     0.457924
    0.666308     0.428727     0.576045
    0.597182     0.568679     0.584146
    0.597182     0.568679     0.415854
    0.431321     0.597182     0.584146
    0.431321     0.597182     0.415854
    0.568679     0.402818     0.584146
    0.568679     0.402818     0.415854
    0.402818     0.431321     0.584146
    0.402818     0.431321     0.415854
EA92   20.054 20.020 19.600 90.00 90.00 90.00 Sym.group:    0
1.0000
   20.053995     0.000000     0.000000
    0.000000    20.020437     0.000000
    0.000000     0.000000    19.599883
   O  Cu
   8   24 
Direct
    0.615989     0.370469     0.423273
    0.574963     0.323639     0.528478
    0.466609     0.313541     0.476881
    0.509333     0.356264     0.371366
    0.562781     0.423795     0.665901
    0.522667     0.654727     0.600507
    0.578518     0.608165     0.359601
    0.656723     0.618876     0.513778
    0.389999     0.656574     0.499291
    0.357132     0.409484     0.409501
    0.501398     0.691525     0.488776
    0.409562     0.626344     0.613111
    0.401909     0.469328     0.664766
    0.454992     0.500951     0.310222
    0.312606     0.520936     0.531830
    0.679443     0.451837     0.545725
    0.332004     0.526273     0.411750
    0.505732     0.524228     0.693940
    0.682758     0.523158     0.446719
    0.573796     0.494543     0.319931
    0.652382     0.548180     0.609814
    0.461750     0.369829     0.635998
    0.337807     0.404073     0.529839
    0.458260     0.614062     0.350269
    0.566875     0.620528     0.460649
    0.606783     0.468791     0.411620
    0.552537     0.563859     0.615529
    0.592049     0.412033     0.566833
    0.408244     0.585107     0.431883
    0.448913     0.433397     0.382986
    0.392506     0.533426     0.588711
    0.432981     0.382056     0.540524
EA48   23.956 24.301 14.372 90.00 90.00 90.00 Sym.group:    0
1.0000
   23.956212     0.000000     0.000000
    0.000000    24.301078     0.000000
    0.000000     0.000000    14.371534
   O  Cu
   8   24 
Direct
    0.453046     0.557372     0.445950
    0.541448     0.561357     0.561849
    0.571425     0.480549     0.443420
    0.503921     0.426621     0.562650
    0.429854     0.474100     0.446445
    0.416674     0.338008     0.461996
    0.318442     0.527784     0.551343
    0.470279     0.679164     0.460854
    0.664108     0.582945     0.543958
    0.630308     0.372100     0.457432
    0.387977     0.400717     0.482516
    0.369866     0.574213     0.530339
    0.531160     0.645150     0.479459
    0.649909     0.515494     0.524355
    0.561053     0.364427     0.478817
    0.435681     0.255415     0.532912
    0.243922     0.484954     0.481612
    0.406653     0.735286     0.533538
    0.697869     0.660461     0.471914
    0.716236     0.363883     0.526919
    0.440658     0.343400     0.527683
    0.330389     0.507440     0.484889
    0.455012     0.661198     0.527379
    0.641394     0.592186     0.478244
    0.632870     0.395776     0.523576
    0.578064     0.421198     0.499976
    0.448148     0.402466     0.507144
    0.389887     0.518522     0.503997
    0.483883     0.608981     0.506382
    0.600149     0.548833     0.499505
    0.499555     0.500000     0.442166
    0.500160     0.500000     0.520780
