EA123  19.568 18.231 19.388 90.00 90.00 90.00 Sym.group:    0
1.0000
   19.568242     0.000000     0.000000
    0.000000    18.230885     0.000000
    0.000000     0.000000    19.388463
   O  Cu
   8   24 
Direct
    0.668324     0.513358     0.503342
    0.570959     0.371726     0.454715
    0.477262     0.641714     0.594134
    0.393337     0.490686     0.350967
    0.630627     0.602691     0.505120
    0.331320     0.571946     0.498152
    0.408076     0.460686     0.621871
    0.468084     0.660394     0.425432
    0.645494     0.441649     0.505853
    0.569411     0.312006     0.504216
    0.330627     0.377188     0.486447
    0.695981     0.447521     0.452094
    0.518405     0.295449     0.509048
    0.713117     0.501344     0.450208
    0.364495     0.339919     0.483500
    0.475478     0.424563     0.492530
    0.595668     0.548703     0.480681
    0.565443     0.453767     0.484006
    0.415714     0.645710     0.508522
    0.394172     0.567108     0.582129
    0.478190     0.565147     0.359099
    0.493178     0.534639     0.634604
    0.339529     0.475379     0.433043
    0.568238     0.605879     0.419771
    0.577377     0.587280     0.587735
    0.385160     0.585452     0.416465
    0.530041     0.656950     0.511119
    0.345189     0.463862     0.537060
    0.606330     0.381966     0.563616
    0.415040     0.362486     0.557443
    0.507514     0.526574     0.445919
    0.522218     0.586259     0.641157
