EA1
 1.0000000000000000
     7.9092126225107364    0.0000000000000000    0.0000000000000000
     0.0000000000000000    7.9092126225107355    0.0000000000000000
     0.0000000000000000    0.0000000000000000   17.9092126225107364
 O   Cu 
  17  40
Direct
  0.7945886700000000  0.5196729700000000  0.1186403700000000
  0.0449544800000000  0.0878711400000000  0.2014953300000000
  0.2218506000000000  0.5991308800000000  0.7304336200000000
  0.8367109900000000  0.0508494200000000  0.5885686400000000
  0.7808456400000000  0.6990680600000000  0.3877514800000000
  0.4470137600000000  0.3327581600000000  0.1839217700000000
  0.5234938300000000  0.2472658800000000  0.7508765100000000
  0.6384709100000000  0.8384833100000000  0.7486954600000000
  0.3053054800000000  0.3302909600000000  0.3807119100000000
  0.3736605400000000  0.7483603200000000  0.5020785000000000
  0.3394597400000000  0.3629927000000000  0.5529407100000000
  0.6336927100000000  0.3228778000000000  0.4398586500000000
  0.7049658800000000  0.6060909600000000  0.5433513300000000
  0.8219660100000001  0.5503407800000000  0.0445726500000000
  0.0473575500000000  0.5690161000000000  0.0291202200000000
  0.1342470300000000  0.5273376200000000  0.0893194500000000
  0.6541180400000000  0.9144775500000000  0.2234797200000000
  0.2758013900000000  0.4996067700000000  0.6352804500000000
  0.3031802900000000  0.1517839800000000  0.6020409500000000
  0.7841562399999999  0.8245911800000000  0.5596187800000000
  0.4277258900000000  0.7247218600000001  0.7342172900000000
  0.3771866300000000  0.3735683400000000  0.2824151000000000
  0.7369426100000001  0.3250608400000000  0.7227980300000000
  0.4641723800000000  0.8929108200000000  0.2943972100000000
  0.8711875200000000  0.5330326000000000  0.4636481299999999
  0.5673410400000000  0.1342778000000000  0.2029137300000000
  0.8613899500000000  0.4846167100000000  0.6090836400000000
  0.6999138600000000  0.3472142100000000  0.3324476100000000
  0.2010037800000000  0.6925890600000000  0.2884849100000000
  0.1289489200000000  0.6790192000000000  0.5104238700000000
  0.0918309400000000  0.3571209500000000  0.5236055200000000
  0.4842566900000000  0.0302070000000000  0.7092513700000000
  0.4791076900000000  0.1404171700000000  0.3937041500000000
  0.2972254400000000  0.8618511300000000  0.4098268400000000
  0.1303279700000000  0.4911580700000000  0.3925580300000000
  0.8313582500000000  0.1674674300000000  0.4437947000000000
  0.9959607300000000  0.2105922700000000  0.6510786800000000
  0.8075614300000000  0.9590982900000000  0.6885913800000000
  0.6260313900000000  0.8773473100000000  0.4160970600000000
  0.3316345100000000  0.8394932700000000  0.5988330900000000
  0.7144438900000000  0.7107550900000000  0.1723709100000000
  0.2459670900000000  0.2039088100000000  0.1820705700000000
  0.0158240800000000  0.4604943800000000  0.7309435900000000
  0.8942892300000000  0.5965061200000000  0.3050237000000000
  0.5055644200000000  0.5016314300000000  0.4974676800000001
  0.9703726700000000  0.8517062300000000  0.2182773200000000
  0.9625291100000000  0.2840494600000000  0.2579011800000000
  0.7538378300000000  0.6374695400000000  0.7191759200000000
  0.2856678000000000  0.2744612600000000  0.7344603600000000
  0.0267525000000000  0.5482724500000000  0.1851070100000000
  0.9672527000000000  0.8732316099999999  0.4044108000000000
  0.0422484300000000  0.7327567300000000  0.6505760200000000
  0.1403462300000000  0.1552952700000000  0.4140079500000000
  0.7735784400000000  0.0416553700000000  0.3126353500000000
  0.1728169900000000  0.9846962800000001  0.7033210400000000
  0.1693977800000000  0.0035185100000000  0.2966668300000000
  0.0555066700000000  0.0083038600000000  0.5304885100000000
EA2
 1.0000000000000000
     8.6239331479935935    0.0000000000000000    0.0000000000000000
     0.0000000000000000    8.6239331479935935    0.0000000000000000
     0.0000000000000000    0.0000000000000000   18.4536408691692273
 O   Cu 
  17  40
Direct
  0.7854114200000000  0.5041211700000000  0.7741045700000000
  0.5184613800000000  0.3376245900000000  0.2198404000000000
  0.9973801100000000  0.3184562100000000  0.3128170400000000
  0.9987398100000000  0.7588327400000000  0.3307764800000000
  0.8424189000000000  0.0326417300000000  0.3486887700000000
  0.1840311600000000  0.1745984200000000  0.5599832500000000
  0.7930831200000000  0.8081689200000000  0.6209649000000000
  0.1990391300000000  0.8099880600000000  0.5627696100000000
  0.2642444300000000  0.9749689300000001  0.3218426000000000
  0.4326994300000000  0.2319364400000000  0.2753578800000000
  0.5813820400000000  0.8135806900000000  0.2850416000000000
  0.6705598600000000  0.3744882300000000  0.2477075300000000
  0.2301307900000000  0.5420925500000000  0.2890255400000000
  0.4885742599999999  0.2044113600000000  0.7554346600000000
  0.4824793900000001  0.8068377200000000  0.7545537900000000
  0.1891595100000000  0.5032728900000000  0.7363371100000000
  0.7623720899999999  0.2099999000000000  0.5515313400000000
  0.5279262800000000  0.1639832800000000  0.5123776100000000
  0.2975888300000000  0.5080690200000000  0.3871419200000000
  0.6875264600000000  0.5058355800000000  0.3383430400000000
  0.5041418600000001  0.7427951100000000  0.3781856500000000
  0.4991953000000000  0.2800734100000000  0.3830656200000000
  0.1790256100000000  0.5013632600000000  0.5133184500000000
  0.9053638700000000  0.5127062800000000  0.5398355700000000
  0.5430518500000000  0.8589738300000000  0.5074634400000000
  0.6374761500000000  0.6590530100000001  0.7637403100000000
  0.9825720800000001  0.5434541800000000  0.3042837700000000
  0.0552577000000000  0.0104939200000000  0.3374215000000000
  0.7699301600000000  0.2116706200000000  0.3022132400000000
  0.2563014700000000  0.7545967300000000  0.3053524200000000
  0.7869844200000000  0.7899001100000000  0.3136942900000000
  0.2151663100000000  0.2875787100000000  0.2945185600000000
  0.3359060800000000  0.3487846900000000  0.7390557700000000
  0.5099188600000000  0.1324487800000000  0.6607684600000000
  0.5074590700000000  0.0200346900000000  0.2832628900000000
  0.5302533300000000  0.8530952500000000  0.6565752500000001
  0.6522325800000000  0.6440800700000000  0.5795055000000000
  0.8350985399999999  0.5455396700000000  0.6756474800000000
  0.3261922300000000  0.9957238999999999  0.5739581400000000
  0.7561356500000000  0.0030402200000000  0.5827878800000000
  0.9782649100000000  0.2207998800000000  0.5475552200000000
  0.9917449600000000  0.7811753400000000  0.5840719300000000
  0.6671894200000000  0.0236651700000000  0.4125894500000000
  0.3768709500000000  0.0039445600000000  0.4140888500000000
  0.0127708500000000  0.3695405200000000  0.4186437300000000
  0.0155997300000000  0.6642578400000000  0.4307839900000000
  0.4798769700000000  0.4905039700000001  0.4934019400000000
  0.6327051100000000  0.3751455900000000  0.6105049000000000
  0.3607996900000000  0.6416785000000000  0.6004306400000000
  0.3323551100000000  0.6604852100000000  0.7402547500000000
  0.3422459700000000  0.3321181700000000  0.5987758300000000
  0.2712779600000000  0.2539994700000000  0.4653380600000000
  0.7264654699999999  0.6511109100000000  0.4500994100000000
  0.2947530800000000  0.7448265700000000  0.4697208300000000
  0.7300491600000000  0.3540679100000000  0.4576722200000000
  0.1051765900000000  0.4913384100000000  0.6432746900000000
  0.6466678400000000  0.3477124300000000  0.7574180500000000
EA3
 1.0000000000000000
    11.7836515649046092    0.0000000000000000    0.0000000000000000
     0.0000000000000000   11.7836515649046092    0.0000000000000000
     0.0000000000000000    0.0000000000000000   12.9651606267482897
 O   Cu 
  17  40
Direct
  0.7644724500000000  0.9605220800000001  0.3768574700000000
  0.5369536300000000  0.5214915700000000  0.5725986300000000
  0.0246811300000000  0.7988384300000000  0.3198337200000000
  0.0338588700000000  0.3598659000000000  0.3024446900000000
  0.2852682500000000  0.0356542800000000  0.2770451900000000
  0.1562097700000000  0.6756468799999999  0.7398243000000000
  0.9593871600000000  0.3375082700000000  0.7107704300000000
  0.7239704500000000  0.9354040300000001  0.7165690400000000
  0.6825128900000000  0.0208100200000000  0.3003171500000000
  0.0615545700000000  0.3235033500000000  0.6452628299999998
  0.0458282800000000  0.7199272799999998  0.7497039300000000
  0.7492681900000000  0.0437161000000000  0.6620204800000000
  0.2812126400000000  0.0562046900000000  0.7329855600000000
  0.9678650500000000  0.2742972200000000  0.3711815300000000
  0.0830553900000000  0.7987234100000000  0.4203235000000000
  0.2816012000000000  0.0805116400000000  0.3837120600000000
  0.3239310500000000  0.1675753700000000  0.7462514900000000
  0.3989039200000000  0.2175274300000000  0.6248175700000000
  0.9688168100000000  0.5060966099999999  0.3406002600000000
  0.3416334500000000  0.8839898300000000  0.2917647100000000
  0.6687480700000000  0.1753027400000000  0.3489962200000000
  0.1851417600000000  0.3602230400000000  0.3605993100000000
  0.8962134899999999  0.7053473300000001  0.3366269300000000
  0.7258999400000000  0.8163614500000002  0.6216450500000000
  0.8296964900000000  0.3351969000000000  0.6250016000000000
  0.0344407600000000  0.6531508499999999  0.4846716100000000
  0.5531285600000000  0.9097607900000000  0.5449984200000000
  0.9032336500000000  0.4951495900000000  0.5253495800000000
  0.1013658100000000  0.4810065300000000  0.5980708200000000
  0.9455898600000000  0.6451854000000000  0.6580230100000000
  0.5972475400000000  0.1088426100000000  0.6516543600000000
  0.4005744100000000  0.0000116200000000  0.6487773999999999
  0.0177676700000000  0.2997157500000000  0.5074348000000000
  0.5392652800000000  0.9569378200000002  0.3423695700000000
  0.2172045000000000  0.6583960200000000  0.6066801000000001
  0.3552850700000000  0.6415986299999999  0.3118040200000000
  0.6015175600000000  0.6712794800000000  0.5370515000000000
  0.5515107000000000  0.5819617300000000  0.3557400000000001
  0.6687289300000000  0.2547578600000000  0.5254978300000001
  0.3803282700000000  0.7960738400000000  0.5873842800000000
  0.8119163500000000  0.6740821800000000  0.5126125300000000
  0.2801422900000000  0.3817973900000000  0.5345723400000000
  0.3483249400000000  0.2284699300000000  0.4206364000000000
  0.6925549400000000  0.8111902900000000  0.4193812299999999
  0.2451173600000000  0.7597718200000000  0.4362803500000000
  0.8167658600000001  0.3397478900000000  0.4152786600000001
  0.3981563800000000  0.5948252600000000  0.5109615800000000
  0.6892279600000001  0.4631703200000000  0.5369902600000001
  0.4875441000000000  0.3658788100000001  0.5216759800000000
  0.3665205300000000  0.9673389999999999  0.4653008500000000
  0.7590645600000000  0.5467355100000000  0.3654539800000000
  0.2108520700000000  0.5480007900000000  0.4357333299999999
  0.5163217500000000  0.1203863700000000  0.4837979099999999
  0.4670850300000000  0.7757252399999999  0.4114268000000000
  0.3857532400000000  0.4376061500000000  0.3631063900000000
  0.6125829300000000  0.3787371800000001  0.3611129100000000
  0.7438311599999999  0.0180964400000000  0.5141762100000000
EA4
 1.0000000000000000
     8.5358322003397262    0.0000000000000000    0.0000000000000000
     0.0000000000000000    8.5358322003397262    0.0000000000000000
     0.0000000000000000    0.0000000000000000   18.3161163439953114
 O   Cu 
  17  40
Direct
  0.4896112899999999  0.2297295100000000  0.7342879800000000
  0.4870524300000000  0.4903293899999999  0.2703158700000000
  0.8346259200000000  0.5540936500000000  0.4036142100000000
  0.2515406600000000  0.3984629700000000  0.4281893500000000
  0.5652789499999999  0.2090184800000000  0.3989724900000000
  0.3235454400000000  0.9705916200000001  0.2573645200000000
  0.6672439999999999  0.1159722200000000  0.2362869900000000
  0.9310473100000000  0.6917399600000000  0.2454345800000000
  0.4142610900000000  0.8024157600000000  0.3999404200000000
  0.3226613900000000  0.1423558200000000  0.2638913700000000
  0.6466636600000000  0.9421109500000001  0.2374661400000000
  0.0951781100000000  0.6927690900000000  0.2723731800000000
  0.9178604900000000  0.3787303700000000  0.2592507300000000
  0.0941258300000000  0.3521460700000000  0.7019874400000000
  0.8302024600000000  0.6915803900000000  0.7015219400000000
  0.2762205500000000  0.8592991200000000  0.7362616200000000
  0.0746000800000000  0.3961675600000000  0.2972863800000000
  0.6856820500000000  0.1438524800000000  0.7303325899999999
  0.5973935000000000  0.0902416500000000  0.5763890699999999
  0.3499415200000000  0.7483470300000000  0.6540909300000000
  0.9450801100000000  0.7501226800000000  0.6064336100000000
  0.1177110900000000  0.2399186600000000  0.6112459000000000
  0.8617147100000000  0.0792280000000000  0.6251965400000000
  0.1186981300000000  0.9488553299999999  0.6729026800000000
  0.9689024899999999  0.1829303200000000  0.7366829499999999
  0.9545812200000000  0.0163632000000000  0.4029341200000000
  0.5261536200000000  0.2698998100000000  0.2782286700000000
  0.5073463100000000  0.8713594800000000  0.3121570400000000
  0.7193604300000001  0.4990419400000000  0.2801924200000000
  0.2663172900000000  0.5276591000000000  0.2637211500000000
  0.9671081500000002  0.7302678300000000  0.4600335400000000
  0.1656719400000000  0.2105965000000000  0.4751777700000001
  0.2327768600000000  0.9189172200000000  0.4369930500000000
  0.7659201700000000  0.8981285500000000  0.5203777000000001
  0.8493378499999999  0.9071504300000000  0.7314606299999999
  0.3212147700000000  0.0375142000000000  0.5648851600000000
  0.1303326300000000  0.1784164100000000  0.3202326000000000
  0.1992707600000000  0.7118657300000000  0.5418079500000000
  0.0434921600000000  0.9771197100000000  0.5335295500000000
  0.0375681900000000  0.4620536900000000  0.4148860000000000
  0.5440746000000000  0.0053762900000000  0.4436434000000000
  0.4244780000000000  0.2818650600000000  0.6362932200000000
  0.6628944200000000  0.6652408200000000  0.6279054500000000
  0.6859354500000000  0.3699260100000000  0.5820165600000000
  0.4344508200000000  0.5309351900000000  0.5676524500000000
  0.4571654100000000  0.2826691500000000  0.4946624800000000
  0.7024097200000000  0.6050464000000000  0.4964147200000000
  0.7127304900000000  0.3653194900000000  0.4113014600000000
  0.3445309300000000  0.5968978800000000  0.4260049500000000
  0.9504394500000000  0.5074202799999999  0.6955879300000000
  0.8479528000000000  0.8839993200000000  0.2831793700000000
  0.8585899400000000  0.1631389900000000  0.2897745100000000
  0.1235699500000000  0.9072285700000000  0.2990517000000000
  0.9672605400000001  0.4763450000000000  0.5506655600000000
  0.4881306500000001  0.8027833200000000  0.5376352400000000
  0.8663882800000000  0.2075445100000000  0.5054539500000000
  0.3866346500000000  0.0418325300000000  0.7285036700000000
