EA49   19.325 19.325 19.325 90.00 90.00 90.00 Sym.group:    0
1.0000
   19.325376     0.000000     0.000000
    0.000000    19.325376     0.000000
    0.000000     0.000000    19.325376
   O  Cu
   4   24 
Direct
    0.500000     0.672969     0.500000
    0.500000     0.327031     0.500000
    0.655970     0.500000     0.574776
    0.344030     0.500000     0.425224
    0.574776     0.500000     0.344030
    0.425224     0.500000     0.655970
    0.500000     0.563581     0.500000
    0.500000     0.436419     0.500000
    0.557333     0.500000     0.527487
    0.442667     0.500000     0.472513
    0.527487     0.500000     0.442667
    0.472513     0.500000     0.557333
    0.451053     0.463309     0.517223
    0.451053     0.536691     0.517223
    0.517223     0.463309     0.548947
    0.517223     0.536691     0.548947
    0.482777     0.463309     0.451053
    0.482777     0.536691     0.451053
    0.548947     0.463309     0.482777
    0.548947     0.536691     0.482777
    0.389789     0.417385     0.538781
    0.389789     0.582615     0.538781
    0.538781     0.417385     0.610211
    0.538781     0.582615     0.610211
    0.461219     0.417385     0.389789
    0.461219     0.582615     0.389789
    0.610211     0.417385     0.461219
    0.610211     0.582615     0.461219
EA92   18.524 19.325 19.373 90.00 90.00 90.00 Sym.group:    0
1.0000
   18.523532     0.000000     0.000000
    0.000000    19.325266     0.000000
    0.000000     0.000000    19.372507
   O  Cu
   4   24 
Direct
    0.345040     0.327027     0.473641
    0.344514     0.672967     0.473619
    0.591211     0.500020     0.687191
    0.655832     0.499985     0.354777
    0.322246     0.499749     0.504918
    0.683037     0.500252     0.495980
    0.499821     0.436419     0.499958
    0.499627     0.563581     0.499949
    0.507278     0.500007     0.564349
    0.503841     0.499993     0.437539
    0.436331     0.499907     0.502092
    0.568953     0.500093     0.498806
    0.540029     0.537653     0.462003
    0.540139     0.462436     0.462018
    0.541677     0.537671     0.536983
    0.541787     0.462454     0.536998
    0.463160     0.535721     0.465711
    0.463273     0.464174     0.465706
    0.465478     0.535719     0.537088
    0.465591     0.464172     0.537083
    0.591411     0.609639     0.389196
    0.591609     0.390285     0.389501
    0.585999     0.609955     0.607128
    0.586197     0.390601     0.607432
    0.409156     0.555574     0.446918
    0.409460     0.444466     0.446635
    0.423499     0.555293     0.558532
    0.423803     0.444185     0.558249
EA155  19.337 19.287 18.941 90.00 90.00 90.00 Sym.group:    0
1.0000
   19.337165     0.000000     0.000000
    0.000000    19.286523     0.000000
    0.000000     0.000000    18.940709
   O  Cu
   4   24 
Direct
    0.648960     0.327596     0.473362
    0.649466     0.672214     0.472136
    0.412686     0.500667     0.691544
    0.349696     0.499503     0.358911
    0.670958     0.499770     0.505263
    0.324620     0.500311     0.499938
    0.500722     0.436258     0.499857
    0.500912     0.563735     0.499400
    0.493808     0.500226     0.565480
    0.496626     0.499773     0.435786
    0.561575     0.499913     0.501988
    0.434340     0.500083     0.498304
    0.462058     0.537580     0.460583
    0.461951     0.462235     0.460864
    0.460727     0.537923     0.537301
    0.460620     0.462449     0.537582
    0.535741     0.535675     0.464597
    0.535630     0.463977     0.464844
    0.533776     0.535912     0.537564
    0.533665     0.464232     0.537811
    0.407413     0.609932     0.383036
    0.407177     0.389182     0.384094
    0.417287     0.610675     0.609448
    0.417099     0.390623     0.610533
    0.587453     0.555378     0.445259
    0.587157     0.444295     0.445359
    0.574087     0.555652     0.559527
    0.573790     0.444229     0.559628
