EA155  19.337 19.287 18.941 90.00 90.00 90.00 Sym.group:    0
1.0000
   19.337165     0.000000     0.000000
    0.000000    19.286523     0.000000
    0.000000     0.000000    18.940709
   O  Cu
   4   24 
Direct
    0.648960     0.327596     0.473362
    0.649466     0.672214     0.472136
    0.412686     0.500667     0.691544
    0.349696     0.499503     0.358911
    0.670958     0.499770     0.505263
    0.324620     0.500311     0.499938
    0.500722     0.436258     0.499857
    0.500912     0.563735     0.499400
    0.493808     0.500226     0.565480
    0.496626     0.499773     0.435786
    0.561575     0.499913     0.501988
    0.434340     0.500083     0.498304
    0.462058     0.537580     0.460583
    0.461951     0.462235     0.460864
    0.460727     0.537923     0.537301
    0.460620     0.462449     0.537582
    0.535741     0.535675     0.464597
    0.535630     0.463977     0.464844
    0.533776     0.535912     0.537564
    0.533665     0.464232     0.537811
    0.407413     0.609932     0.383036
    0.407177     0.389182     0.384094
    0.417287     0.610675     0.609448
    0.417099     0.390623     0.610533
    0.587453     0.555378     0.445259
    0.587157     0.444295     0.445359
    0.574087     0.555652     0.559527
    0.573790     0.444229     0.559628
EA99   19.125 19.325 19.125 90.00 90.00 90.00 Sym.group:    0
1.0000
   19.125143     0.000000     0.000000
    0.000000    19.325266     0.000000
    0.000000     0.000000    19.125191
   O  Cu
   4   24 
Direct
    0.324782     0.499153     0.499920
    0.674337     0.500848     0.500078
    0.506536     0.671104     0.525572
    0.508254     0.328886     0.474460
    0.497233     0.525293     0.327093
    0.497328     0.474711     0.672895
    0.435253     0.499689     0.499970
    0.563745     0.500312     0.500028
    0.499323     0.562897     0.509393
    0.499954     0.437103     0.490605
    0.499389     0.509297     0.436442
    0.499424     0.490704     0.563555
    0.536784     0.458488     0.531319
    0.462635     0.458190     0.531190
    0.536420     0.531148     0.542157
    0.462271     0.530716     0.542036
    0.536765     0.469213     0.457874
    0.462616     0.468925     0.457929
    0.536400     0.541873     0.468713
    0.462250     0.541451     0.468774
    0.583696     0.405505     0.571390
    0.416744     0.406882     0.569361
    0.582877     0.571244     0.595676
    0.415921     0.568048     0.593901
    0.583655     0.429565     0.404398
    0.416695     0.431142     0.406023
    0.582837     0.595305     0.428684
    0.415873     0.592308     0.430563
EA131  18.740 19.717 19.467 90.00 90.00 90.00 Sym.group:    0
1.0000
   18.739721     0.000000     0.000000
    0.000000    19.717198     0.000000
    0.000000     0.000000    19.466915
   O  Cu
   4   24 
Direct
    0.544086     0.469747     0.463636
    0.582336     0.524476     0.522516
    0.448292     0.595818     0.574393
    0.464500     0.622148     0.438953
    0.479825     0.463538     0.519461
    0.545958     0.467216     0.522831
    0.580465     0.527007     0.463320
    0.477953     0.466069     0.460265
    0.737351     0.525898     0.528523
    0.395546     0.345787     0.517431
    0.629517     0.361239     0.474614
    0.735617     0.528243     0.473694
    0.393812     0.348131     0.462601
    0.631250     0.358894     0.529443
    0.512530     0.353904     0.496007
    0.511684     0.520060     0.489436
    0.458530     0.641143     0.498853
    0.446632     0.521397     0.591468
    0.560415     0.564633     0.515293
    0.317509     0.465299     0.452393
    0.312425     0.501971     0.558644
    0.320208     0.616059     0.535031
    0.324465     0.579496     0.428811
    0.616028     0.474583     0.526791
    0.620852     0.552333     0.510761
    0.447545     0.404796     0.478553
    0.616862     0.699215     0.460667
    0.287806     0.500899     0.505612
EA121  20.444 18.037 19.397 90.00 90.00 90.00 Sym.group:    0
1.0000
   20.443683     0.000000     0.000000
    0.000000    18.036529     0.000000
    0.000000     0.000000    19.396894
   O  Cu
   4   24 
Direct
    0.520170     0.573412     0.462522
    0.448986     0.488668     0.449130
    0.620933     0.352259     0.553352
    0.396025     0.359397     0.423272
    0.461939     0.550760     0.520270
    0.517887     0.567440     0.521974
    0.566962     0.523840     0.452723
    0.464222     0.556732     0.460818
    0.693848     0.564962     0.515396
    0.357971     0.650094     0.537903
    0.559491     0.715075     0.488910
    0.695962     0.570494     0.460330
    0.360086     0.655626     0.482836
    0.557376     0.709543     0.543977
    0.458843     0.682168     0.513330
    0.506317     0.505189     0.481003
    0.322872     0.456714     0.454285
    0.479740     0.427537     0.649732
    0.361318     0.431296     0.581240
    0.455640     0.402569     0.564647
    0.417280     0.427929     0.437980
    0.700713     0.410355     0.472199
    0.609519     0.482541     0.512097
    0.527007     0.372536     0.375796
    0.339600     0.385024     0.488475
    0.635340     0.347361     0.509342
    0.517252     0.347784     0.577881
    0.446703     0.482695     0.508581
EA138  19.525 19.650 20.307 90.00 90.00 90.00 Sym.group:    0
1.0000
   19.525409     0.000000     0.000000
    0.000000    19.649652     0.000000
    0.000000     0.000000    20.306909
   O  Cu
   4   24 
Direct
    0.461139     0.375125     0.444405
    0.367241     0.639264     0.546957
    0.659663     0.423639     0.495355
    0.467398     0.435630     0.633026
    0.408979     0.472381     0.401306
    0.372892     0.417404     0.502911
    0.448118     0.367499     0.363756
    0.583389     0.502783     0.327400
    0.327561     0.474120     0.400414
    0.359581     0.335472     0.508987
    0.335523     0.602758     0.527303
    0.508973     0.324135     0.615495
    0.569673     0.355926     0.473157
    0.362188     0.463207     0.601665
    0.460469     0.575513     0.375706
    0.693549     0.606884     0.499553
    0.525021     0.562268     0.498030
    0.568800     0.373068     0.556493
    0.460014     0.599180     0.619262
    0.401773     0.623397     0.524079
    0.631149     0.457113     0.506944
    0.409668     0.656122     0.482430
    0.661008     0.499966     0.518245
    0.669235     0.504868     0.449761
    0.581179     0.493655     0.627787
    0.649996     0.635995     0.439340
    0.443542     0.623982     0.471633
    0.612281     0.598647     0.588599
EA57   18.364 19.283 19.805 90.00 90.00 90.00 Sym.group:    0
1.0000
   18.364023     0.000000     0.000000
    0.000000    19.283011     0.000000
    0.000000     0.000000    19.805158
   O  Cu
   4   24 
Direct
    0.330838     0.448633     0.529118
    0.582909     0.401658     0.531965
    0.568870     0.619177     0.460599
    0.582885     0.548144     0.592796
    0.585393     0.334386     0.437718
    0.430153     0.329753     0.449182
    0.454698     0.511222     0.494320
    0.512460     0.415748     0.493837
    0.397643     0.516897     0.397269
    0.406094     0.502394     0.599173
    0.379515     0.578549     0.479642
    0.377192     0.439338     0.520273
    0.389677     0.626511     0.489599
    0.383607     0.391871     0.509091
    0.349961     0.409293     0.452284
    0.360149     0.607204     0.551071
    0.577335     0.605454     0.552619
    0.566086     0.575380     0.410174
    0.585693     0.445456     0.582390
    0.464539     0.575331     0.506604
    0.712010     0.589637     0.499586
    0.721162     0.495121     0.565848
    0.716570     0.422890     0.482687
    0.707417     0.517406     0.416425
    0.335809     0.604494     0.443814
    0.352683     0.430248     0.565973
    0.650798     0.447503     0.500068
    0.517854     0.610304     0.485873
EA148  19.821 18.417 16.623 90.00 90.00 90.00 Sym.group:    0
1.0000
   19.820775     0.000000     0.000000
    0.000000    18.416748     0.000000
    0.000000     0.000000    16.622540
   O  Cu
   4   24 
Direct
    0.656781     0.448794     0.535627
    0.422639     0.395661     0.539696
    0.435862     0.626398     0.450195
    0.423155     0.547197     0.609951
    0.422466     0.329122     0.430946
    0.565416     0.318293     0.431954
    0.541217     0.511980     0.492751
    0.488995     0.411279     0.491686
    0.592548     0.515594     0.378237
    0.586896     0.504369     0.617825
    0.611142     0.581624     0.478049
    0.613846     0.437620     0.523188
    0.602438     0.632029     0.490070
    0.608370     0.387407     0.507801
    0.637607     0.404080     0.441894
    0.631164     0.612042     0.563959
    0.428502     0.608260     0.560375
    0.438698     0.582573     0.392035
    0.419323     0.439873     0.598196
    0.533034     0.579322     0.507783
    0.303608     0.593757     0.497569
    0.294434     0.492890     0.579588
    0.300193     0.419479     0.482503
    0.308483     0.520346     0.400551
    0.650945     0.608048     0.436865
    0.638173     0.430158     0.578155
    0.360768     0.445246     0.501653
    0.483297     0.616560     0.480898
EA150  19.788 18.447 16.663 90.00 90.00 90.00 Sym.group:    0
1.0000
   19.788442     0.000000     0.000000
    0.000000    18.447375     0.000000
    0.000000     0.000000    16.663154
   O  Cu
   4   24 
Direct
    0.656574     0.555652     0.535707
    0.422610     0.601963     0.540098
    0.436088     0.378253     0.454940
    0.425904     0.450095     0.612169
    0.418807     0.667628     0.432604
    0.561840     0.681505     0.434831
    0.543573     0.488010     0.493918
    0.487494     0.586120     0.495316
    0.598998     0.482103     0.376846
    0.587639     0.497718     0.618289
    0.613339     0.417155     0.474518
    0.613299     0.564768     0.524045
    0.603253     0.367051     0.486845
    0.606183     0.614510     0.509393
    0.636493     0.598315     0.443130
    0.629190     0.386737     0.558964
    0.429648     0.389562     0.563698
    0.438736     0.425721     0.393403
    0.420837     0.557462     0.598630
    0.533810     0.421020     0.508961
    0.303747     0.404372     0.498366
    0.295735     0.502394     0.575848
    0.297002     0.578660     0.476531
    0.305206     0.480610     0.398998
    0.654621     0.389826     0.430784
    0.636678     0.573639     0.578606
    0.358740     0.553555     0.499176
    0.483956     0.385596     0.485386
EA157  19.626 20.284 16.741 90.00 90.00 90.00 Sym.group:    0
1.0000
   19.626456     0.000000     0.000000
    0.000000    20.283938     0.000000
    0.000000     0.000000    16.741436
   O  Cu
   4   24 
Direct
    0.680011     0.445391     0.462010
    0.672318     0.558332     0.541828
    0.327682     0.441668     0.458172
    0.319989     0.554609     0.537990
    0.430656     0.309862     0.521440
    0.420586     0.686175     0.473845
    0.579414     0.313825     0.526155
    0.569344     0.690138     0.478560
    0.441976     0.497493     0.505970
    0.558024     0.502507     0.494030
    0.496497     0.597775     0.521009
    0.503503     0.402225     0.478991
    0.399611     0.502405     0.382018
    0.383103     0.493258     0.620165
    0.616897     0.506742     0.379835
    0.600389     0.497595     0.617982
    0.634497     0.434916     0.466031
    0.627797     0.570747     0.536899
    0.372203     0.429253     0.463101
    0.365503     0.565084     0.533969
    0.627063     0.385450     0.471374
    0.619299     0.620158     0.533620
    0.380701     0.379842     0.466380
    0.372937     0.614550     0.528626
    0.651435     0.610204     0.462116
    0.655426     0.398813     0.544265
    0.344574     0.601187     0.455735
    0.348565     0.389796     0.537884
EA161  23.427 20.635 14.374 90.00 90.00 90.00 Sym.group:    0
1.0000
   23.427435     0.000000     0.000000
    0.000000    20.635379     0.000000
    0.000000     0.000000    14.373506
   O  Cu
   4   24 
Direct
    0.482686     0.448936     0.467906
    0.457075     0.560181     0.466671
    0.552678     0.495505     0.466275
    0.443407     0.504107     0.547596
    0.539361     0.443901     0.544671
    0.507879     0.559406     0.541482
    0.482205     0.449156     0.547853
    0.455653     0.561319     0.546899
    0.553294     0.496144     0.546416
    0.443311     0.504219     0.468088
    0.541044     0.444456     0.465137
    0.508987     0.555591     0.462050
    0.321221     0.480835     0.533015
    0.584226     0.701648     0.533741
    0.602895     0.328012     0.534366
    0.385584     0.345858     0.473208
    0.774177     0.576833     0.480044
    0.383167     0.542468     0.481770
    0.313067     0.506140     0.459210
    0.563568     0.680401     0.460125
    0.622188     0.321067     0.460625
    0.448734     0.315702     0.546941
    0.660876     0.497680     0.558410
    0.373850     0.680679     0.555037
    0.645902     0.422209     0.454185
    0.377220     0.403733     0.454004
    0.478419     0.671901     0.437517
    0.497327     0.501915     0.506759
EA115  19.720 18.922 20.692 90.00 90.00 90.00 Sym.group:    0
1.0000
   19.719897     0.000000     0.000000
    0.000000    18.921698     0.000000
    0.000000     0.000000    20.691790
   O  Cu
   4   24 
Direct
    0.564675     0.617213     0.464822
    0.366505     0.578727     0.522357
    0.361815     0.360636     0.477029
    0.687333     0.519308     0.469117
    0.523003     0.619158     0.566756
    0.353947     0.486338     0.444981
    0.404884     0.591866     0.421070
    0.614056     0.540853     0.534966
    0.454583     0.474404     0.609195
    0.640075     0.611526     0.447056
    0.299653     0.545236     0.538444
    0.517100     0.700151     0.546294
    0.331059     0.506337     0.377489
    0.376188     0.669428     0.448327
    0.625964     0.571170     0.604616
    0.503581     0.463426     0.664538
    0.428038     0.590089     0.603344
    0.504387     0.600140     0.383590
    0.685372     0.335046     0.421471
    0.536308     0.401139     0.486147
    0.576227     0.406822     0.611281
    0.435585     0.409280     0.383871
    0.403191     0.364922     0.490601
    0.651578     0.493484     0.461350
    0.416271     0.319204     0.522430
    0.668753     0.450526     0.433046
    0.375388     0.349280     0.570201
    0.694480     0.424291     0.495608
EA122  20.155 19.042 18.138 90.00 90.00 90.00 Sym.group:    0
1.0000
   20.154983     0.000000     0.000000
    0.000000    19.041574     0.000000
    0.000000     0.000000    18.137637
   O  Cu
   4   24 
Direct
    0.418142     0.623521     0.461597
    0.342482     0.531609     0.538212
    0.557608     0.544657     0.502223
    0.586579     0.489054     0.562348
    0.470180     0.276869     0.513110
    0.350211     0.365127     0.490170
    0.475560     0.507493     0.518118
    0.461078     0.393872     0.546415
    0.442601     0.534634     0.393963
    0.460929     0.606074     0.473042
    0.372194     0.495720     0.540630
    0.348990     0.451042     0.537056
    0.338051     0.478856     0.462080
    0.534573     0.343186     0.411033
    0.617401     0.561009     0.418662
    0.572212     0.343143     0.542562
    0.666607     0.457484     0.451109
    0.478561     0.641337     0.424992
    0.496924     0.318867     0.439323
    0.485321     0.540700     0.556393
    0.556300     0.427448     0.556429
    0.591270     0.490947     0.502240
    0.413040     0.670892     0.554921
    0.614536     0.678662     0.516563
    0.734508     0.487240     0.516623
    0.417384     0.672645     0.499246
    0.672003     0.581850     0.544388
    0.524755     0.486060     0.526551
EA59   18.697 19.200 18.843 90.00 90.00 90.00 Sym.group:    0
1.0000
   18.696864     0.000000     0.000000
    0.000000    19.199795     0.000000
    0.000000     0.000000    18.843182
   O  Cu
   4   24 
Direct
    0.382898     0.611718     0.461955
    0.316946     0.524130     0.541432
    0.647859     0.601780     0.522761
    0.705102     0.436030     0.492963
    0.473298     0.291067     0.515131
    0.337163     0.365297     0.502030
    0.458005     0.508990     0.512095
    0.455191     0.402434     0.542727
    0.412225     0.526085     0.400787
    0.411129     0.542417     0.614487
    0.430379     0.598632     0.469174
    0.351733     0.492358     0.542130
    0.465483     0.634490     0.470408
    0.331166     0.448573     0.542295
    0.311910     0.470241     0.473933
    0.429339     0.643029     0.533439
    0.527990     0.352506     0.414189
    0.595662     0.563513     0.407114
    0.635257     0.492351     0.527068
    0.576705     0.361627     0.530979
    0.569639     0.628542     0.519403
    0.652656     0.491052     0.620676
    0.659303     0.470803     0.435608
    0.442391     0.630545     0.422651
    0.625803     0.567040     0.609523
    0.492516     0.328600     0.444094
    0.631939     0.548348     0.438680
    0.670315     0.467802     0.492265
EA84   20.918 20.824 13.784 90.00 90.00 90.00 Sym.group:    0
1.0000
   20.917500     0.000000     0.000000
    0.000000    20.823798     0.000000
    0.000000     0.000000    13.784174
   O  Cu
   4   24 
Direct
    0.526327     0.557743     0.458497
    0.536619     0.448227     0.458497
    0.437054     0.494030     0.458497
    0.562481     0.509717     0.541503
    0.460382     0.549495     0.541503
    0.477137     0.440788     0.541503
    0.526327     0.557743     0.541503
    0.536619     0.448227     0.541503
    0.437054     0.494030     0.541503
    0.562481     0.509717     0.458497
    0.460382     0.549495     0.458497
    0.477137     0.440788     0.458497
    0.702873     0.519581     0.538442
    0.415446     0.313726     0.538442
    0.381681     0.666693     0.538442
    0.574014     0.690747     0.461558
    0.298541     0.469013     0.461558
    0.627445     0.340240     0.461558
    0.702873     0.519581     0.461558
    0.415446     0.313726     0.461558
    0.381681     0.666693     0.461558
    0.574014     0.690747     0.538442
    0.298541     0.469013     0.538442
    0.627445     0.340240     0.538442
    0.340487     0.567693     0.500000
    0.638118     0.604918     0.500000
    0.521395     0.327389     0.500000
    0.500000     0.500000     0.500000
EA67   19.007 18.321 19.300 90.00 90.00 90.00 Sym.group:    0
1.0000
   19.007064     0.000000     0.000000
    0.000000    18.320953     0.000000
    0.000000     0.000000    19.300087
   O  Cu
   4   24 
Direct
    0.560836     0.657778     0.574731
    0.346643     0.580698     0.452602
    0.518279     0.639851     0.412592
    0.607390     0.370482     0.540367
    0.311542     0.464097     0.478877
    0.458111     0.518914     0.671912
    0.345330     0.478329     0.607606
    0.379508     0.485805     0.372439
    0.423310     0.544701     0.589136
    0.389598     0.530500     0.460699
    0.650442     0.658106     0.484296
    0.696485     0.517107     0.486168
    0.518888     0.465673     0.503202
    0.590705     0.553024     0.522478
    0.530853     0.407613     0.607187
    0.538260     0.427768     0.400492
    0.603945     0.417375     0.536112
    0.479117     0.375291     0.472134
    0.646801     0.442368     0.533153
    0.431344     0.365355     0.474894
    0.451627     0.335540     0.538136
    0.645256     0.414803     0.470672
    0.471060     0.633560     0.397759
    0.305429     0.524064     0.518778
    0.570570     0.675818     0.530052
    0.463653     0.613404     0.604454
    0.515777     0.532769     0.340672
    0.549241     0.369209     0.418401
EA123  18.104 19.799 19.467 90.00 90.00 90.00 Sym.group:    0
1.0000
   18.104022     0.000000     0.000000
    0.000000    19.799214     0.000000
    0.000000     0.000000    19.466887
   O  Cu
   4   24 
Direct
    0.691830     0.385801     0.523751
    0.330399     0.473344     0.458688
    0.341245     0.564871     0.559838
    0.443099     0.399644     0.641374
    0.524179     0.458294     0.357881
    0.414430     0.356303     0.546379
    0.739998     0.488231     0.503813
    0.625662     0.418319     0.620565
    0.514700     0.348498     0.553541
    0.624743     0.531386     0.395685
    0.462992     0.416477     0.411697
    0.704519     0.565708     0.543321
    0.655158     0.409340     0.450828
    0.543388     0.401124     0.476458
    0.620596     0.582362     0.481966
    0.615212     0.665379     0.518433
    0.454453     0.684594     0.520383
    0.463455     0.503852     0.507715
    0.532599     0.583608     0.546631
    0.401925     0.534440     0.390664
    0.415569     0.486342     0.626094
    0.378621     0.456181     0.460371
    0.390171     0.570423     0.556976
    0.384787     0.408563     0.455084
    0.401172     0.615989     0.562055
    0.363553     0.621151     0.488395
    0.362736     0.432413     0.405857
    0.598811     0.637362     0.435559
EA134  18.026 19.025 19.615 90.00 90.00 90.00 Sym.group:    0
1.0000
   18.026351     0.000000     0.000000
    0.000000    19.024675     0.000000
    0.000000     0.000000    19.615034
   O  Cu
   4   24 
Direct
    0.502480     0.459393     0.653850
    0.497040     0.323973     0.486120
    0.646417     0.556091     0.434710
    0.380558     0.659495     0.492730
    0.580061     0.353023     0.450889
    0.453167     0.385051     0.584621
    0.611370     0.478053     0.604625
    0.398948     0.483371     0.399985
    0.584276     0.457985     0.390071
    0.423708     0.459099     0.611827
    0.550217     0.414951     0.598402
    0.655815     0.403124     0.507609
    0.337929     0.413090     0.516278
    0.683489     0.496945     0.473822
    0.404119     0.365027     0.446516
    0.328684     0.354554     0.472903
    0.724713     0.436134     0.485438
    0.486064     0.511813     0.330370
    0.669714     0.621253     0.537785
    0.544296     0.699219     0.553819
    0.553350     0.596636     0.495497
    0.397018     0.592635     0.412260
    0.425137     0.644253     0.493304
    0.356480     0.516542     0.528408
    0.459422     0.679551     0.503797
    0.310222     0.515095     0.463502
    0.667076     0.550465     0.477252
    0.368230     0.573179     0.593611
EA65   20.070 16.858 19.780 90.00 90.00 90.00 Sym.group:    0
1.0000
   20.070474     0.000000     0.000000
    0.000000    16.858500     0.000000
    0.000000     0.000000    19.780115
   O  Cu
   4   24 
Direct
    0.672914     0.445365     0.467891
    0.650907     0.578510     0.535597
    0.386646     0.361339     0.499902
    0.389223     0.603350     0.499121
    0.594433     0.272521     0.516560
    0.450028     0.245467     0.510176
    0.547262     0.490458     0.496675
    0.508397     0.364950     0.476072
    0.599782     0.504293     0.398587
    0.593027     0.495037     0.599109
    0.631071     0.423786     0.469689
    0.605484     0.583739     0.529942
    0.631624     0.364307     0.472767
    0.589511     0.640330     0.526181
    0.623382     0.631786     0.466684
    0.656519     0.383860     0.534862
    0.503196     0.665378     0.537863
    0.334838     0.500389     0.531356
    0.337255     0.464758     0.463281
    0.475877     0.666464     0.468397
    0.519355     0.710042     0.472654
    0.301635     0.517243     0.464163
    0.460652     0.709410     0.533324
    0.298316     0.448223     0.527424
    0.385682     0.418888     0.455078
    0.437963     0.607895     0.456593
    0.431637     0.356379     0.546392
    0.383385     0.545830     0.543657
EA147  20.096 20.544 16.599 90.00 90.00 90.00 Sym.group:    0
1.0000
   20.095884     0.000000     0.000000
    0.000000    20.544483     0.000000
    0.000000     0.000000    16.599441
   O  Cu
   4   24 
Direct
    0.327997     0.545518     0.458188
    0.350966     0.438869     0.539769
    0.614208     0.613461     0.501418
    0.608314     0.414021     0.497360
    0.408515     0.687092     0.519449
    0.552262     0.709722     0.520456
    0.454519     0.508200     0.498902
    0.492738     0.611237     0.475708
    0.398235     0.497552     0.379608
    0.413917     0.505256     0.618135
    0.369861     0.563214     0.462330
    0.395934     0.433094     0.535272
    0.369493     0.612013     0.465785
    0.410157     0.386140     0.531333
    0.374296     0.394043     0.458866
    0.347040     0.595791     0.538643
    0.495757     0.362491     0.547801
    0.661689     0.498204     0.533456
    0.662951     0.526925     0.452765
    0.522209     0.363047     0.465450
    0.477604     0.328601     0.471453
    0.697882     0.483392     0.451301
    0.536930     0.325114     0.544563
    0.698981     0.540461     0.527035
    0.615279     0.564887     0.446146
    0.561901     0.409998     0.449850
    0.568329     0.619933     0.558258
    0.612036     0.461721     0.550702
EA149  20.140 20.490 16.599 90.00 90.00 90.00 Sym.group:    0
1.0000
   20.140264     0.000000     0.000000
    0.000000    20.490165     0.000000
    0.000000     0.000000    16.598635
   O  Cu
   4   24 
Direct
    0.674491     0.533258     0.459433
    0.644357     0.430405     0.545044
    0.396583     0.619640     0.498093
    0.383528     0.420255     0.498107
    0.607622     0.682233     0.522094
    0.464594     0.711658     0.505038
    0.545855     0.505574     0.500948
    0.516416     0.612262     0.473074
    0.601021     0.491443     0.381727
    0.586109     0.499779     0.620216
    0.634400     0.554469     0.463880
    0.599038     0.426608     0.537665
    0.638947     0.603211     0.467567
    0.581691     0.380438     0.531874
    0.614947     0.385400     0.461582
    0.659821     0.585393     0.540310
    0.494883     0.364376     0.543605
    0.335853     0.509426     0.538327
    0.341505     0.538710     0.456974
    0.466794     0.362913     0.460439
    0.508341     0.325129     0.464818
    0.302943     0.498130     0.458988
    0.450648     0.330141     0.536367
    0.302729     0.554803     0.534097
    0.392216     0.573409     0.446039
    0.431554     0.412706     0.447582
    0.441967     0.619573     0.553883
    0.381147     0.468656     0.552231
EA73   18.872 18.972 18.902 90.00 90.00 90.00 Sym.group:    0
1.0000
   18.871556     0.000000     0.000000
    0.000000    18.972363     0.000000
    0.000000     0.000000    18.901909
   O  Cu
   4   24 
Direct
    0.391660     0.381412     0.561529
    0.565926     0.396292     0.595708
    0.617205     0.627821     0.546163
    0.668273     0.491806     0.545090
    0.331111     0.416023     0.461957
    0.573254     0.344354     0.483825
    0.434897     0.332541     0.456688
    0.312974     0.553719     0.497040
    0.399029     0.552729     0.548804
    0.417124     0.415346     0.513801
    0.555167     0.427133     0.540876
    0.414518     0.652267     0.576766
    0.459861     0.499198     0.325255
    0.447557     0.668237     0.435202
    0.594242     0.547229     0.361056
    0.548750     0.485401     0.475706
    0.447890     0.533252     0.456819
    0.520976     0.559374     0.476290
    0.503007     0.550689     0.553281
    0.625605     0.460069     0.438125
    0.394278     0.569819     0.394808
    0.561903     0.629731     0.439464
    0.520690     0.609811     0.616049
    0.384428     0.462739     0.648461
    0.457695     0.450594     0.533227
    0.564153     0.357701     0.432751
    0.652982     0.443508     0.525088
    0.634845     0.581204     0.560170
EA48   18.779 19.339 18.556 90.00 90.00 90.00 Sym.group:    0
1.0000
   18.778771     0.000000     0.000000
    0.000000    19.338713     0.000000
    0.000000     0.000000    18.556255
   O  Cu
   4   24 
Direct
    0.563244     0.398084     0.545963
    0.502444     0.460057     0.374496
    0.464201     0.613840     0.454150
    0.470112     0.528019     0.625390
    0.544053     0.616251     0.528722
    0.403676     0.485599     0.411893
    0.450629     0.395530     0.443963
    0.424160     0.439599     0.587393
    0.386508     0.533710     0.555362
    0.564770     0.584305     0.426010
    0.618809     0.454510     0.471954
    0.607393     0.490495     0.574703
    0.588537     0.390442     0.615286
    0.466532     0.490629     0.318031
    0.475656     0.637449     0.384981
    0.469275     0.481480     0.681703
    0.501875     0.673393     0.541203
    0.350523     0.436523     0.415757
    0.485688     0.354161     0.394905
    0.351086     0.433833     0.583005
    0.377775     0.586517     0.604529
    0.623023     0.622082     0.448347
    0.634662     0.385930     0.459363
    0.675368     0.507562     0.552891
    0.594891     0.499425     0.383929
    0.562008     0.568744     0.616721
    0.468391     0.363910     0.539442
    0.374710     0.567922     0.459908
EA88   18.711 18.878 19.388 90.00 90.00 90.00 Sym.group:    0
1.0000
   18.711434     0.000000     0.000000
    0.000000    18.877528     0.000000
    0.000000     0.000000    19.388131
   O  Cu
   4   24 
Direct
    0.556457     0.589372     0.431295
    0.443545     0.589374     0.568705
    0.416002     0.411884     0.554096
    0.583995     0.411882     0.445904
    0.421887     0.405377     0.450499
    0.502920     0.514585     0.620084
    0.553993     0.593002     0.567407
    0.636039     0.484674     0.504165
    0.578110     0.405376     0.549500
    0.363961     0.484678     0.495835
    0.446009     0.593003     0.432594
    0.497080     0.514585     0.379916
    0.589293     0.577581     0.368321
    0.410711     0.577584     0.631679
    0.354547     0.428785     0.589546
    0.645451     0.428781     0.410455
    0.418630     0.336982     0.475389
    0.562068     0.532929     0.658665
    0.530748     0.662171     0.572086
    0.673731     0.462968     0.561543
    0.581365     0.336980     0.524611
    0.326267     0.462974     0.438456
    0.469257     0.662171     0.427914
    0.437933     0.532931     0.341334
    0.370622     0.585340     0.498479
    0.501572     0.414347     0.389417
    0.629381     0.585336     0.501521
    0.498426     0.414346     0.610584
EA118  18.557 19.723 19.440 90.00 90.00 90.00 Sym.group:    0
1.0000
   18.557316     0.000000     0.000000
    0.000000    19.723463     0.000000
    0.000000     0.000000    19.440317
   O  Cu
   4   24 
Direct
    0.375533     0.615596     0.478602
    0.328043     0.517286     0.562546
    0.730830     0.503161     0.526944
    0.551976     0.500954     0.336751
    0.534549     0.690223     0.524367
    0.363172     0.351239     0.526024
    0.464563     0.513337     0.525942
    0.476762     0.400444     0.558586
    0.409198     0.527714     0.418533
    0.423249     0.544484     0.628750
    0.423785     0.605792     0.483293
    0.365630     0.486669     0.561942
    0.453794     0.646667     0.481732
    0.350789     0.438652     0.564224
    0.324088     0.460038     0.497510
    0.422691     0.652500     0.545695
    0.685196     0.611387     0.536731
    0.684111     0.546354     0.627569
    0.450241     0.430664     0.352268
    0.554112     0.306565     0.590029
    0.638410     0.435264     0.395530
    0.662841     0.572217     0.453736
    0.545886     0.310971     0.499623
    0.484275     0.553095     0.384169
    0.445854     0.365742     0.415025
    0.685142     0.430324     0.568236
    0.550125     0.583209     0.465007
    0.615154     0.399454     0.490635
EA2    17.153 19.014 19.014 90.00 90.00 90.00 Sym.group:    0
1.0000
   17.152879     0.000000     0.000000
    0.000000    19.013974     0.000000
    0.000000     0.000000    19.013974
   O  Cu
   4   24 
Direct
    0.357236     0.396622     0.440927
    0.357236     0.559073     0.396622
    0.357236     0.603378     0.559073
    0.357236     0.440927     0.603378
    0.455208     0.667613     0.523573
    0.455208     0.476427     0.667613
    0.455208     0.332387     0.476427
    0.455208     0.523573     0.332387
    0.455208     0.632437     0.394596
    0.455208     0.394596     0.367563
    0.455208     0.367563     0.605404
    0.455208     0.605404     0.632437
    0.418296     0.453206     0.581890
    0.418296     0.418110     0.453206
    0.418296     0.546794     0.418110
    0.418296     0.581890     0.546794
    0.573385     0.486034     0.448790
    0.573385     0.551210     0.486034
    0.573385     0.513966     0.551210
    0.573385     0.448790     0.513966
    0.620334     0.542365     0.563495
    0.620334     0.436505     0.542365
    0.620334     0.457635     0.436505
    0.620334     0.563495     0.457635
    0.620334     0.504263     0.423788
    0.620334     0.423788     0.495737
    0.620334     0.495737     0.576212
    0.620334     0.576212     0.504263
EA137  18.591 18.944 19.682 90.00 90.00 90.00 Sym.group:    0
1.0000
   18.590611     0.000000     0.000000
    0.000000    18.943631     0.000000
    0.000000     0.000000    19.681579
   O  Cu
   4   24 
Direct
    0.404707     0.416118     0.413386
    0.584344     0.391202     0.430465
    0.682662     0.599723     0.507053
    0.692319     0.460871     0.512117
    0.292146     0.537096     0.476752
    0.328609     0.538879     0.596018
    0.374099     0.578357     0.518258
    0.652494     0.624497     0.576028
    0.472467     0.435806     0.614692
    0.427145     0.401988     0.529453
    0.381205     0.406454     0.512671
    0.453901     0.654372     0.603338
    0.311437     0.596488     0.439587
    0.456600     0.544314     0.666591
    0.475257     0.375874     0.599640
    0.541879     0.345095     0.532082
    0.455977     0.576086     0.439590
    0.423519     0.444366     0.466905
    0.565816     0.424628     0.480434
    0.507352     0.665252     0.425206
    0.555907     0.483302     0.543131
    0.555138     0.551566     0.463696
    0.608020     0.600922     0.414815
    0.447788     0.490795     0.336984
    0.477856     0.468006     0.462590
    0.658037     0.419531     0.522919
    0.690569     0.551551     0.495543
    0.522751     0.416862     0.420058
EA91   19.555 21.362 19.079 90.00 90.00 90.00 Sym.group:    0
1.0000
   19.554828     0.000000     0.000000
    0.000000    21.362254     0.000000
    0.000000     0.000000    19.079170
   O  Cu
   4   24 
Direct
    0.686402     0.408804     0.522675
    0.686402     0.591196     0.477325
    0.332790     0.489865     0.396709
    0.332790     0.510135     0.603291
    0.386711     0.306864     0.353036
    0.386711     0.693136     0.646964
    0.536117     0.333795     0.652641
    0.536117     0.666205     0.347359
    0.451520     0.500000     0.500000
    0.567894     0.500000     0.500000
    0.500896     0.591038     0.527706
    0.500896     0.408962     0.472294
    0.417026     0.589276     0.401257
    0.417026     0.410724     0.598743
    0.635089     0.435763     0.391190
    0.635089     0.564237     0.608810
    0.639537     0.404092     0.523767
    0.639537     0.595908     0.476233
    0.376212     0.472327     0.401286
    0.376212     0.527673     0.598714
    0.624402     0.357432     0.557257
    0.624402     0.642568     0.442743
    0.377031     0.424876     0.365924
    0.377031     0.575124     0.634076
    0.643125     0.601519     0.376987
    0.643125     0.398481     0.623013
    0.334955     0.604197     0.571371
    0.334955     0.395803     0.428629
EA104  19.781 16.620 16.770 90.00 90.00 90.00 Sym.group:    0
1.0000
   19.781084     0.000000     0.000000
    0.000000    16.619585     0.000000
    0.000000     0.000000    16.769515
   O  Cu
   4   24 
Direct
    0.414834     0.573342     0.595750
    0.420846     0.608889     0.436600
    0.414834     0.426658     0.404250
    0.420846     0.391111     0.563400
    0.417826     0.374122     0.494730
    0.417853     0.506605     0.380089
    0.417826     0.625878     0.505270
    0.417853     0.493395     0.619911
    0.573594     0.446402     0.469872
    0.573774     0.469717     0.553145
    0.573594     0.553598     0.530128
    0.573774     0.530283     0.446855
    0.517111     0.441900     0.467461
    0.517353     0.467089     0.557545
    0.517111     0.558100     0.532539
    0.517353     0.532911     0.442455
    0.653218     0.556382     0.484513
    0.653217     0.484366     0.444108
    0.653218     0.443618     0.515487
    0.653217     0.515634     0.555892
    0.292598     0.421377     0.456010
    0.292212     0.455438     0.577845
    0.292598     0.578623     0.543990
    0.292212     0.544562     0.422155
    0.627782     0.531496     0.612504
    0.627783     0.613351     0.468892
    0.627782     0.468504     0.387496
    0.627783     0.386649     0.531108
EA119  19.561 19.604 18.380 90.00 90.00 90.00 Sym.group:    0
1.0000
   19.560728     0.000000     0.000000
    0.000000    19.604038     0.000000
    0.000000     0.000000    18.380283
   O  Cu
   4   24 
Direct
    0.640896     0.620419     0.464148
    0.343764     0.617350     0.475732
    0.443583     0.334102     0.442080
    0.446097     0.422912     0.618397
    0.691586     0.563040     0.458826
    0.403039     0.663229     0.477203
    0.699121     0.398009     0.447124
    0.577725     0.665032     0.470393
    0.504004     0.632304     0.538669
    0.677695     0.476717     0.521024
    0.460886     0.582315     0.566578
    0.630177     0.522570     0.555729
    0.634553     0.426750     0.548935
    0.562311     0.583363     0.562624
    0.399544     0.561859     0.420171
    0.572421     0.563644     0.413431
    0.584741     0.348099     0.414132
    0.587256     0.436909     0.590449
    0.352702     0.504547     0.400071
    0.361962     0.352320     0.463213
    0.364314     0.420046     0.609366
    0.355054     0.572273     0.546224
    0.423343     0.463337     0.576499
    0.416214     0.556312     0.498284
    0.416647     0.473450     0.408591
    0.423775     0.380475     0.486806
    0.513401     0.389160     0.466389
    0.513189     0.469457     0.558909
EA16   19.777 16.321 16.321 90.00 90.00 90.00 Sym.group:    0
1.0000
   19.777262     0.000000     0.000000
    0.000000    16.321029     0.000000
    0.000000     0.000000    16.321029
   O  Cu
   4   24 
Direct
    0.417824     0.611983     0.557404
    0.417824     0.557404     0.388017
    0.417824     0.388017     0.442596
    0.417824     0.442596     0.611983
    0.417824     0.387230     0.555844
    0.417824     0.444156     0.387230
    0.417824     0.612770     0.444156
    0.417824     0.555844     0.612770
    0.573698     0.437273     0.499564
    0.573698     0.499564     0.562727
    0.573698     0.562727     0.500436
    0.573698     0.500436     0.437273
    0.517235     0.432042     0.499528
    0.517235     0.499528     0.567958
    0.517235     0.567958     0.500472
    0.517235     0.500472     0.432042
    0.653247     0.542425     0.458160
    0.653247     0.458160     0.457575
    0.653247     0.457575     0.541840
    0.653247     0.541840     0.542425
    0.292365     0.408053     0.499362
    0.292365     0.499362     0.591947
    0.292365     0.591947     0.500638
    0.292365     0.500638     0.408053
    0.627807     0.584167     0.585344
    0.627807     0.585344     0.415833
    0.627807     0.415833     0.414656
    0.627807     0.414656     0.584167
EA113  18.992 19.322 18.497 90.00 90.00 90.00 Sym.group:    0
1.0000
   18.992157     0.000000     0.000000
    0.000000    19.321926     0.000000
    0.000000     0.000000    18.496775
   O  Cu
   4   24 
Direct
    0.323829     0.488611     0.514150
    0.603145     0.366399     0.458674
    0.410934     0.588744     0.477720
    0.507521     0.539785     0.620179
    0.659942     0.424161     0.487061
    0.366687     0.418802     0.552531
    0.496681     0.408104     0.390915
    0.478967     0.423885     0.621125
    0.564120     0.438539     0.615943
    0.422560     0.454573     0.395961
    0.427573     0.359766     0.492722
    0.530533     0.344197     0.531800
    0.472215     0.302895     0.517249
    0.377373     0.526720     0.560088
    0.536655     0.560122     0.402702
    0.585123     0.467909     0.421495
    0.594905     0.523183     0.559558
    0.537916     0.610048     0.543097
    0.477656     0.506258     0.326463
    0.372393     0.590256     0.420101
    0.555021     0.514961     0.662845
    0.360320     0.597088     0.576703
    0.606173     0.575193     0.387872
    0.640987     0.580697     0.542769
    0.512006     0.651462     0.598183
    0.499530     0.636236     0.459558
    0.700748     0.566278     0.452216
    0.378487     0.535129     0.410320
EA74   19.461 19.371 19.568 90.00 90.00 90.00 Sym.group:    0
1.0000
   19.461213     0.000000     0.000000
    0.000000    19.370505     0.000000
    0.000000     0.000000    19.568422
   O  Cu
   4   24 
Direct
    0.400019     0.485336     0.585590
    0.575362     0.403546     0.524834
    0.484839     0.366660     0.383125
    0.347071     0.532924     0.395452
    0.634972     0.503711     0.531176
    0.556998     0.476129     0.612526
    0.416664     0.404653     0.504698
    0.647970     0.389461     0.499103
    0.664414     0.528735     0.597606
    0.552640     0.403846     0.640252
    0.552648     0.661119     0.614996
    0.397699     0.366991     0.569255
    0.503645     0.361266     0.457908
    0.472837     0.532810     0.648157
    0.643892     0.581594     0.459534
    0.456897     0.686800     0.450216
    0.357920     0.385530     0.531093
    0.341198     0.574605     0.588757
    0.529170     0.551594     0.326035
    0.545077     0.676929     0.528109
    0.566762     0.444883     0.361109
    0.435986     0.602710     0.372810
    0.326158     0.496209     0.504320
    0.399258     0.500995     0.506847
    0.463169     0.562970     0.430319
    0.539271     0.471127     0.423510
    0.526651     0.606160     0.520690
    0.660813     0.440707     0.431972
EA87   19.216 18.657 19.326 90.00 90.00 90.00 Sym.group:    0
1.0000
   19.215942     0.000000     0.000000
    0.000000    18.656974     0.000000
    0.000000     0.000000    19.326164
   O  Cu
   4   24 
Direct
    0.331122     0.395907     0.514690
    0.480785     0.641186     0.639882
    0.494416     0.449190     0.310073
    0.693676     0.513717     0.535354
    0.420630     0.316127     0.527795
    0.387460     0.386975     0.618670
    0.648426     0.432207     0.611563
    0.549890     0.557398     0.318402
    0.499950     0.699535     0.537473
    0.671271     0.398988     0.499850
    0.430994     0.552131     0.323171
    0.391380     0.656639     0.563078
    0.609633     0.519810     0.631949
    0.386028     0.481046     0.371618
    0.578720     0.647428     0.557242
    0.425619     0.351717     0.439192
    0.404561     0.645465     0.469444
    0.575532     0.434449     0.358529
    0.520884     0.626240     0.380102
    0.335407     0.486474     0.552015
    0.482539     0.376799     0.623336
    0.425823     0.560613     0.644205
    0.592015     0.351495     0.527117
    0.663238     0.518464     0.445251
    0.580437     0.589401     0.464071
    0.505507     0.486909     0.622255
    0.528512     0.389114     0.446396
    0.385544     0.534577     0.467279
EA78   18.477 19.422 18.897 90.00 90.00 90.00 Sym.group:    0
1.0000
   18.477183     0.000000     0.000000
    0.000000    19.421797     0.000000
    0.000000     0.000000    18.896624
   O  Cu
   4   24 
Direct
    0.518089     0.353248     0.422359
    0.447608     0.549551     0.368367
    0.586081     0.645898     0.452114
    0.390524     0.453517     0.662002
    0.526153     0.589511     0.391534
    0.443013     0.428786     0.389072
    0.611086     0.419180     0.446003
    0.480405     0.337257     0.536546
    0.439586     0.372918     0.454925
    0.558414     0.360977     0.502939
    0.539985     0.429234     0.395349
    0.616982     0.540225     0.402779
    0.331015     0.450766     0.465475
    0.363451     0.546318     0.438007
    0.298948     0.505808     0.428590
    0.683188     0.567338     0.432830
    0.422072     0.646482     0.585432
    0.597869     0.388405     0.626597
    0.556105     0.588295     0.646198
    0.683522     0.472668     0.534665
    0.501178     0.486911     0.577692
    0.547763     0.532739     0.527694
    0.428283     0.518557     0.544644
    0.474867     0.564385     0.494646
    0.518628     0.473912     0.663621
    0.625470     0.579020     0.548948
    0.351437     0.546493     0.587823
    0.458280     0.651601     0.473150
EA127  17.320 19.686 19.932 90.00 90.00 90.00 Sym.group:    0
1.0000
   17.320476     0.000000     0.000000
    0.000000    19.686392     0.000000
    0.000000     0.000000    19.931670
   O  Cu
   4   24 
Direct
    0.704320     0.539754     0.527763
    0.672180     0.426535     0.461724
    0.366199     0.418284     0.507392
    0.296084     0.462164     0.475989
    0.554924     0.507301     0.503507
    0.618887     0.492856     0.600333
    0.656000     0.560361     0.527176
    0.619017     0.424316     0.468980
    0.598588     0.376540     0.473801
    0.640296     0.382214     0.532313
    0.496398     0.359340     0.465208
    0.466477     0.359805     0.535878
    0.515811     0.320230     0.530528
    0.267552     0.496578     0.544671
    0.445304     0.323671     0.471594
    0.424372     0.411973     0.548483
    0.424270     0.710143     0.486339
    0.590907     0.705181     0.482568
    0.432850     0.516585     0.506033
    0.503932     0.615239     0.521818
    0.372566     0.521808     0.408380
    0.615777     0.514566     0.402875
    0.355867     0.589084     0.537179
    0.345935     0.448967     0.478597
    0.643309     0.631313     0.527046
    0.367410     0.639529     0.533291
    0.674241     0.617714     0.466377
    0.330529     0.627949     0.474156
EA69   19.450 19.399 18.441 90.00 90.00 90.00 Sym.group:    0
1.0000
   19.449903     0.000000     0.000000
    0.000000    19.399162     0.000000
    0.000000     0.000000    18.441223
   O  Cu
   4   24 
Direct
    0.647247     0.455454     0.461184
    0.638099     0.564766     0.541864
    0.453664     0.678677     0.490852
    0.309954     0.470606     0.574609
    0.566874     0.320335     0.516359
    0.523325     0.678478     0.477767
    0.529316     0.497676     0.496342
    0.483633     0.397893     0.471120
    0.572442     0.505003     0.381865
    0.583367     0.501007     0.615260
    0.605556     0.439903     0.463367
    0.593508     0.570852     0.535736
    0.603570     0.391998     0.466202
    0.580246     0.617084     0.532204
    0.607573     0.607795     0.462537
    0.634346     0.407661     0.538525
    0.402141     0.486229     0.345391
    0.466342     0.560351     0.492716
    0.413516     0.483868     0.523504
    0.447403     0.489610     0.439247
    0.458409     0.448573     0.543048
    0.449903     0.527950     0.541797
    0.428045     0.446305     0.480085
    0.419540     0.525683     0.478835
    0.439254     0.394749     0.604688
    0.420105     0.573480     0.601873
    0.370887     0.389641     0.462920
    0.351737     0.568371     0.460104
EA135  17.902 19.171 19.827 90.00 90.00 90.00 Sym.group:    0
1.0000
   17.902094     0.000000     0.000000
    0.000000    19.171126     0.000000
    0.000000     0.000000    19.826896
   O  Cu
   4   24 
Direct
    0.686138     0.542561     0.416514
    0.380255     0.401071     0.553431
    0.446777     0.610451     0.425397
    0.421750     0.599938     0.573638
    0.711053     0.445424     0.483435
    0.549926     0.563676     0.625437
    0.670240     0.500402     0.589928
    0.644872     0.435778     0.377694
    0.593754     0.558359     0.545266
    0.634475     0.503506     0.439015
    0.486802     0.467864     0.491937
    0.463367     0.449797     0.603714
    0.521984     0.375690     0.499174
    0.572312     0.364670     0.508014
    0.544603     0.359384     0.573255
    0.721836     0.510496     0.497598
    0.556498     0.626489     0.531838
    0.448296     0.358080     0.449735
    0.433741     0.636823     0.517671
    0.447621     0.547601     0.390511
    0.299529     0.609032     0.462697
    0.279754     0.548201     0.555000
    0.281147     0.444549     0.497466
    0.300922     0.505379     0.405163
    0.348468     0.470505     0.510912
    0.496141     0.609105     0.455790
    0.651318     0.622506     0.529803
    0.406421     0.332662     0.489969
EA129  18.857 19.404 19.188 90.00 90.00 90.00 Sym.group:    0
1.0000
   18.856872     0.000000     0.000000
    0.000000    19.403595     0.000000
    0.000000     0.000000    19.187745
   O  Cu
   4   24 
Direct
    0.432216     0.641319     0.485992
    0.347030     0.535899     0.448886
    0.333564     0.358333     0.582359
    0.659033     0.501860     0.634635
    0.487771     0.506622     0.494060
    0.445216     0.584341     0.584098
    0.446187     0.499188     0.381200
    0.477890     0.615978     0.489304
    0.376062     0.498835     0.465837
    0.520827     0.641575     0.474297
    0.346326     0.462211     0.484425
    0.331454     0.518523     0.535234
    0.639464     0.578520     0.575617
    0.625404     0.591571     0.440674
    0.496790     0.665126     0.517904
    0.681647     0.438172     0.513706
    0.517819     0.436071     0.441232
    0.516971     0.490223     0.551302
    0.576072     0.454383     0.502812
    0.557801     0.505020     0.516539
    0.542289     0.443668     0.548845
    0.557949     0.473067     0.451424
    0.542437     0.411716     0.483730
    0.471506     0.455340     0.539161
    0.472335     0.424792     0.477239
    0.612646     0.495524     0.362653
    0.567290     0.316514     0.456630
    0.418006     0.455609     0.560206
EA93   19.977 19.767 17.734 90.00 90.00 90.00 Sym.group:    0
1.0000
   19.976949     0.000000     0.000000
    0.000000    19.766788     0.000000
    0.000000     0.000000    17.733879
   O  Cu
   4   24 
Direct
    0.500000     0.500000     0.341806
    0.336730     0.536537     0.481854
    0.612943     0.624630     0.481853
    0.550325     0.338833     0.481855
    0.474561     0.336744     0.524453
    0.652616     0.559363     0.524452
    0.372823     0.603893     0.524453
    0.405986     0.478539     0.395788
    0.528616     0.593014     0.395788
    0.565397     0.428446     0.395788
    0.446477     0.419827     0.615015
    0.595464     0.493240     0.615014
    0.458061     0.586932     0.615015
    0.430193     0.500053     0.629047
    0.534950     0.561071     0.629046
    0.534859     0.438875     0.629045
    0.474765     0.434285     0.387180
    0.568929     0.510772     0.387180
    0.456305     0.554944     0.387180
    0.446923     0.654617     0.476706
    0.659032     0.469145     0.476705
    0.394044     0.376237     0.476706
    0.620019     0.392181     0.535701
    0.532383     0.658954     0.535701
    0.347599     0.448866     0.535702
    0.684934     0.407639     0.506989
    0.328387     0.384321     0.506990
    0.486680     0.708040     0.506990
EA55   18.614 19.037 18.951 90.00 90.00 90.00 Sym.group:    0
1.0000
   18.613914     0.000000     0.000000
    0.000000    19.036687     0.000000
    0.000000     0.000000    18.950548
   O  Cu
   4   24 
Direct
    0.355141     0.634882     0.472546
    0.353604     0.371944     0.476753
    0.463192     0.527389     0.623605
    0.448118     0.370439     0.568376
    0.304014     0.584501     0.471332
    0.418162     0.324674     0.481461
    0.303112     0.429918     0.473806
    0.420195     0.672437     0.475895
    0.330937     0.504511     0.536429
    0.383016     0.545224     0.565819
    0.452264     0.597639     0.568539
    0.382491     0.455471     0.567255
    0.423840     0.575214     0.431367
    0.422946     0.422233     0.433815
    0.567315     0.592784     0.482156
    0.559304     0.557947     0.554336
    0.547929     0.463797     0.563424
    0.544565     0.404483     0.500333
    0.660108     0.429539     0.429931
    0.672485     0.531975     0.420043
    0.676145     0.596509     0.488687
    0.667430     0.558606     0.567220
    0.655053     0.456169     0.577108
    0.651393     0.391636     0.508464
    0.700401     0.492523     0.501066
    0.600194     0.496762     0.494253
    0.472695     0.477323     0.346917
    0.563951     0.533470     0.419064
EA95   20.116 19.928 17.587 90.00 90.00 90.00 Sym.group:    0
1.0000
   20.115828     0.000000     0.000000
    0.000000    19.927578     0.000000
    0.000000     0.000000    17.587377
   O  Cu
   4   24 
Direct
    0.497692     0.504230     0.344013
    0.349621     0.419653     0.490138
    0.508692     0.660554     0.493775
    0.640548     0.409526     0.480334
    0.583879     0.357342     0.519064
    0.586542     0.645161     0.525026
    0.335903     0.496975     0.526054
    0.438259     0.427468     0.400815
    0.460263     0.592459     0.399205
    0.591738     0.489335     0.397875
    0.512258     0.403133     0.612153
    0.581103     0.554828     0.612018
    0.415695     0.538451     0.612738
    0.449693     0.454374     0.624765
    0.491521     0.567807     0.618084
    0.568108     0.474371     0.623257
    0.518260     0.436718     0.387952
    0.542832     0.554882     0.393747
    0.428531     0.517623     0.387008
    0.357803     0.584452     0.478835
    0.645332     0.579013     0.474651
    0.496091     0.337288     0.473594
    0.664404     0.494449     0.532656
    0.419423     0.644353     0.537575
    0.416361     0.359159     0.537370
    0.704211     0.547106     0.501878
    0.442534     0.299243     0.504659
    0.352703     0.650047     0.510761
EA1    20.081 19.907 17.532 90.00 90.00 90.00 Sym.group:    0
1.0000
   20.080668     0.000000     0.000000
    0.000000    19.906904     0.000000
    0.000000     0.000000    17.531938
   O  Cu
   4   24 
Direct
    0.500000     0.500000     0.343444
    0.369624     0.603196     0.488097
    0.653784     0.562296     0.488097
    0.476591     0.334508     0.488097
    0.404180     0.363607     0.523500
    0.665007     0.484490     0.523500
    0.430812     0.651903     0.523500
    0.406889     0.522509     0.398884
    0.565880     0.570085     0.398884
    0.527231     0.407405     0.398884
    0.417108     0.451661     0.612713
    0.582947     0.451756     0.612713
    0.499946     0.596583     0.612713
    0.437646     0.530706     0.622474
    0.557539     0.539120     0.622474
    0.504816     0.430175     0.622474
    0.448904     0.452644     0.389122
    0.566204     0.479041     0.389122
    0.484892     0.568314     0.389122
    0.519233     0.664343     0.475614
    0.631477     0.401027     0.475614
    0.349290     0.434631     0.475614
    0.564860     0.347999     0.535982
    0.598068     0.632662     0.535982
    0.337072     0.519340     0.535982
    0.629442     0.334535     0.505798
    0.293222     0.469654     0.505798
    0.577336     0.695811     0.505798
EA114  19.107 19.446 18.827 90.00 90.00 90.00 Sym.group:    0
1.0000
   19.107029     0.000000     0.000000
    0.000000    19.445562     0.000000
    0.000000     0.000000    18.826502
   O  Cu
   4   24 
Direct
    0.496733     0.615216     0.551794
    0.399892     0.517536     0.418203
    0.567460     0.380302     0.443637
    0.586919     0.359068     0.611411
    0.512678     0.609276     0.439184
    0.391725     0.431429     0.486844
    0.377863     0.531743     0.528913
    0.593458     0.580988     0.510800
    0.539353     0.474349     0.371842
    0.504380     0.370549     0.360647
    0.547103     0.642578     0.597632
    0.366737     0.466781     0.377740
    0.469617     0.669494     0.451829
    0.337993     0.429729     0.538989
    0.338373     0.583692     0.490497
    0.623157     0.615343     0.451152
    0.604732     0.489343     0.343063
    0.474645     0.554777     0.361016
    0.425879     0.572677     0.610197
    0.456100     0.385885     0.557185
    0.393124     0.366102     0.574669
    0.659289     0.541512     0.613843
    0.665621     0.434969     0.571731
    0.386076     0.475620     0.606488
    0.441717     0.478754     0.558972
    0.541051     0.544217     0.573592
    0.604390     0.455098     0.538746
    0.693936     0.422974     0.459384
EA25   19.002 18.800 18.311 90.00 90.00 90.00 Sym.group:    0
1.0000
   19.002427     0.000000     0.000000
    0.000000    18.799561     0.000000
    0.000000     0.000000    18.311338
   O  Cu
   4   24 
Direct
    0.624046     0.479480     0.401380
    0.420396     0.401674     0.401380
    0.455558     0.618846     0.401380
    0.420396     0.598326     0.598620
    0.455558     0.381154     0.598620
    0.624046     0.520520     0.598620
    0.544442     0.618846     0.401380
    0.579604     0.401674     0.401380
    0.375954     0.479480     0.401380
    0.579604     0.598326     0.598620
    0.375954     0.520520     0.598620
    0.544442     0.381154     0.598620
    0.667411     0.534551     0.559020
    0.445897     0.336178     0.559020
    0.386692     0.629271     0.559020
    0.445897     0.663822     0.440980
    0.386692     0.370729     0.440980
    0.667411     0.465449     0.440980
    0.613308     0.629271     0.559020
    0.554103     0.336178     0.559020
    0.332589     0.534551     0.559020
    0.554103     0.663822     0.440980
    0.332589     0.465449     0.440980
    0.613308     0.370729     0.440980
    0.500000     0.500000     0.404227
    0.500000     0.500000     0.595773
    0.500000     0.500000     0.654859
    0.500000     0.500000     0.345141
EA162  20.327 17.678 17.861 90.00 90.00 90.00 Sym.group:    0
1.0000
   20.326694     0.000000     0.000000
    0.000000    17.678208     0.000000
    0.000000     0.000000    17.860962
   O  Cu
   4   24 
Direct
    0.392838     0.593342     0.574036
    0.553753     0.346230     0.487480
    0.489774     0.452808     0.367953
    0.488531     0.613978     0.427399
    0.422162     0.615735     0.442056
    0.440416     0.330935     0.537338
    0.447633     0.503221     0.657911
    0.364539     0.504540     0.520784
    0.376181     0.387351     0.443808
    0.472815     0.596855     0.567890
    0.333666     0.542891     0.436066
    0.350456     0.457254     0.605841
    0.606033     0.537249     0.628197
    0.385077     0.594900     0.470476
    0.403535     0.513214     0.628791
    0.623794     0.433781     0.496166
    0.587565     0.580913     0.444301
    0.551449     0.566103     0.476699
    0.577326     0.459447     0.545180
    0.566533     0.508510     0.433054
    0.647542     0.610527     0.526937
    0.689812     0.445681     0.499996
    0.462240     0.551054     0.365644
    0.559651     0.346008     0.570603
    0.505308     0.368125     0.397707
    0.711779     0.549475     0.483525
    0.403630     0.428918     0.433593
    0.585963     0.560952     0.530566
EA66   18.676 18.281 19.116 90.00 90.00 90.00 Sym.group:    0
1.0000
   18.675671     0.000000     0.000000
    0.000000    18.280550     0.000000
    0.000000     0.000000    19.115613
   O  Cu
   4   24 
Direct
    0.614925     0.407941     0.569009
    0.445394     0.648515     0.487966
    0.511362     0.545494     0.377439
    0.511107     0.389506     0.432367
    0.583276     0.386978     0.445821
    0.569631     0.668237     0.539356
    0.555539     0.491915     0.645161
    0.644321     0.494681     0.519118
    0.636723     0.607392     0.449889
    0.527901     0.403724     0.563213
    0.680175     0.456962     0.438689
    0.657884     0.541295     0.598887
    0.383911     0.463865     0.619628
    0.623397     0.406870     0.471888
    0.602820     0.484719     0.619771
    0.367732     0.566015     0.494956
    0.403730     0.423216     0.448097
    0.443242     0.436270     0.478128
    0.417718     0.539184     0.541147
    0.428120     0.492854     0.436824
    0.337341     0.395497     0.525888
    0.295606     0.556497     0.498518
    0.540589     0.450188     0.374538
    0.441872     0.647884     0.565518
    0.495448     0.627720     0.405680
    0.269200     0.457066     0.484855
    0.605407     0.568029     0.439131
    0.405627     0.441486     0.528519
EA79   19.435 18.748 18.118 90.00 90.00 90.00 Sym.group:    0
1.0000
   19.434613     0.000000     0.000000
    0.000000    18.747830     0.000000
    0.000000     0.000000    18.118241
   O  Cu
   4   24 
Direct
    0.675833     0.528502     0.466027
    0.661252     0.417569     0.548612
    0.566674     0.640924     0.487947
    0.310643     0.488231     0.503040
    0.544524     0.282762     0.491158
    0.399464     0.293159     0.483821
    0.553374     0.481290     0.501494
    0.484077     0.385466     0.524492
    0.601692     0.463511     0.391252
    0.603786     0.491993     0.616731
    0.633525     0.543877     0.467374
    0.615898     0.408477     0.542832
    0.632397     0.361506     0.473668
    0.660568     0.587727     0.538740
    0.522438     0.602711     0.610599
    0.365558     0.479930     0.622520
    0.531804     0.588353     0.373948
    0.374924     0.465571     0.385869
    0.373057     0.566131     0.495639
    0.363857     0.417768     0.509253
    0.484253     0.631679     0.489155
    0.357248     0.593967     0.588764
    0.364775     0.582429     0.398582
    0.565482     0.600409     0.579913
    0.344032     0.516144     0.588594
    0.572431     0.589757     0.404349
    0.350980     0.505492     0.413030
    0.485455     0.484665     0.502599
EA146  19.261 18.772 18.899 90.00 90.00 90.00 Sym.group:    0
1.0000
   19.261045     0.000000     0.000000
    0.000000    18.771877     0.000000
    0.000000     0.000000    18.899439
   O  Cu
   4   24 
Direct
    0.521191     0.716179     0.583401
    0.364595     0.498936     0.580266
    0.495201     0.319981     0.521493
    0.355240     0.396670     0.496508
    0.530926     0.682262     0.402987
    0.325907     0.569169     0.471014
    0.443638     0.631165     0.524045
    0.667377     0.574580     0.511455
    0.606800     0.512835     0.570786
    0.498570     0.619683     0.526389
    0.403120     0.505790     0.535214
    0.665185     0.423689     0.598501
    0.684561     0.521931     0.395235
    0.604099     0.405067     0.458257
    0.573365     0.474554     0.316366
    0.454688     0.487378     0.475544
    0.546073     0.523723     0.477193
    0.513284     0.443465     0.481556
    0.525309     0.446793     0.559806
    0.379126     0.481596     0.413009
    0.580293     0.547547     0.412984
    0.537574     0.344916     0.396546
    0.546738     0.383597     0.610606
    0.542283     0.556704     0.674079
    0.493909     0.554017     0.545656
    0.356124     0.589424     0.430461
    0.338654     0.448861     0.488019
    0.446168     0.339490     0.542625
EA15   18.607 17.835 17.835 90.00 90.00 90.00 Sym.group:    0
1.0000
   18.606575     0.000000     0.000000
    0.000000    17.835265     0.000000
    0.000000     0.000000    17.835265
   O  Cu
   4   24 
Direct
    0.425157     0.354354     0.458805
    0.425157     0.458805     0.645646
    0.425157     0.645646     0.541195
    0.425157     0.541195     0.354354
    0.574843     0.354354     0.458805
    0.574843     0.458805     0.645646
    0.574843     0.645646     0.541195
    0.574843     0.541195     0.354354
    0.660335     0.537448     0.382139
    0.660335     0.382139     0.462552
    0.660335     0.462552     0.617861
    0.660335     0.617861     0.537448
    0.339665     0.537448     0.382139
    0.339665     0.382139     0.462552
    0.339665     0.462552     0.617861
    0.339665     0.617861     0.537448
    0.404866     0.500157     0.592439
    0.404866     0.592439     0.499843
    0.404866     0.499843     0.407561
    0.404866     0.407561     0.500157
    0.595134     0.500157     0.592439
    0.595134     0.592439     0.499843
    0.595134     0.499843     0.407561
    0.595134     0.407561     0.500157
    0.500000     0.592832     0.502738
    0.500000     0.502738     0.407168
    0.500000     0.407168     0.497262
    0.500000     0.497262     0.592832
EA39   20.949 20.949 15.168 90.00 90.00 90.00 Sym.group:    0
1.0000
   20.949057     0.000000     0.000000
    0.000000    20.949057     0.000000
    0.000000     0.000000    15.167941
   O  Cu
   4   24 
Direct
    0.643880     0.633416     0.465134
    0.633416     0.356120     0.465134
    0.356120     0.366584     0.465134
    0.366584     0.643880     0.465134
    0.686453     0.574592     0.465874
    0.574592     0.313547     0.465874
    0.313547     0.425408     0.465874
    0.425408     0.686453     0.465874
    0.319700     0.588432     0.465874
    0.411568     0.319700     0.465874
    0.680300     0.411568     0.465874
    0.588432     0.680300     0.465874
    0.494136     0.344608     0.542306
    0.344608     0.505864     0.542306
    0.505864     0.655392     0.542306
    0.655392     0.494136     0.542306
    0.543250     0.390171     0.575825
    0.390171     0.456750     0.575825
    0.456750     0.609829     0.575825
    0.609829     0.543250     0.575825
    0.448596     0.393742     0.575825
    0.606258     0.448596     0.575825
    0.551404     0.606258     0.575825
    0.393742     0.551404     0.575825
    0.416289     0.422376     0.409162
    0.422376     0.583711     0.409162
    0.583711     0.577624     0.409162
    0.577624     0.416289     0.409162
