EA23   17.621 17.281 17.394 90.00 90.00 90.00 Sym.group:    0
1.0000
   17.621369     0.000000     0.000000
    0.000000    17.280551     0.000000
    0.000000     0.000000    17.393716
   O  Cu
   4   24 
Direct
    0.630846     0.629551     0.536103
    0.630845     0.505472     0.633566
    0.630844     0.373830     0.546445
    0.630844     0.416549     0.395138
    0.630845     0.574594     0.388747
    0.348156     0.500001     0.500000
    0.416774     0.500001     0.500000
    0.487503     0.637380     0.487727
    0.487503     0.554201     0.626014
    0.487501     0.396118     0.590154
    0.487501     0.381596     0.429704
    0.487502     0.530704     0.366402
    0.579027     0.510304     0.639854
    0.579026     0.369302     0.552953
    0.579026     0.408920     0.392872
    0.579027     0.574407     0.380838
    0.579028     0.637065     0.533482
    0.383146     0.597809     0.558143
    0.383145     0.474566     0.610383
    0.383144     0.386473     0.510078
    0.383144     0.455271     0.395846
    0.383145     0.585884     0.425551
    0.458457     0.584901     0.500438
    0.458456     0.525817     0.580356
    0.458456     0.431055     0.549225
    0.458455     0.431573     0.450066
    0.458456     0.526656     0.419915
    0.540197     0.500000     0.500000
