Generation:1
EA1
 1.0000000000000000
     8.4478294652210764    0.0000000000000000    0.0000000000000000
     0.0000000000000000    8.6650811405280201    0.0000000000000000
     0.0000000000000000    0.0000000000000000   31.0502784651547934
 O   Cu 
   4  24
Direct
  0.5000000000000000  0.4999999999999999  0.5206024695447343
  0.5000000000000000  0.4999999999999999  0.4793975304552656
  0.5000000000000000  0.4999999999999999  0.5495479851058915
  0.5000000000000000  0.4999999999999999  0.4504520148941082
  0.7225209339563144  0.9504844339512095  0.5870468896315336
  1.0000000000000000  0.3887395330218427  0.4129531103684662
  1.0000000000000000  0.6112604669781571  0.5870468896315336
  0.2774790660436856  0.9504844339512095  0.5870468896315336
  0.9009688679024191  0.8117449009293666  0.4129531103684662
  0.7225209339563144  0.0495155660487904  0.4129531103684662
  0.9009688679024191  0.1882550990706332  0.5870468896315336
  0.0000000000000000  0.6112604669781572  0.5870468896315336
  0.5000000000000000  1.0000000000000000  0.4129531103684662
  0.2774790660436856  0.0495155660487902  0.4129531103684662
  0.5000000000000000  0.0000000000000000  0.5870468896315336
  0.0990311320975808  0.1882550990706332  0.5870468896315336
  0.0990311320975808  0.8117449009293668  0.4129531103684662
  0.0000000000000000  0.3887395330218426  0.4129531103684662
  0.5000000000000000  0.4999999999999999  0.6881140669010256
  0.5000000000000000  0.4999999999999999  0.3118859330989743
  0.5000000000000000  0.4999999999999999  0.8389708483416309
  0.5000000000000000  0.4999999999999999  0.1610291516583689
  0.5000000000000000  0.4999999999999999  0.5858984827056853
  0.5000000000000000  0.4999999999999999  0.4141015172943146
  0.5000000000000000  0.4999999999999999  0.7434200027604646
  0.5000000000000000  0.4999999999999999  0.2565799972395353
  0.5000000000000000  0.4999999999999999  0.7900700754132546
  0.5000000000000000  0.4999999999999999  0.2099299245867453
EA2
 1.0000000000000000
    16.0567097896251454    0.0000000000000000    0.0000000000000000
     0.0000000000000000   16.0567097896251489    0.0000000000000000
     0.0000000000000000    0.0000000000000000   13.3533547081283839
 O   Cu 
   4  24
Direct
  0.5000000000000000  0.5000000000000000  0.5508064422392961
  0.5000000000000000  0.5000000000000000  0.4491935577607041
  0.5000000000000000  0.5000000000000000  0.6255622568794323
  0.5000000000000000  0.5000000000000000  0.3744377431205678
  0.6549944038880021  0.6549944038880020  0.5000000000000001
  0.7191951880703458  0.5000000000000000  0.5000000000000001
  0.5000000000000000  0.7191951880703457  0.5000000000000001
  0.6549944038880021  0.3450055961119980  0.5000000000000001
  0.3450055961119979  0.6549944038880020  0.5000000000000001
  0.5000000000000000  0.2808048119296543  0.5000000000000001
  0.2808048119296544  0.5000000000000000  0.5000000000000001
  0.3450055961119979  0.3450055961119980  0.5000000000000001
  0.5908805185311673  0.5908805185311671  0.5000000000000001
  0.6285244618622761  0.5000000000000000  0.5000000000000001
  0.5000000000000000  0.6285244618622760  0.5000000000000001
  0.5908805185311673  0.4091194814688328  0.5000000000000001
  0.4091194814688329  0.5908805185311671  0.5000000000000001
  0.5000000000000000  0.3714755381377240  0.5000000000000001
  0.3714755381377240  0.5000000000000000  0.5000000000000001
  0.4091194814688329  0.4091194814688328  0.5000000000000001
  0.7071067811865476  0.9999999999999998  0.5000000000000001
  1.0000000000000000  0.2928932188134525  0.5000000000000001
  0.2928932188134525  1.0000000000000000  0.5000000000000001
  1.0000000000000000  0.7071067811865476  0.5000000000000001
  0.7071067811865476  0.0000000000000001  0.5000000000000001
  0.0000000000000000  0.7071067811865475  0.5000000000000001
  0.2928932188134525  0.0000000000000000  0.5000000000000000
  0.0000000000000000  0.2928932188134524  0.5000000000000000
EA3
 1.0000000000000000
     6.9264062864483957    0.0000000000000000    0.0000000000000000
     0.0000000000000000    6.9264062864483957    0.0000000000000000
     0.0000000000000000    0.0000000000000000   15.5337063552417831
 O   Cu 
   4  24
Direct
  0.5000000000000000  0.5000000000000000  0.6346057405914712
  0.5000000000000000  0.5000000000000000  0.3218806822824207
  0.5000000000000000  0.5000000000000000  0.5670751205080494
  0.5000000000000000  0.5000000000000000  0.5161768400088846
  0.7586484804543656  0.7128809357963524  0.4414297483736652
  0.2871190642036476  0.7586484804543656  0.4414297483736652
  0.1665783522401831  0.5323625411859394  0.4414297483736651
  0.2413515195456344  0.2871190642036476  0.4414297483736651
  0.4676374588140605  0.1665783522401831  0.4414297483736651
  0.7128809357963524  0.2413515195456344  0.4414297483736651
  0.8334216477598168  0.4676374588140605  0.4414297483736652
  0.5323625411859393  0.8334216477598170  0.4414297483736652
  1.0000000000000000  0.6873665347133524  0.4265200155624497
  0.3126334652866476  1.0000000000000000  0.4265200155624497
  0.0139584621434903  0.7210652433300377  0.4265200155624497
  0.0000000000000000  0.3126334652866476  0.4265200155624497
  0.2789347566699622  0.0139584621434903  0.4265200155624497
  0.6873665347133524  0.0000000000000000  0.4265200155624497
  0.9860415378565096  0.2789347566699621  0.4265200155624497
  0.7210652433300377  0.9860415378565098  0.4265200155624497
  0.7654589109538460  0.7656742540649444  0.6781193177175793
  0.2343257459350556  0.7654589109538460  0.6781193177175792
  0.1244321373021398  0.4998477294258606  0.6781193177175792
  0.2345410890461540  0.2343257459350555  0.6781193177175792
  0.5001522705741394  0.1244321373021398  0.6781193177175792
  0.7656742540649444  0.2345410890461540  0.6781193177175792
  0.8755678626978604  0.5001522705741394  0.6781193177175792
  0.4998477294258605  0.8755678626978604  0.6781193177175792
EA4
 1.0000000000000000
     5.6519006792248341    0.0000000000000000    0.0000000000000000
     0.0000000000000000    5.4540478595681643    0.0000000000000000
     0.0000000000000000    0.0000000000000000   22.7529988731883464
 O   Cu 
   4  24
Direct
  0.5000000000000000  0.5000000000000000  0.6667010867008031
  0.5000000000000000  0.5000000000000000  0.3332989132991970
  0.5000000000000000  0.5000000000000000  0.7030033184142715
  0.5000000000000000  0.5000000000000000  0.2969966815857284
  0.6330615643352226  1.0000000000000000  0.7802487475226004
  0.6330615643352226  0.0000000000000000  0.2197512524773996
  0.8912535637303458  0.1765403584084184  0.7802487475226004
  0.1087464362696544  0.1765403584084184  0.7802487475226004
  1.0000000000000000  0.4766313059159618  0.2197512524773996
  0.9177634306446018  0.7856483002909093  0.7802487475226004
  0.0822365693553985  0.2143516997090908  0.2197512524773996
  0.0822365693553985  0.7856483002909090  0.7802487475226004
  0.8912535637303458  0.8234596415915816  0.2197512524773996
  0.3240445699602752  0.0144426472166342  0.7802487475226004
  0.3240445699602752  0.9855573527833658  0.2197512524773996
  0.6759554300397248  0.0144426472166342  0.7802487475226004
  0.6759554300397249  0.9855573527833658  0.2197512524773996
  0.3669384356647775  1.0000000000000000  0.7802487475226004
  0.0000000000000000  0.4766313059159618  0.2197512524773996
  0.1087464362696544  0.8234596415915816  0.2197512524773996
  1.0000000000000000  0.5233686940840382  0.7802487475226004
  0.9177634306446018  0.2143516997090909  0.2197512524773996
  0.0000000000000000  0.5233686940840382  0.7802487475226004
  0.3669384356647775  0.0000000000000000  0.2197512524773996
  0.5000000000000000  0.5000000000000000  0.5500623712539483
  0.5000000000000000  0.5000000000000000  0.4499376287460518
  0.5000000000000000  0.5000000000000000  0.6154044383932500
  0.5000000000000000  0.5000000000000000  0.3845955616067500
EA5
 1.0000000000000000
    10.1265446609220824    0.0000000000000000    0.0000000000000000
     0.0000000000000000   10.1265446609220788    0.0000000000000000
     0.0000000000000000    0.0000000000000000   15.4633911625474845
 O   Cu 
   4  24
Direct
  0.4999999999999998  0.5000000000000000  0.6766556606218396
  0.4999999999999998  0.5000000000000000  0.3233443393781604
  0.4999999999999998  0.5000000000000000  0.5995169668027899
  0.4999999999999998  0.5000000000000000  0.4004830331972102
  0.8265983016721753  0.8887886518023206  0.5792500692380894
  0.3265983016721756  0.9772367519821179  0.5792500692380894
  0.1112113481976795  0.8265983016721756  0.4207499307619106
  0.0000000000000000  0.5884481001797975  0.5792500692380893
  0.0227632480178821  0.3265983016721757  0.4207499307619106
  0.1734016983278244  0.1112113481976795  0.5792500692380893
  0.4115518998202022  0.0000000000000000  0.4207499307619106
  0.6734016983278241  0.0227632480178821  0.5792500692380893
  0.8887886518023203  0.1734016983278245  0.4207499307619106
  1.0000000000000000  0.4115518998202025  0.5792500692380894
  0.9772367519821176  0.6734016983278243  0.4207499307619107
  0.5884481001797973  1.0000000000000000  0.4207499307619107
  0.9131889965084549  0.6829535455713882  0.6523937738829197
  0.5481520800769712  0.9493089403262159  0.6523937738829197
  0.3170464544286118  0.9131889965084552  0.3476062261170803
  0.1349630835685163  0.7663553947548278  0.6523937738829196
  0.0506910596737841  0.5481520800769715  0.3476062261170803
  0.0868110034915448  0.3170464544286118  0.6523937738829196
  0.2336446052451719  0.1349630835685163  0.3476062261170803
  0.4518479199230285  0.0506910596737842  0.6523937738829196
  0.6829535455713880  0.0868110034915449  0.3476062261170803
  0.8650369164314835  0.2336446052451722  0.6523937738829196
  0.9493089403262156  0.4518479199230285  0.3476062261170803
  0.7663553947548276  0.8650369164314837  0.3476062261170804
Generation:2
Generation:3
