EA43    7.158  7.158 22.862 90.00 90.00 90.00 Sym.group:    0
1.0000
    7.158163     0.000000     0.000000
    0.000000     7.158163     0.000000
    0.000000     0.000000    22.861849
   O  Cu
  20   40 
Direct
    0.069918     0.260852     0.818839
    0.469384     0.506096     0.755271
    0.600258     0.433135     0.274167
    0.435046     0.626490     0.598155
    0.252230     0.141454     0.284364
    0.736470     0.935151     0.643830
    0.902953     0.741913     0.797956
    0.884502     0.230639     0.460054
    0.195474     0.929085     0.433812
    0.712030     0.065911     0.802630
    0.637023     0.627410     0.445788
    0.062478     0.191030     0.612140
    0.394449     0.238386     0.511547
    0.433293     0.768684     0.158841
    0.337134     0.605942     0.354920
    0.772457     0.435573     0.663768
    0.196230     0.940280     0.744389
    0.722064     0.065672     0.357707
    0.963957     0.693562     0.557779
    0.986905     0.771520     0.242996
    0.505019     0.778551     0.304314
    0.201380     0.271299     0.445776
    0.052494     0.404516     0.668825
    0.594311     0.922167     0.204408
    0.390442     0.956173     0.503086
    0.673932     0.203385     0.639558
    0.673525     0.649264     0.776345
    0.495482     0.622559     0.517003
    0.106039     0.684543     0.727554
    0.441431     0.471151     0.669409
    0.632743     0.510531     0.363011
    0.637637     0.214115     0.483951
    0.827235     0.686118     0.647314
    0.242748     0.363732     0.335939
    0.257128     0.367971     0.774904
    0.672010     0.861267     0.408144
    0.157670     0.688891     0.300167
    0.493598     0.588594     0.214850
    0.604733     0.286857     0.779101
    0.700925     0.229837     0.227762
    0.343535     0.203072     0.598686
    0.090126     0.999377     0.668222
    0.834878     0.949655     0.287484
    0.981069     0.015473     0.798856
    0.036015     0.837752     0.494153
    0.192696     0.023985     0.357659
    0.706181     0.975912     0.725788
    0.960029     0.199572     0.537895
    0.202214     0.782976     0.194367
    0.481281     0.894179     0.613112
    0.914744     0.266346     0.367381
    0.967273     0.495174     0.814424
    0.893820     0.524363     0.450558
    0.017001     0.249286     0.258242
    0.138682     0.502433     0.528211
    0.503495     0.111325     0.311270
    0.386886     0.104654     0.709387
    0.826951     0.569517     0.261057
    0.227102     0.627190     0.432555
    0.171287     0.697454     0.618693
EA89    7.158  7.158 22.862 90.00 90.00 90.00 Sym.group:    0
1.0000
    7.158163     0.000000     0.000000
    0.000000     7.158163     0.000000
    0.000000     0.000000    22.861849
   O  Cu
  20   40 
Direct
    0.069918     0.260852     0.818839
    0.469384     0.506096     0.755271
    0.600258     0.433135     0.274167
    0.435046     0.626490     0.598155
    0.252230     0.141454     0.284364
    0.736470     0.935151     0.643830
    0.902953     0.741913     0.797956
    0.884502     0.230639     0.460054
    0.195474     0.929085     0.433812
    0.712030     0.065911     0.802630
    0.637023     0.627410     0.445788
    0.062478     0.191030     0.612140
    0.394449     0.238386     0.511547
    0.433293     0.768684     0.158841
    0.337134     0.605942     0.354920
    0.772457     0.435573     0.663768
    0.196230     0.940280     0.744389
    0.722064     0.065672     0.357707
    0.963957     0.693562     0.557779
    0.986905     0.771520     0.242996
    0.505019     0.778551     0.304314
    0.201380     0.271299     0.445776
    0.052494     0.404516     0.668825
    0.594311     0.922167     0.204408
    0.390442     0.956173     0.503086
    0.673932     0.203385     0.639558
    0.673525     0.649264     0.776345
    0.495482     0.622559     0.517003
    0.106039     0.684543     0.727554
    0.441431     0.471151     0.669409
    0.632743     0.510531     0.363011
    0.637637     0.214115     0.483951
    0.827235     0.686118     0.647314
    0.242748     0.363732     0.335939
    0.257128     0.367971     0.774904
    0.672010     0.861267     0.408144
    0.157670     0.688891     0.300167
    0.493598     0.588594     0.214850
    0.604733     0.286857     0.779101
    0.700925     0.229837     0.227762
    0.343535     0.203072     0.598686
    0.090126     0.999377     0.668222
    0.834878     0.949655     0.287484
    0.981069     0.015473     0.798856
    0.036015     0.837752     0.494153
    0.192696     0.023985     0.357659
    0.706181     0.975912     0.725788
    0.960029     0.199572     0.537895
    0.202214     0.782976     0.194367
    0.481281     0.894179     0.613112
    0.914744     0.266346     0.367381
    0.967273     0.495174     0.814424
    0.893820     0.524363     0.450558
    0.017001     0.249286     0.258242
    0.138682     0.502433     0.528211
    0.503495     0.111325     0.311270
    0.386886     0.104654     0.709387
    0.826951     0.569517     0.261057
    0.227102     0.627190     0.432555
    0.171287     0.697454     0.618693
EA137   7.158  7.158 22.862 90.00 90.00 90.00 Sym.group:    0
1.0000
    7.158163     0.000000     0.000000
    0.000000     7.158163     0.000000
    0.000000     0.000000    22.861849
   O  Cu
  20   40 
Direct
    0.069918     0.260852     0.818839
    0.469384     0.506096     0.755271
    0.600258     0.433135     0.274167
    0.435046     0.626490     0.598155
    0.252230     0.141454     0.284364
    0.736470     0.935151     0.643830
    0.902953     0.741913     0.797956
    0.884502     0.230639     0.460054
    0.195474     0.929085     0.433812
    0.712030     0.065911     0.802630
    0.637023     0.627410     0.445788
    0.062478     0.191030     0.612140
    0.394449     0.238386     0.511547
    0.433293     0.768684     0.158841
    0.337134     0.605942     0.354920
    0.772457     0.435573     0.663768
    0.196230     0.940280     0.744389
    0.722064     0.065672     0.357707
    0.963957     0.693562     0.557779
    0.986905     0.771520     0.242996
    0.505019     0.778551     0.304314
    0.201380     0.271299     0.445776
    0.052494     0.404516     0.668825
    0.594311     0.922167     0.204408
    0.390442     0.956173     0.503086
    0.673932     0.203385     0.639558
    0.673525     0.649264     0.776345
    0.495482     0.622559     0.517003
    0.106039     0.684543     0.727554
    0.441431     0.471151     0.669409
    0.632743     0.510531     0.363011
    0.637637     0.214115     0.483951
    0.827235     0.686118     0.647314
    0.242748     0.363732     0.335939
    0.257128     0.367971     0.774904
    0.672010     0.861267     0.408144
    0.157670     0.688891     0.300167
    0.493598     0.588594     0.214850
    0.604733     0.286857     0.779101
    0.700925     0.229837     0.227762
    0.343535     0.203072     0.598686
    0.090126     0.999377     0.668222
    0.834878     0.949655     0.287484
    0.981069     0.015473     0.798856
    0.036015     0.837752     0.494153
    0.192696     0.023985     0.357659
    0.706181     0.975912     0.725788
    0.960029     0.199572     0.537895
    0.202214     0.782976     0.194367
    0.481281     0.894179     0.613112
    0.914744     0.266346     0.367381
    0.967273     0.495174     0.814424
    0.893820     0.524363     0.450558
    0.017001     0.249286     0.258242
    0.138682     0.502433     0.528211
    0.503495     0.111325     0.311270
    0.386886     0.104654     0.709387
    0.826951     0.569517     0.261057
    0.227102     0.627190     0.432555
    0.171287     0.697454     0.618693
