EA43    7.158  7.158 22.862 90.00 90.00 90.00 Sym.group:    0
1.0000
    7.158163     0.000000     0.000000
    0.000000     7.158163     0.000000
    0.000000     0.000000    22.861849
   O  Cu
  20   40 
Direct
    0.069918     0.260852     0.818839
    0.469384     0.506096     0.755271
    0.600258     0.433135     0.274167
    0.435046     0.626490     0.598155
    0.252230     0.141454     0.284364
    0.736470     0.935151     0.643830
    0.902953     0.741913     0.797956
    0.884502     0.230639     0.460054
    0.195474     0.929085     0.433812
    0.712030     0.065911     0.802630
    0.637023     0.627410     0.445788
    0.062478     0.191030     0.612140
    0.394449     0.238386     0.511547
    0.433293     0.768684     0.158841
    0.337134     0.605942     0.354920
    0.772457     0.435573     0.663768
    0.196230     0.940280     0.744389
    0.722064     0.065672     0.357707
    0.963957     0.693562     0.557779
    0.986905     0.771520     0.242996
    0.505019     0.778551     0.304314
    0.201380     0.271299     0.445776
    0.052494     0.404516     0.668825
    0.594311     0.922167     0.204408
    0.390442     0.956173     0.503086
    0.673932     0.203385     0.639558
    0.673525     0.649264     0.776345
    0.495482     0.622559     0.517003
    0.106039     0.684543     0.727554
    0.441431     0.471151     0.669409
    0.632743     0.510531     0.363011
    0.637637     0.214115     0.483951
    0.827235     0.686118     0.647314
    0.242748     0.363732     0.335939
    0.257128     0.367971     0.774904
    0.672010     0.861267     0.408144
    0.157670     0.688891     0.300167
    0.493598     0.588594     0.214850
    0.604733     0.286857     0.779101
    0.700925     0.229837     0.227762
    0.343535     0.203072     0.598686
    0.090126     0.999377     0.668222
    0.834878     0.949655     0.287484
    0.981069     0.015473     0.798856
    0.036015     0.837752     0.494153
    0.192696     0.023985     0.357659
    0.706181     0.975912     0.725788
    0.960029     0.199572     0.537895
    0.202214     0.782976     0.194367
    0.481281     0.894179     0.613112
    0.914744     0.266346     0.367381
    0.967273     0.495174     0.814424
    0.893820     0.524363     0.450558
    0.017001     0.249286     0.258242
    0.138682     0.502433     0.528211
    0.503495     0.111325     0.311270
    0.386886     0.104654     0.709387
    0.826951     0.569517     0.261057
    0.227102     0.627190     0.432555
    0.171287     0.697454     0.618693
EA44    8.062  8.062 15.987 90.00 90.00 90.00 Sym.group:    0
1.0000
    8.061844     0.000000     0.000000
    0.000000     8.061844     0.000000
    0.000000     0.000000    15.986775
   O  Cu
  20   40 
Direct
    0.151344     0.936521     0.704109
    0.572550     0.480510     0.210130
    0.912611     0.963305     0.507609
    0.084710     0.917391     0.121754
    0.386092     0.782697     0.181381
    0.769695     0.206366     0.196794
    0.443768     0.346224     0.669843
    0.518777     0.786385     0.741853
    0.366289     0.258540     0.897617
    0.821613     0.043912     0.857655
    0.360145     0.761485     0.526343
    0.015017     0.352758     0.383351
    0.740979     0.446516     0.753609
    0.092759     0.620826     0.873650
    0.766917     0.543128     0.471684
    0.446441     0.461014     0.434536
    0.764781     0.876766     0.310531
    0.296451     0.244927     0.188896
    0.021855     0.249846     0.595730
    0.213090     0.964798     0.377971
    0.476680     0.818804     0.625604
    0.808790     0.500683     0.204493
    0.758788     0.243915     0.810173
    0.873540     0.736423     0.508758
    0.228864     0.401991     0.411908
    0.484360     0.140854     0.607452
    0.339944     0.542961     0.189887
    0.082740     0.374043     0.175779
    0.535942     0.207309     0.195031
    0.684123     0.009603     0.512138
    0.395040     0.974514     0.468704
    0.586403     0.854679     0.232182
    0.948194     0.403618     0.510837
    0.162964     0.630582     0.523111
    0.988446     0.914494     0.346498
    0.979374     0.013870     0.776039
    0.198416     0.107073     0.871464
    0.044039     0.704185     0.171427
    0.557973     0.650693     0.495927
    0.883800     0.352687     0.671974
    0.226644     0.438116     0.885520
    0.053619     0.548496     0.301292
    0.380640     0.993030     0.751725
    0.006647     0.633798     0.652791
    0.613755     0.048865     0.355627
    0.889287     0.248725     0.298059
    0.281254     0.815591     0.291437
    0.675262     0.914846     0.797195
    0.417431     0.283401     0.783854
    0.146684     0.759162     0.786121
    0.513184     0.559159     0.710860
    0.291043     0.141680     0.305385
    0.773543     0.663101     0.363076
    0.933807     0.065060     0.158474
    0.301537     0.006656     0.158606
    0.037622     0.947965     0.603040
    0.224170     0.334926     0.629581
    0.922949     0.542712     0.807749
    0.515884     0.243768     0.458204
    0.517088     0.470407     0.323004
EA42    7.882 10.921 18.007 90.00 90.00 90.00 Sym.group:    0
1.0000
    7.881849     0.000000     0.000000
    0.000000    10.920792     0.000000
    0.000000     0.000000    18.007265
   O  Cu
  20   40 
Direct
    0.819604     0.537068     0.675916
    0.111901     0.490563     0.230722
    0.708802     0.876575     0.220630
    0.132961     0.996572     0.501711
    0.222395     0.259722     0.539135
    0.136865     0.817322     0.280301
    0.023456     0.830575     0.738683
    0.752140     0.278376     0.529574
    0.740166     0.702648     0.434779
    0.777154     0.208023     0.727606
    0.544907     0.525315     0.535686
    0.203567     0.720994     0.480014
    0.771000     0.940985     0.580429
    0.775641     0.108298     0.384025
    0.377916     0.622296     0.713815
    0.415544     0.418442     0.384127
    0.459463     0.093190     0.322615
    0.397239     0.021082     0.677433
    0.777847     0.454561     0.362043
    0.068290     0.163854     0.223827
    0.619169     0.499243     0.439201
    0.218889     0.020625     0.599544
    0.807453     0.372030     0.704538
    0.149684     0.738732     0.587351
    0.074193     0.220185     0.350212
    0.166386     0.515208     0.701797
    0.607954     0.987282     0.277898
    0.584620     0.125054     0.699334
    0.923955     0.680622     0.708245
    0.397199     0.573469     0.607198
    0.234956     0.458012     0.318880
    0.984369     0.286020     0.532742
    0.104941     0.650726     0.254280
    0.273839     0.112260     0.444033
    0.961123     0.675932     0.474464
    0.269937     0.127349     0.264938
    0.844324     0.639992     0.339743
    0.952864     0.053498     0.442712
    0.779701     0.281937     0.381572
    0.071382     0.328397     0.224901
    0.169322     0.756979     0.378710
    0.972160     0.147787     0.671941
    0.585558     0.030816     0.439255
    0.106402     0.507421     0.554807
    0.459104     0.255333     0.357658
    0.126746     0.975616     0.337141
    0.520971     0.962275     0.587244
    0.984302     0.449344     0.425946
    0.607160     0.588907     0.707411
    0.781232     0.503902     0.561276
    0.084387     0.313163     0.760928
    0.270067     0.151537     0.722092
    0.344031     0.883623     0.480563
    0.276061     0.354528     0.457994
    0.225559     0.752129     0.718915
    0.902740     0.830241     0.259732
    0.760923     0.116133     0.559576
    0.209844     0.320505     0.638643
    0.931621     0.902681     0.654242
    0.726654     0.841078     0.494817
EA9     8.593  8.593 21.019 90.08 90.08 90.08 Sym.group:    0
1.0000
    8.593017     0.000000     0.000000
   -0.011983     8.593000     0.000000
   -0.029353    -0.029394    21.018959
   O  Cu
  20   40 
Direct
    0.000000     0.000000     0.396937
    0.500000     0.000000     0.462310
    0.500000     0.500000     0.462310
    0.000000     0.500000     0.462310
    0.000610     0.000610     0.004757
    0.500610     0.000610     0.004757
    0.000610     0.500610     0.004757
    0.500610     0.500610     0.004757
    0.250790     0.250800     0.107041
    0.750790     0.250800     0.107041
    0.250790     0.750800     0.107041
    0.750790     0.750800     0.107041
    0.000610     0.000610     0.209175
    0.500610     0.000610     0.209175
    0.000610     0.500610     0.209175
    0.500610     0.500610     0.209175
    0.250790     0.250800     0.311459
    0.750790     0.250800     0.311459
    0.250790     0.750800     0.311459
    0.750790     0.750800     0.311459
    0.155070     0.862730     0.467089
    0.292340     0.155070     0.467089
    0.137270     0.292340     0.467089
    0.844930     0.137270     0.467089
    0.707660     0.844930     0.467089
    0.862730     0.707660     0.467089
    0.333330     0.666670     0.513867
    0.666670     0.333330     0.513867
    0.125670     0.125670     0.055888
    0.625670     0.125670     0.055888
    0.375590     0.375590     0.055892
    0.875590     0.375590     0.055892
    0.125670     0.625670     0.055888
    0.625670     0.625670     0.055888
    0.375590     0.875590     0.055892
    0.875590     0.875590     0.055892
    0.375580     0.125690     0.158064
    0.875580     0.125690     0.158064
    0.125680     0.375590     0.158064
    0.625680     0.375590     0.158064
    0.375580     0.625690     0.158064
    0.875580     0.625690     0.158064
    0.125680     0.875590     0.158064
    0.625680     0.875590     0.158064
    0.125670     0.125670     0.260306
    0.625670     0.125670     0.260306
    0.375590     0.375590     0.260313
    0.875590     0.375590     0.260313
    0.125670     0.625670     0.260306
    0.625670     0.625670     0.260306
    0.375590     0.875590     0.260313
    0.875590     0.875590     0.260313
    0.375580     0.125690     0.362482
    0.875580     0.125690     0.362482
    0.125680     0.375590     0.362482
    0.625680     0.375590     0.362482
    0.375580     0.625690     0.362482
    0.875580     0.625690     0.362482
    0.125680     0.875590     0.362482
    0.625680     0.875590     0.362482
EA136   8.593  8.593 21.019 90.08 90.08 90.08 Sym.group:    0
1.0000
    8.593017     0.000000     0.000000
   -0.011983     8.593000     0.000000
   -0.029353    -0.029394    21.018959
   O  Cu
  20   40 
Direct
    0.000000     0.100000     0.444608
    0.500000     0.300000     0.429088
    0.400000     0.700000     0.429088
    0.000000     0.000000     0.396937
    0.000610     0.000610     0.004757
    0.500610     0.000610     0.004757
    0.000610     0.500610     0.004757
    0.500610     0.500610     0.004757
    0.250790     0.250800     0.107041
    0.750790     0.250800     0.107041
    0.250790     0.750800     0.107041
    0.750790     0.750800     0.107041
    0.000610     0.000610     0.209175
    0.500610     0.000610     0.209175
    0.000610     0.500610     0.209175
    0.500610     0.500610     0.209175
    0.250790     0.250800     0.311459
    0.750790     0.250800     0.311459
    0.250790     0.750800     0.311459
    0.750790     0.750800     0.311459
    0.500000     0.000000     0.462310
    0.500000     0.500000     0.462310
    0.000000     0.500000     0.462310
    0.700000     0.800000     0.429088
    0.800000     0.300000     0.429088
    0.155070     0.862730     0.467089
    0.292340     0.155070     0.467089
    0.137270     0.292340     0.467089
    0.125670     0.125670     0.055888
    0.625670     0.125670     0.055888
    0.375590     0.375590     0.055892
    0.875590     0.375590     0.055892
    0.125670     0.625670     0.055888
    0.625670     0.625670     0.055888
    0.375590     0.875590     0.055892
    0.875590     0.875590     0.055892
    0.375580     0.125690     0.158064
    0.875580     0.125690     0.158064
    0.125680     0.375590     0.158064
    0.625680     0.375590     0.158064
    0.375580     0.625690     0.158064
    0.875580     0.625690     0.158064
    0.125680     0.875590     0.158064
    0.625680     0.875590     0.158064
    0.125670     0.125670     0.260306
    0.625670     0.125670     0.260306
    0.375590     0.375590     0.260313
    0.875590     0.375590     0.260313
    0.125670     0.625670     0.260306
    0.625670     0.625670     0.260306
    0.375590     0.875590     0.260313
    0.875590     0.875590     0.260313
    0.375580     0.125690     0.362482
    0.875580     0.125690     0.362482
    0.125680     0.375590     0.362482
    0.625680     0.375590     0.362482
    0.375580     0.625690     0.362482
    0.875580     0.625690     0.362482
    0.125680     0.875590     0.362482
    0.625680     0.875590     0.362482
EA5     8.593  8.593 21.019 90.08 90.08 90.08 Sym.group:    0
1.0000
    8.593017     0.000000     0.000000
   -0.011983     8.593000     0.000000
   -0.029353    -0.029394    21.018959
   O  Cu
  20   40 
Direct
    0.100130     0.472080     0.451180
    0.899870     0.527920     0.451180
    0.399870     0.972080     0.451180
    0.600130     0.027920     0.451180
    0.000610     0.000610     0.004757
    0.500610     0.000610     0.004757
    0.000610     0.500610     0.004757
    0.500610     0.500610     0.004757
    0.250790     0.250800     0.107041
    0.750790     0.250800     0.107041
    0.250790     0.750800     0.107041
    0.750790     0.750800     0.107041
    0.000610     0.000610     0.209175
    0.500610     0.000610     0.209175
    0.000610     0.500610     0.209175
    0.500610     0.500610     0.209175
    0.250790     0.250800     0.311459
    0.750790     0.250800     0.311459
    0.250790     0.750800     0.311459
    0.750790     0.750800     0.311459
    0.496640     0.192170     0.451058
    0.503360     0.807830     0.451058
    0.003360     0.692170     0.451058
    0.996640     0.307830     0.451058
    0.321410     0.310070     0.492226
    0.678590     0.689930     0.492226
    0.178590     0.810070     0.492226
    0.821410     0.189930     0.492226
    0.125670     0.125670     0.055888
    0.625670     0.125670     0.055888
    0.375590     0.375590     0.055892
    0.875590     0.375590     0.055892
    0.125670     0.625670     0.055888
    0.625670     0.625670     0.055888
    0.375590     0.875590     0.055892
    0.875590     0.875590     0.055892
    0.375580     0.125690     0.158064
    0.875580     0.125690     0.158064
    0.125680     0.375590     0.158064
    0.625680     0.375590     0.158064
    0.375580     0.625690     0.158064
    0.875580     0.625690     0.158064
    0.125680     0.875590     0.158064
    0.625680     0.875590     0.158064
    0.125670     0.125670     0.260306
    0.625670     0.125670     0.260306
    0.375590     0.375590     0.260313
    0.875590     0.375590     0.260313
    0.125670     0.625670     0.260306
    0.625670     0.625670     0.260306
    0.375590     0.875590     0.260313
    0.875590     0.875590     0.260313
    0.375580     0.125690     0.362482
    0.875580     0.125690     0.362482
    0.125680     0.375590     0.362482
    0.625680     0.375590     0.362482
    0.375580     0.625690     0.362482
    0.875580     0.625690     0.362482
    0.125680     0.875590     0.362482
    0.625680     0.875590     0.362482
EA41    4.612  7.097 32.447 90.00 90.00 90.00 Sym.group:    0
1.0000
    4.611500     0.000000     0.000000
    0.000000     7.096967     0.000000
    0.000000     0.000000    32.447339
   O  Cu
  20   40 
Direct
    0.052942     0.551849     0.314956
    0.061773     0.917292     0.420171
    0.548033     0.829401     0.473227
    0.692119     0.588530     0.864861
    0.909601     0.007544     0.809840
    0.182340     0.431271     0.818599
    0.467209     0.004012     0.359226
    0.588561     0.486620     0.407124
    0.056205     0.287905     0.371637
    0.431730     0.968622     0.765115
    0.143339     0.423865     0.456356
    0.245025     0.073457     0.738223
    0.457467     0.353752     0.664242
    0.339005     0.775495     0.272129
    0.769688     0.036359     0.689971
    0.261951     0.218390     0.644220
    0.953416     0.562825     0.655146
    0.951115     0.040359     0.308465
    0.687235     0.868989     0.247086
    0.750978     0.360326     0.759955
    0.990690     0.298786     0.307429
    0.958043     0.721448     0.271964
    0.784137     0.345421     0.240254
    0.852320     0.802781     0.671010
    0.852422     0.271187     0.655092
    0.576162     0.954533     0.301895
    0.343809     0.969401     0.680524
    0.414369     0.965181     0.521530
    0.267188     0.282137     0.871334
    0.801931     0.705394     0.513691
    0.755345     0.123749     0.860722
    0.768013     0.384857     0.904553
    0.033488     0.990093     0.363817
    0.854069     0.539848     0.365201
    0.464287     0.264566     0.378243
    0.827434     0.037570     0.751054
    0.371250     0.621892     0.653465
    0.291203     0.356448     0.508133
    0.762962     0.443982     0.814489
    0.672957     0.038414     0.197137
    0.731994     0.415924     0.462338
    0.173656     0.908792     0.163941
    0.140982     0.567656     0.178163
    0.660026     0.725202     0.162694
    0.911784     0.028001     0.554848
    0.809220     0.387274     0.547961
    0.364540     0.221981     0.577252
    0.324153     0.884213     0.599069
    0.830509     0.705408     0.590566
    0.331105     0.581324     0.564405
    0.334083     0.370758     0.764321
    0.171722     0.225777     0.192384
    0.654146     0.376757     0.169593
    0.791526     0.796023     0.836648
    0.314329     0.988097     0.824649
    0.277940     0.646510     0.853665
    0.187217     0.150064     0.446291
    0.625955     0.938932     0.417590
    0.289525     0.678320     0.418949
    0.883772     0.498433     0.715274
EA101   8.593  8.593 21.019 90.08 90.08 90.08 Sym.group:    0
1.0000
    8.593017     0.000000     0.000000
   -0.011983     8.593000     0.000000
   -0.029353    -0.029394    21.018959
   O  Cu
  20   40 
Direct
    0.248914     0.871188     0.438691
    0.418160     0.946406     0.394988
    0.926923     0.749271     0.477278
    0.668160     0.835706     0.523515
    0.000610     0.000610     0.004757
    0.500610     0.000610     0.004757
    0.000610     0.500610     0.004757
    0.500610     0.500610     0.004757
    0.250790     0.250800     0.107041
    0.750790     0.250800     0.107041
    0.250790     0.750800     0.107041
    0.750790     0.750800     0.107041
    0.000610     0.000610     0.209175
    0.500610     0.000610     0.209175
    0.000610     0.500610     0.209175
    0.500610     0.500610     0.209175
    0.250790     0.250800     0.311459
    0.750790     0.250800     0.311459
    0.250790     0.750800     0.311459
    0.750790     0.750800     0.311459
    0.403984     0.733918     0.508843
    0.386184     0.163528     0.508843
    0.093844     0.008458     0.508843
    0.111644     0.578848     0.508843
    0.709623     0.749271     0.439954
    0.861783     0.249271     0.464108
    0.507073     0.603981     0.464108
    0.507073     0.894561     0.464108
    0.125670     0.125670     0.055888
    0.625670     0.125670     0.055888
    0.375590     0.375590     0.055892
    0.875590     0.375590     0.055892
    0.125670     0.625670     0.055888
    0.625670     0.625670     0.055888
    0.375590     0.875590     0.055892
    0.875590     0.875590     0.055892
    0.375580     0.125690     0.158064
    0.875580     0.125690     0.158064
    0.125680     0.375590     0.158064
    0.625680     0.375590     0.158064
    0.375580     0.625690     0.158064
    0.875580     0.625690     0.158064
    0.125680     0.875590     0.158064
    0.625680     0.875590     0.158064
    0.125670     0.125670     0.260306
    0.625670     0.125670     0.260306
    0.375590     0.375590     0.260313
    0.875590     0.375590     0.260313
    0.125670     0.625670     0.260306
    0.625670     0.625670     0.260306
    0.375590     0.875590     0.260313
    0.875590     0.875590     0.260313
    0.375580     0.125690     0.362482
    0.875580     0.125690     0.362482
    0.125680     0.375590     0.362482
    0.625680     0.375590     0.362482
    0.375580     0.625690     0.362482
    0.875580     0.625690     0.362482
    0.125680     0.875590     0.362482
    0.625680     0.875590     0.362482
EA85    8.593  8.593 21.019 90.08 90.08 90.08 Sym.group:    0
1.0000
    8.593017     0.000000     0.000000
   -0.011983     8.593000     0.000000
   -0.029353    -0.029394    21.018959
   O  Cu
  20   40 
Direct
    0.500000     0.500000     0.429088
    0.100000     0.500000     0.429088
    0.600000     0.700000     0.429088
    0.000000     0.000000     0.457318
    0.000610     0.000610     0.004757
    0.500610     0.000610     0.004757
    0.000610     0.500610     0.004757
    0.500610     0.500610     0.004757
    0.250790     0.250800     0.107041
    0.750790     0.250800     0.107041
    0.250790     0.750800     0.107041
    0.750790     0.750800     0.107041
    0.000610     0.000610     0.209175
    0.500610     0.000610     0.209175
    0.000610     0.500610     0.209175
    0.500610     0.500610     0.209175
    0.250790     0.250800     0.311459
    0.750790     0.250800     0.311459
    0.250790     0.750800     0.311459
    0.750790     0.750800     0.311459
    0.900000     0.700000     0.429088
    0.500000     0.800000     0.537769
    0.263660     0.000000     0.502430
    0.263660     0.263660     0.502430
    0.000000     0.263660     0.502430
    0.736340     0.000000     0.502430
    0.333330     0.666670     0.447370
    0.666670     0.333330     0.447370
    0.125670     0.125670     0.055888
    0.625670     0.125670     0.055888
    0.375590     0.375590     0.055892
    0.875590     0.375590     0.055892
    0.125670     0.625670     0.055888
    0.625670     0.625670     0.055888
    0.375590     0.875590     0.055892
    0.875590     0.875590     0.055892
    0.375580     0.125690     0.158064
    0.875580     0.125690     0.158064
    0.125680     0.375590     0.158064
    0.625680     0.375590     0.158064
    0.375580     0.625690     0.158064
    0.875580     0.625690     0.158064
    0.125680     0.875590     0.158064
    0.625680     0.875590     0.158064
    0.125670     0.125670     0.260306
    0.625670     0.125670     0.260306
    0.375590     0.375590     0.260313
    0.875590     0.375590     0.260313
    0.125670     0.625670     0.260306
    0.625670     0.625670     0.260306
    0.375590     0.875590     0.260313
    0.875590     0.875590     0.260313
    0.375580     0.125690     0.362482
    0.875580     0.125690     0.362482
    0.125680     0.375590     0.362482
    0.625680     0.375590     0.362482
    0.375580     0.625690     0.362482
    0.875580     0.625690     0.362482
    0.125680     0.875590     0.362482
    0.625680     0.875590     0.362482
EA105   8.593  8.593 21.019 90.08 90.08 90.08 Sym.group:    0
1.0000
    8.593017     0.000000     0.000000
   -0.011983     8.593000     0.000000
   -0.029353    -0.029394    21.018959
   O  Cu
  20   40 
Direct
    0.244192     0.193998     0.429326
    0.536489     0.147493     0.476106
    0.133390     0.533505     0.467460
    0.557549     0.653502     0.422810
    0.000610     0.000610     0.004757
    0.500610     0.000610     0.004757
    0.000610     0.500610     0.004757
    0.500610     0.500610     0.004757
    0.250790     0.250800     0.107041
    0.750790     0.250800     0.107041
    0.250790     0.750800     0.107041
    0.750790     0.750800     0.107041
    0.000610     0.000610     0.209175
    0.500610     0.000610     0.209175
    0.000610     0.500610     0.209175
    0.500610     0.500610     0.209175
    0.250790     0.250800     0.311459
    0.750790     0.250800     0.311459
    0.250790     0.750800     0.311459
    0.750790     0.750800     0.311459
    0.043757     0.156173     0.511985
    0.232041     0.028960     0.453846
    0.574272     0.395662     0.496179
    0.498781     0.877115     0.435747
    0.032542     0.644212     0.516522
    0.009208     0.781984     0.449388
    0.670159     0.625399     0.453440
    0.784911     0.117907     0.509644
    0.125670     0.125670     0.055888
    0.625670     0.125670     0.055888
    0.375590     0.375590     0.055892
    0.875590     0.375590     0.055892
    0.125670     0.625670     0.055888
    0.625670     0.625670     0.055888
    0.375590     0.875590     0.055892
    0.875590     0.875590     0.055892
    0.375580     0.125690     0.158064
    0.875580     0.125690     0.158064
    0.125680     0.375590     0.158064
    0.625680     0.375590     0.158064
    0.375580     0.625690     0.158064
    0.875580     0.625690     0.158064
    0.125680     0.875590     0.158064
    0.625680     0.875590     0.158064
    0.125670     0.125670     0.260306
    0.625670     0.125670     0.260306
    0.375590     0.375590     0.260313
    0.875590     0.375590     0.260313
    0.125670     0.625670     0.260306
    0.625670     0.625670     0.260306
    0.375590     0.875590     0.260313
    0.875590     0.875590     0.260313
    0.375580     0.125690     0.362482
    0.875580     0.125690     0.362482
    0.125680     0.375590     0.362482
    0.625680     0.375590     0.362482
    0.375580     0.625690     0.362482
    0.875580     0.625690     0.362482
    0.125680     0.875590     0.362482
    0.625680     0.875590     0.362482
EA115   8.593  8.593 21.019 90.08 90.08 90.08 Sym.group:    0
1.0000
    8.593017     0.000000     0.000000
   -0.011983     8.593000     0.000000
   -0.029353    -0.029394    21.018959
   O  Cu
  20   40 
Direct
    0.095190     0.884970     0.459447
    0.904810     0.115030     0.459447
    0.344730     0.119280     0.444309
    0.655270     0.880720     0.444309
    0.000610     0.000610     0.004757
    0.500610     0.000610     0.004757
    0.000610     0.500610     0.004757
    0.500610     0.500610     0.004757
    0.250790     0.250800     0.107041
    0.750790     0.250800     0.107041
    0.250790     0.750800     0.107041
    0.750790     0.750800     0.107041
    0.000610     0.000610     0.209175
    0.500610     0.000610     0.209175
    0.000610     0.500610     0.209175
    0.500610     0.500610     0.209175
    0.250790     0.250800     0.311459
    0.750790     0.250800     0.311459
    0.250790     0.750800     0.311459
    0.750790     0.750800     0.311459
    0.663090     0.644320     0.507340
    0.336910     0.355680     0.507340
    0.911140     0.060050     0.519266
    0.088860     0.939950     0.519266
    0.950360     0.690550     0.468824
    0.049640     0.309450     0.468824
    0.752830     0.527630     0.420079
    0.247170     0.472370     0.420079
    0.125670     0.125670     0.055888
    0.625670     0.125670     0.055888
    0.375590     0.375590     0.055892
    0.875590     0.375590     0.055892
    0.125670     0.625670     0.055888
    0.625670     0.625670     0.055888
    0.375590     0.875590     0.055892
    0.875590     0.875590     0.055892
    0.375580     0.125690     0.158064
    0.875580     0.125690     0.158064
    0.125680     0.375590     0.158064
    0.625680     0.375590     0.158064
    0.375580     0.625690     0.158064
    0.875580     0.625690     0.158064
    0.125680     0.875590     0.158064
    0.625680     0.875590     0.158064
    0.125670     0.125670     0.260306
    0.625670     0.125670     0.260306
    0.375590     0.375590     0.260313
    0.875590     0.375590     0.260313
    0.125670     0.625670     0.260306
    0.625670     0.625670     0.260306
    0.375590     0.875590     0.260313
    0.875590     0.875590     0.260313
    0.375580     0.125690     0.362482
    0.875580     0.125690     0.362482
    0.125680     0.375590     0.362482
    0.625680     0.375590     0.362482
    0.375580     0.625690     0.362482
    0.875580     0.625690     0.362482
    0.125680     0.875590     0.362482
    0.625680     0.875590     0.362482
EA11    8.593  8.593 21.019 90.08 90.08 90.08 Sym.group:    0
1.0000
    8.593017     0.000000     0.000000
   -0.011983     8.593000     0.000000
   -0.029353    -0.029394    21.018959
   O  Cu
  20   40 
Direct
    0.333330     0.666670     0.508052
    0.666670     0.333330     0.508052
    0.000000     0.000000     0.512159
    0.000000     0.000000     0.457318
    0.000610     0.000610     0.004757
    0.500610     0.000610     0.004757
    0.000610     0.500610     0.004757
    0.500610     0.500610     0.004757
    0.250790     0.250800     0.107041
    0.750790     0.250800     0.107041
    0.250790     0.750800     0.107041
    0.750790     0.750800     0.107041
    0.000610     0.000610     0.209175
    0.500610     0.000610     0.209175
    0.000610     0.500610     0.209175
    0.500610     0.500610     0.209175
    0.250790     0.250800     0.311459
    0.750790     0.250800     0.311459
    0.250790     0.750800     0.311459
    0.750790     0.750800     0.311459
    0.263660     0.000000     0.502430
    0.263660     0.263660     0.502430
    0.000000     0.263660     0.502430
    0.736340     0.000000     0.502430
    0.736340     0.736340     0.502430
    0.000000     0.736340     0.502430
    0.333330     0.666670     0.447370
    0.666670     0.333330     0.447370
    0.125670     0.125670     0.055888
    0.625670     0.125670     0.055888
    0.375590     0.375590     0.055892
    0.875590     0.375590     0.055892
    0.125670     0.625670     0.055888
    0.625670     0.625670     0.055888
    0.375590     0.875590     0.055892
    0.875590     0.875590     0.055892
    0.375580     0.125690     0.158064
    0.875580     0.125690     0.158064
    0.125680     0.375590     0.158064
    0.625680     0.375590     0.158064
    0.375580     0.625690     0.158064
    0.875580     0.625690     0.158064
    0.125680     0.875590     0.158064
    0.625680     0.875590     0.158064
    0.125670     0.125670     0.260306
    0.625670     0.125670     0.260306
    0.375590     0.375590     0.260313
    0.875590     0.375590     0.260313
    0.125670     0.625670     0.260306
    0.625670     0.625670     0.260306
    0.375590     0.875590     0.260313
    0.875590     0.875590     0.260313
    0.375580     0.125690     0.362482
    0.875580     0.125690     0.362482
    0.125680     0.375590     0.362482
    0.625680     0.375590     0.362482
    0.375580     0.625690     0.362482
    0.875580     0.625690     0.362482
    0.125680     0.875590     0.362482
    0.625680     0.875590     0.362482
EA86    8.593  8.593 21.019 90.08 90.08 90.08 Sym.group:    0
1.0000
    8.593017     0.000000     0.000000
   -0.011983     8.593000     0.000000
   -0.029353    -0.029394    21.018959
   O  Cu
  20   40 
Direct
    0.800000     0.900000     0.583190
    0.200000     0.900000     0.583226
    0.900000     0.100000     0.554712
    0.000000     0.000000     0.457318
    0.000610     0.000610     0.004757
    0.500610     0.000610     0.004757
    0.000610     0.500610     0.004757
    0.500610     0.500610     0.004757
    0.250790     0.250800     0.107041
    0.750790     0.250800     0.107041
    0.250790     0.750800     0.107041
    0.750790     0.750800     0.107041
    0.000610     0.000610     0.209175
    0.500610     0.000610     0.209175
    0.000610     0.500610     0.209175
    0.500610     0.500610     0.209175
    0.250790     0.250800     0.311459
    0.750790     0.250800     0.311459
    0.250790     0.750800     0.311459
    0.750790     0.750800     0.311459
    0.200000     0.600000     0.557214
    0.600000     0.300000     0.569223
    0.263660     0.000000     0.502430
    0.263660     0.263660     0.502430
    0.000000     0.263660     0.502430
    0.736340     0.000000     0.502430
    0.333330     0.666670     0.447370
    0.666670     0.333330     0.447370
    0.125670     0.125670     0.055888
    0.625670     0.125670     0.055888
    0.375590     0.375590     0.055892
    0.875590     0.375590     0.055892
    0.125670     0.625670     0.055888
    0.625670     0.625670     0.055888
    0.375590     0.875590     0.055892
    0.875590     0.875590     0.055892
    0.375580     0.125690     0.158064
    0.875580     0.125690     0.158064
    0.125680     0.375590     0.158064
    0.625680     0.375590     0.158064
    0.375580     0.625690     0.158064
    0.875580     0.625690     0.158064
    0.125680     0.875590     0.158064
    0.625680     0.875590     0.158064
    0.125670     0.125670     0.260306
    0.625670     0.125670     0.260306
    0.375590     0.375590     0.260313
    0.875590     0.375590     0.260313
    0.125670     0.625670     0.260306
    0.625670     0.625670     0.260306
    0.375590     0.875590     0.260313
    0.875590     0.875590     0.260313
    0.375580     0.125690     0.362482
    0.875580     0.125690     0.362482
    0.125680     0.375590     0.362482
    0.625680     0.375590     0.362482
    0.375580     0.625690     0.362482
    0.875580     0.625690     0.362482
    0.125680     0.875590     0.362482
    0.625680     0.875590     0.362482
EA134   8.593  8.593 21.019 90.08 90.08 90.08 Sym.group:    0
1.0000
    8.593017     0.000000     0.000000
   -0.011983     8.593000     0.000000
   -0.029353    -0.029394    21.018959
   O  Cu
  20   40 
Direct
    0.500000     0.500000     0.429088
    0.800000     0.100000     0.429088
    0.800000     0.500000     0.429088
    0.380237     0.359067     0.443960
    0.000610     0.000610     0.004757
    0.500610     0.000610     0.004757
    0.000610     0.500610     0.004757
    0.500610     0.500610     0.004757
    0.250790     0.250800     0.107041
    0.750790     0.250800     0.107041
    0.250790     0.750800     0.107041
    0.750790     0.750800     0.107041
    0.000610     0.000610     0.209175
    0.500610     0.000610     0.209175
    0.000610     0.500610     0.209175
    0.500610     0.500610     0.209175
    0.250790     0.250800     0.311459
    0.750790     0.250800     0.311459
    0.250790     0.750800     0.311459
    0.750790     0.750800     0.311459
    0.380237     0.754937     0.443960
    0.984367     0.359067     0.443960
    0.809812     0.926236     0.417948
    0.700000     0.800000     0.482766
    0.900000     0.400000     0.529998
    0.143142     0.592906     0.487379
    0.360477     0.147757     0.492044
    0.914947     0.824357     0.385260
    0.125670     0.125670     0.055888
    0.625670     0.125670     0.055888
    0.375590     0.375590     0.055892
    0.875590     0.375590     0.055892
    0.125670     0.625670     0.055888
    0.625670     0.625670     0.055888
    0.375590     0.875590     0.055892
    0.875590     0.875590     0.055892
    0.375580     0.125690     0.158064
    0.875580     0.125690     0.158064
    0.125680     0.375590     0.158064
    0.625680     0.375590     0.158064
    0.375580     0.625690     0.158064
    0.875580     0.625690     0.158064
    0.125680     0.875590     0.158064
    0.625680     0.875590     0.158064
    0.125670     0.125670     0.260306
    0.625670     0.125670     0.260306
    0.375590     0.375590     0.260313
    0.875590     0.375590     0.260313
    0.125670     0.625670     0.260306
    0.625670     0.625670     0.260306
    0.375590     0.875590     0.260313
    0.875590     0.875590     0.260313
    0.375580     0.125690     0.362482
    0.875580     0.125690     0.362482
    0.125680     0.375590     0.362482
    0.625680     0.375590     0.362482
    0.375580     0.625690     0.362482
    0.875580     0.625690     0.362482
    0.125680     0.875590     0.362482
    0.625680     0.875590     0.362482
EA49    8.593  8.593 21.019 90.08 90.08 90.08 Sym.group:    0
1.0000
    8.593017     0.000000     0.000000
   -0.011983     8.593000     0.000000
   -0.029353    -0.029394    21.018959
   O  Cu
  20   40 
Direct
    0.042137     0.850641     0.470785
    0.040287     0.287571     0.506478
    0.494992     0.810762     0.429079
    0.835053     0.293557     0.512610
    0.000610     0.000610     0.004757
    0.500610     0.000610     0.004757
    0.000610     0.500610     0.004757
    0.500610     0.500610     0.004757
    0.250790     0.250800     0.107041
    0.750790     0.250800     0.107041
    0.250790     0.750800     0.107041
    0.750790     0.750800     0.107041
    0.000610     0.000610     0.209175
    0.500610     0.000610     0.209175
    0.000610     0.500610     0.209175
    0.500610     0.500610     0.209175
    0.250790     0.250800     0.311459
    0.750790     0.250800     0.311459
    0.250790     0.750800     0.311459
    0.750790     0.750800     0.311459
    0.077637     0.116731     0.497827
    0.373617     0.954241     0.402929
    0.373617     0.954241     0.486074
    0.399122     0.149056     0.459627
    0.731232     0.830935     0.424792
    0.681230     0.574167     0.457280
    0.795982     0.066675     0.513484
    0.406802     0.471106     0.445821
    0.125670     0.125670     0.055888
    0.625670     0.125670     0.055888
    0.375590     0.375590     0.055892
    0.875590     0.375590     0.055892
    0.125670     0.625670     0.055888
    0.625670     0.625670     0.055888
    0.375590     0.875590     0.055892
    0.875590     0.875590     0.055892
    0.375580     0.125690     0.158064
    0.875580     0.125690     0.158064
    0.125680     0.375590     0.158064
    0.625680     0.375590     0.158064
    0.375580     0.625690     0.158064
    0.875580     0.625690     0.158064
    0.125680     0.875590     0.158064
    0.625680     0.875590     0.158064
    0.125670     0.125670     0.260306
    0.625670     0.125670     0.260306
    0.375590     0.375590     0.260313
    0.875590     0.375590     0.260313
    0.125670     0.625670     0.260306
    0.625670     0.625670     0.260306
    0.375590     0.875590     0.260313
    0.875590     0.875590     0.260313
    0.375580     0.125690     0.362482
    0.875580     0.125690     0.362482
    0.125680     0.375590     0.362482
    0.625680     0.375590     0.362482
    0.375580     0.625690     0.362482
    0.875580     0.625690     0.362482
    0.125680     0.875590     0.362482
    0.625680     0.875590     0.362482
EA46    8.593  8.593 21.019 90.08 90.08 90.08 Sym.group:    0
1.0000
    8.593017     0.000000     0.000000
   -0.011983     8.593000     0.000000
   -0.029353    -0.029394    21.018959
   O  Cu
  20   40 
Direct
    0.380237     0.359067     0.443960
    0.380237     0.754937     0.443960
    0.984367     0.359067     0.443960
    0.809812     0.926236     0.417948
    0.000610     0.000610     0.004757
    0.500610     0.000610     0.004757
    0.000610     0.500610     0.004757
    0.500610     0.500610     0.004757
    0.250790     0.250800     0.107041
    0.750790     0.250800     0.107041
    0.250790     0.750800     0.107041
    0.750790     0.750800     0.107041
    0.000610     0.000610     0.209175
    0.500610     0.000610     0.209175
    0.000610     0.500610     0.209175
    0.500610     0.500610     0.209175
    0.250790     0.250800     0.311459
    0.750790     0.250800     0.311459
    0.250790     0.750800     0.311459
    0.750790     0.750800     0.311459
    0.049582     0.277706     0.514372
    0.161282     0.166006     0.514372
    0.143142     0.592906     0.487379
    0.360477     0.147757     0.492044
    0.792827     0.378827     0.492044
    0.792827     0.147757     0.492044
    0.591547     0.378827     0.492044
    0.914947     0.824357     0.385260
    0.125670     0.125670     0.055888
    0.625670     0.125670     0.055888
    0.375590     0.375590     0.055892
    0.875590     0.375590     0.055892
    0.125670     0.625670     0.055888
    0.625670     0.625670     0.055888
    0.375590     0.875590     0.055892
    0.875590     0.875590     0.055892
    0.375580     0.125690     0.158064
    0.875580     0.125690     0.158064
    0.125680     0.375590     0.158064
    0.625680     0.375590     0.158064
    0.375580     0.625690     0.158064
    0.875580     0.625690     0.158064
    0.125680     0.875590     0.158064
    0.625680     0.875590     0.158064
    0.125670     0.125670     0.260306
    0.625670     0.125670     0.260306
    0.375590     0.375590     0.260313
    0.875590     0.375590     0.260313
    0.125670     0.625670     0.260306
    0.625670     0.625670     0.260306
    0.375590     0.875590     0.260313
    0.875590     0.875590     0.260313
    0.375580     0.125690     0.362482
    0.875580     0.125690     0.362482
    0.125680     0.375590     0.362482
    0.625680     0.375590     0.362482
    0.375580     0.625690     0.362482
    0.875580     0.625690     0.362482
    0.125680     0.875590     0.362482
    0.625680     0.875590     0.362482
EA88    8.593  8.593 21.019 90.08 90.08 90.08 Sym.group:    0
1.0000
    8.593017     0.000000     0.000000
   -0.011983     8.593000     0.000000
   -0.029353    -0.029394    21.018959
   O  Cu
  20   40 
Direct
    0.300000     0.000000     0.429088
    0.600000     0.800000     0.429088
    0.446430     0.553570     0.436429
    0.446430     0.892860     0.436429
    0.000610     0.000610     0.004757
    0.500610     0.000610     0.004757
    0.000610     0.500610     0.004757
    0.500610     0.500610     0.004757
    0.250790     0.250800     0.107041
    0.750790     0.250800     0.107041
    0.250790     0.750800     0.107041
    0.750790     0.750800     0.107041
    0.000610     0.000610     0.209175
    0.500610     0.000610     0.209175
    0.000610     0.500610     0.209175
    0.500610     0.500610     0.209175
    0.250790     0.250800     0.311459
    0.750790     0.250800     0.311459
    0.250790     0.750800     0.311459
    0.750790     0.750800     0.311459
    0.107140     0.553570     0.436429
    0.000000     0.000000     0.476399
    0.700000     0.600000     0.489553
    0.800000     0.300000     0.540979
    0.900000     0.000000     0.561266
    0.226930     0.773070     0.483685
    0.226930     0.453870     0.483685
    0.666670     0.333330     0.428655
    0.125670     0.125670     0.055888
    0.625670     0.125670     0.055888
    0.375590     0.375590     0.055892
    0.875590     0.375590     0.055892
    0.125670     0.625670     0.055888
    0.625670     0.625670     0.055888
    0.375590     0.875590     0.055892
    0.875590     0.875590     0.055892
    0.375580     0.125690     0.158064
    0.875580     0.125690     0.158064
    0.125680     0.375590     0.158064
    0.625680     0.375590     0.158064
    0.375580     0.625690     0.158064
    0.875580     0.625690     0.158064
    0.125680     0.875590     0.158064
    0.625680     0.875590     0.158064
    0.125670     0.125670     0.260306
    0.625670     0.125670     0.260306
    0.375590     0.375590     0.260313
    0.875590     0.375590     0.260313
    0.125670     0.625670     0.260306
    0.625670     0.625670     0.260306
    0.375590     0.875590     0.260313
    0.875590     0.875590     0.260313
    0.375580     0.125690     0.362482
    0.875580     0.125690     0.362482
    0.125680     0.375590     0.362482
    0.625680     0.375590     0.362482
    0.375580     0.625690     0.362482
    0.875580     0.625690     0.362482
    0.125680     0.875590     0.362482
    0.625680     0.875590     0.362482
EA45    8.593  8.593 21.019 90.08 90.08 90.08 Sym.group:    0
1.0000
    8.593017     0.000000     0.000000
   -0.011983     8.593000     0.000000
   -0.029353    -0.029394    21.018959
   O  Cu
  20   40 
Direct
    0.512499     0.682218     0.511444
    0.012499     0.682218     0.434089
    0.931745     0.646736     0.453540
    0.681745     0.757436     0.467741
    0.000610     0.000610     0.004757
    0.500610     0.000610     0.004757
    0.000610     0.500610     0.004757
    0.500610     0.500610     0.004757
    0.250790     0.250800     0.107041
    0.750790     0.250800     0.107041
    0.250790     0.750800     0.107041
    0.750790     0.750800     0.107041
    0.000610     0.000610     0.209175
    0.500610     0.000610     0.209175
    0.000610     0.500610     0.209175
    0.500610     0.500610     0.209175
    0.250790     0.250800     0.311459
    0.750790     0.250800     0.311459
    0.250790     0.750800     0.311459
    0.750790     0.750800     0.311459
    0.667569     0.544948     0.438868
    0.804839     0.837288     0.438868
    0.649769     0.974558     0.438868
    0.357429     0.819488     0.438868
    0.220159     0.527148     0.438868
    0.375229     0.389878     0.438868
    0.845829     0.348888     0.485646
    0.051245     0.994916     0.404287
    0.125670     0.125670     0.055888
    0.625670     0.125670     0.055888
    0.375590     0.375590     0.055892
    0.875590     0.375590     0.055892
    0.125670     0.625670     0.055888
    0.625670     0.625670     0.055888
    0.375590     0.875590     0.055892
    0.875590     0.875590     0.055892
    0.375580     0.125690     0.158064
    0.875580     0.125690     0.158064
    0.125680     0.375590     0.158064
    0.625680     0.375590     0.158064
    0.375580     0.625690     0.158064
    0.875580     0.625690     0.158064
    0.125680     0.875590     0.158064
    0.625680     0.875590     0.158064
    0.125670     0.125670     0.260306
    0.625670     0.125670     0.260306
    0.375590     0.375590     0.260313
    0.875590     0.375590     0.260313
    0.125670     0.625670     0.260306
    0.625670     0.625670     0.260306
    0.375590     0.875590     0.260313
    0.875590     0.875590     0.260313
    0.375580     0.125690     0.362482
    0.875580     0.125690     0.362482
    0.125680     0.375590     0.362482
    0.625680     0.375590     0.362482
    0.375580     0.625690     0.362482
    0.875580     0.625690     0.362482
    0.125680     0.875590     0.362482
    0.625680     0.875590     0.362482
EA35    8.593  8.593 21.019 90.08 90.08 90.08 Sym.group:    0
1.0000
    8.593017     0.000000     0.000000
   -0.011983     8.593000     0.000000
   -0.029353    -0.029394    21.018959
   O  Cu
  20   40 
Direct
    0.844510     0.000000     0.404740
    0.000000     0.844510     0.404740
    0.155490     0.155490     0.404740
    0.000000     0.000000     0.520669
    0.000610     0.000610     0.004757
    0.500610     0.000610     0.004757
    0.000610     0.500610     0.004757
    0.500610     0.500610     0.004757
    0.250790     0.250800     0.107041
    0.750790     0.250800     0.107041
    0.250790     0.750800     0.107041
    0.750790     0.750800     0.107041
    0.000610     0.000610     0.209175
    0.500610     0.000610     0.209175
    0.000610     0.500610     0.209175
    0.500610     0.500610     0.209175
    0.250790     0.250800     0.311459
    0.750790     0.250800     0.311459
    0.250790     0.750800     0.311459
    0.750790     0.750800     0.311459
    0.648530     0.888300     0.474365
    0.111700     0.760230     0.474365
    0.239770     0.351470     0.474365
    0.351470     0.239770     0.474365
    0.760230     0.111700     0.474365
    0.888300     0.648530     0.474365
    0.333330     0.666670     0.447372
    0.666670     0.333330     0.447372
    0.125670     0.125670     0.055888
    0.625670     0.125670     0.055888
    0.375590     0.375590     0.055892
    0.875590     0.375590     0.055892
    0.125670     0.625670     0.055888
    0.625670     0.625670     0.055888
    0.375590     0.875590     0.055892
    0.875590     0.875590     0.055892
    0.375580     0.125690     0.158064
    0.875580     0.125690     0.158064
    0.125680     0.375590     0.158064
    0.625680     0.375590     0.158064
    0.375580     0.625690     0.158064
    0.875580     0.625690     0.158064
    0.125680     0.875590     0.158064
    0.625680     0.875590     0.158064
    0.125670     0.125670     0.260306
    0.625670     0.125670     0.260306
    0.375590     0.375590     0.260313
    0.875590     0.375590     0.260313
    0.125670     0.625670     0.260306
    0.625670     0.625670     0.260306
    0.375590     0.875590     0.260313
    0.875590     0.875590     0.260313
    0.375580     0.125690     0.362482
    0.875580     0.125690     0.362482
    0.125680     0.375590     0.362482
    0.625680     0.375590     0.362482
    0.375580     0.625690     0.362482
    0.875580     0.625690     0.362482
    0.125680     0.875590     0.362482
    0.625680     0.875590     0.362482
EA1     8.593  8.593 21.019 90.08 90.08 90.08 Sym.group:    0
1.0000
    8.593017     0.000000     0.000000
   -0.011983     8.593000     0.000000
   -0.029353    -0.029394    21.018959
   O  Cu
  20   40 
Direct
    0.751340     0.251340     0.397069
    0.248660     0.748660     0.397069
    0.748660     0.751340     0.397069
    0.251340     0.248660     0.397069
    0.000610     0.000610     0.004757
    0.500610     0.000610     0.004757
    0.000610     0.500610     0.004757
    0.500610     0.500610     0.004757
    0.250790     0.250800     0.107041
    0.750790     0.250800     0.107041
    0.250790     0.750800     0.107041
    0.750790     0.750800     0.107041
    0.000610     0.000610     0.209175
    0.500610     0.000610     0.209175
    0.000610     0.500610     0.209175
    0.500610     0.500610     0.209175
    0.250790     0.250800     0.311459
    0.750790     0.250800     0.311459
    0.250790     0.750800     0.311459
    0.750790     0.750800     0.311459
    0.181110     0.881730     0.445440
    0.818890     0.118270     0.445440
    0.118270     0.181110     0.445440
    0.881730     0.818890     0.445440
    0.318890     0.381730     0.445440
    0.681110     0.618270     0.445440
    0.381730     0.681110     0.445440
    0.618270     0.318890     0.445440
    0.125670     0.125670     0.055888
    0.625670     0.125670     0.055888
    0.375590     0.375590     0.055892
    0.875590     0.375590     0.055892
    0.125670     0.625670     0.055888
    0.625670     0.625670     0.055888
    0.375590     0.875590     0.055892
    0.875590     0.875590     0.055892
    0.375580     0.125690     0.158064
    0.875580     0.125690     0.158064
    0.125680     0.375590     0.158064
    0.625680     0.375590     0.158064
    0.375580     0.625690     0.158064
    0.875580     0.625690     0.158064
    0.125680     0.875590     0.158064
    0.625680     0.875590     0.158064
    0.125670     0.125670     0.260306
    0.625670     0.125670     0.260306
    0.375590     0.375590     0.260313
    0.875590     0.375590     0.260313
    0.125670     0.625670     0.260306
    0.625670     0.625670     0.260306
    0.375590     0.875590     0.260313
    0.875590     0.875590     0.260313
    0.375580     0.125690     0.362482
    0.875580     0.125690     0.362482
    0.125680     0.375590     0.362482
    0.625680     0.375590     0.362482
    0.375580     0.625690     0.362482
    0.875580     0.625690     0.362482
    0.125680     0.875590     0.362482
    0.625680     0.875590     0.362482
