EA42    8.624  8.624 18.454 90.00 90.00 90.00 Sym.group:    0
1.0000
    8.623933     0.000000     0.000000
    0.000000     8.623933     0.000000
    0.000000     0.000000    18.453641
   O  Cu
  17   40 
Direct
    0.785411     0.504121     0.774105     1.021517
    0.518461     0.337625     0.219840     0.000000
    0.997380     0.318456     0.312817     0.000000
    0.998740     0.758833     0.330776     0.000000
    0.842419     0.032642     0.348689     0.000000
    0.184031     0.174598     0.559983     0.000000
    0.793083     0.808169     0.620965     0.000000
    0.199039     0.809988     0.562770     0.000000
    0.264244     0.974969     0.321843     0.000000
    0.432699     0.231936     0.275358     0.000000
    0.581382     0.813581     0.285042     0.000000
    0.670560     0.374488     0.247708     0.000000
    0.230131     0.542093     0.289026     0.000000
    0.488574     0.204411     0.755435     0.000000
    0.482479     0.806838     0.754554     0.000000
    0.189160     0.503273     0.736337     0.000000
    0.762372     0.210000     0.551531     0.000000
    0.527926     0.163983     0.512378     1.021587
    0.297589     0.508069     0.387142     1.025264
    0.687526     0.505836     0.338343     1.027555
    0.504142     0.742795     0.378186     1.017910
    0.499195     0.280073     0.383066     1.014392
    0.179026     0.501363     0.513318     1.028053
    0.905364     0.512706     0.539836     1.029139
    0.543052     0.858974     0.507463     1.016360
    0.637476     0.659053     0.763740     0.000000
    0.982572     0.543454     0.304284     0.000000
    0.055258     0.010494     0.337421     0.000000
    0.769930     0.211671     0.302213     0.000000
    0.256301     0.754597     0.305352     0.000000
    0.786984     0.789900     0.313694     0.000000
    0.215166     0.287579     0.294519     0.000000
    0.335906     0.348785     0.739056     0.000000
    0.509919     0.132449     0.660768     0.000000
    0.507459     0.020035     0.283263     0.000000
    0.530253     0.853095     0.656575     0.000000
    0.652233     0.644080     0.579506     0.000000
    0.835099     0.545540     0.675647     0.000000
    0.326192     0.995724     0.573958     0.000000
    0.756136     0.003040     0.582788     0.000000
    0.978265     0.220800     0.547555     0.000000
    0.991745     0.781175     0.584072     0.000000
    0.667189     0.023665     0.412589     0.000000
    0.376871     0.003945     0.414089     0.000000
    0.012771     0.369541     0.418644     0.000000
    0.015600     0.664258     0.430784     0.000000
    0.479877     0.490504     0.493402     0.000000
    0.632705     0.375146     0.610505     0.000000
    0.360800     0.641679     0.600431     0.000000
    0.332355     0.660485     0.740255     0.000000
    0.342246     0.332118     0.598776     0.000000
    0.271278     0.253999     0.465338     0.000000
    0.726465     0.651111     0.450099     0.000000
    0.294753     0.744827     0.469721     0.000000
    0.730049     0.354068     0.457672     0.000000
    0.105177     0.491338     0.643275     0.000000
    0.646668     0.347712     0.757418     0.000000
EA89    8.624  8.624 18.454 90.00 90.00 90.00 Sym.group:    0
1.0000
    8.623933     0.000000     0.000000
    0.000000     8.623933     0.000000
    0.000000     0.000000    18.453641
   O  Cu
  17   40 
Direct
    0.785411     0.504121     0.774105     1.021517
    0.518461     0.337625     0.219840     0.000000
    0.997380     0.318456     0.312817     0.000000
    0.998740     0.758833     0.330776     0.000000
    0.842419     0.032642     0.348689     0.000000
    0.184031     0.174598     0.559983     0.000000
    0.793083     0.808169     0.620965     0.000000
    0.199039     0.809988     0.562770     0.000000
    0.264244     0.974969     0.321843     0.000000
    0.432699     0.231936     0.275358     0.000000
    0.581382     0.813581     0.285042     0.000000
    0.670560     0.374488     0.247708     0.000000
    0.230131     0.542093     0.289026     0.000000
    0.488574     0.204411     0.755435     0.000000
    0.482479     0.806838     0.754554     0.000000
    0.189160     0.503273     0.736337     0.000000
    0.762372     0.210000     0.551531     0.000000
    0.527926     0.163983     0.512378     1.021587
    0.297589     0.508069     0.387142     1.025264
    0.687526     0.505836     0.338343     1.027555
    0.504142     0.742795     0.378186     1.017910
    0.499195     0.280073     0.383066     1.014392
    0.179026     0.501363     0.513318     1.028053
    0.905364     0.512706     0.539836     1.029139
    0.543052     0.858974     0.507463     1.016360
    0.637476     0.659053     0.763740     0.000000
    0.982572     0.543454     0.304284     0.000000
    0.055258     0.010494     0.337421     0.000000
    0.769930     0.211671     0.302213     0.000000
    0.256301     0.754597     0.305352     0.000000
    0.786984     0.789900     0.313694     0.000000
    0.215166     0.287579     0.294519     0.000000
    0.335906     0.348785     0.739056     0.000000
    0.509919     0.132449     0.660768     0.000000
    0.507459     0.020035     0.283263     0.000000
    0.530253     0.853095     0.656575     0.000000
    0.652233     0.644080     0.579506     0.000000
    0.835099     0.545540     0.675647     0.000000
    0.326192     0.995724     0.573958     0.000000
    0.756136     0.003040     0.582788     0.000000
    0.978265     0.220800     0.547555     0.000000
    0.991745     0.781175     0.584072     0.000000
    0.667189     0.023665     0.412589     0.000000
    0.376871     0.003945     0.414089     0.000000
    0.012771     0.369541     0.418644     0.000000
    0.015600     0.664258     0.430784     0.000000
    0.479877     0.490504     0.493402     0.000000
    0.632705     0.375146     0.610505     0.000000
    0.360800     0.641679     0.600431     0.000000
    0.332355     0.660485     0.740255     0.000000
    0.342246     0.332118     0.598776     0.000000
    0.271278     0.253999     0.465338     0.000000
    0.726465     0.651111     0.450099     0.000000
    0.294753     0.744827     0.469721     0.000000
    0.730049     0.354068     0.457672     0.000000
    0.105177     0.491338     0.643275     0.000000
    0.646668     0.347712     0.757418     0.000000
EA136   8.593  8.593 21.019 90.08 90.08 90.08 Sym.group:    0
1.0000
    8.593017     0.000000     0.000000
   -0.011983     8.593000     0.000000
   -0.029353    -0.029394    21.018959
   O  Cu
  17   40 
Direct
    0.600000     0.800000     0.429088     1.026966
    0.000610     0.000610     0.004757     0.000000
    0.500610     0.000610     0.004757     0.000000
    0.000610     0.500610     0.004757     0.000000
    0.500610     0.500610     0.004757     0.000000
    0.250790     0.250800     0.107041     0.000000
    0.750790     0.250800     0.107041     0.000000
    0.250790     0.750800     0.107041     0.000000
    0.750790     0.750800     0.107041     0.000000
    0.000610     0.000610     0.209175     0.000000
    0.500610     0.000610     0.209175     0.000000
    0.000610     0.500610     0.209175     0.000000
    0.500610     0.500610     0.209175     0.000000
    0.250790     0.250800     0.311459     0.000000
    0.750790     0.250800     0.311459     0.000000
    0.250790     0.750800     0.311459     0.000000
    0.750790     0.750800     0.311459     0.000000
    0.500000     0.200000     0.429088     1.022509
    0.089237     0.072005     0.431714     1.033175
    0.200000     0.600000     0.429088     1.027282
    0.800000     0.500000     0.429088     1.033010
    0.706797     0.074995     0.423311     1.026823
    0.474667     0.454445     0.423311     1.032291
    0.117037     0.296655     0.439759     1.023972
    0.286077     0.044205     0.439759     1.026308
    0.125670     0.125670     0.055888     0.000000
    0.625670     0.125670     0.055888     0.000000
    0.375590     0.375590     0.055892     0.000000
    0.875590     0.375590     0.055892     0.000000
    0.125670     0.625670     0.055888     0.000000
    0.625670     0.625670     0.055888     0.000000
    0.375590     0.875590     0.055892     0.000000
    0.875590     0.875590     0.055892     0.000000
    0.375580     0.125690     0.158064     0.000000
    0.875580     0.125690     0.158064     0.000000
    0.125680     0.375590     0.158064     0.000000
    0.625680     0.375590     0.158064     0.000000
    0.375580     0.625690     0.158064     0.000000
    0.875580     0.625690     0.158064     0.000000
    0.125680     0.875590     0.158064     0.000000
    0.625680     0.875590     0.158064     0.000000
    0.125670     0.125670     0.260306     0.000000
    0.625670     0.125670     0.260306     0.000000
    0.375590     0.375590     0.260313     0.000000
    0.875590     0.375590     0.260313     0.000000
    0.125670     0.625670     0.260306     0.000000
    0.625670     0.625670     0.260306     0.000000
    0.375590     0.875590     0.260313     0.000000
    0.875590     0.875590     0.260313     0.000000
    0.375580     0.125690     0.362482     0.000000
    0.875580     0.125690     0.362482     0.000000
    0.125680     0.375590     0.362482     0.000000
    0.625680     0.375590     0.362482     0.000000
    0.375580     0.625690     0.362482     0.000000
    0.875580     0.625690     0.362482     0.000000
    0.125680     0.875590     0.362482     0.000000
    0.625680     0.875590     0.362482     0.000000
