EA153   8.624  8.624 18.454 90.00 90.00 90.00 Sym.group:    0
1.0000
    8.623933     0.000000     0.000000
    0.000000     8.623933     0.000000
    0.000000     0.000000    18.453641
   O  Cu
  17   40 
Direct
    0.785411     0.504121     0.774105
    0.518461     0.337625     0.219840
    0.997380     0.318456     0.312817
    0.998740     0.758833     0.330776
    0.842419     0.032642     0.348689
    0.184031     0.174598     0.559983
    0.793083     0.808169     0.620965
    0.199039     0.809988     0.562770
    0.264244     0.974969     0.321843
    0.432699     0.231936     0.275358
    0.581382     0.813581     0.285042
    0.670560     0.374488     0.247708
    0.230131     0.542093     0.289026
    0.488574     0.204411     0.755435
    0.482479     0.806838     0.754554
    0.189160     0.503273     0.736337
    0.762372     0.210000     0.551531
    0.527926     0.163983     0.512378
    0.297589     0.508069     0.387142
    0.687526     0.505836     0.338343
    0.504142     0.742795     0.378186
    0.499195     0.280073     0.383066
    0.179026     0.501363     0.513318
    0.905364     0.512706     0.539836
    0.543052     0.858974     0.507463
    0.637476     0.659053     0.763740
    0.982572     0.543454     0.304284
    0.055258     0.010494     0.337421
    0.769930     0.211671     0.302213
    0.256301     0.754597     0.305352
    0.786984     0.789900     0.313694
    0.215166     0.287579     0.294519
    0.335906     0.348785     0.739056
    0.509919     0.132449     0.660768
    0.507459     0.020035     0.283263
    0.530253     0.853095     0.656575
    0.652233     0.644080     0.579506
    0.835099     0.545540     0.675647
    0.326192     0.995724     0.573958
    0.756136     0.003040     0.582788
    0.978265     0.220800     0.547555
    0.991745     0.781175     0.584072
    0.667189     0.023665     0.412589
    0.376871     0.003945     0.414089
    0.012771     0.369541     0.418644
    0.015600     0.664258     0.430784
    0.479877     0.490504     0.493402
    0.632705     0.375146     0.610505
    0.360800     0.641679     0.600431
    0.332355     0.660485     0.740255
    0.342246     0.332118     0.598776
    0.271278     0.253999     0.465338
    0.726465     0.651111     0.450099
    0.294753     0.744827     0.469721
    0.730049     0.354068     0.457672
    0.105177     0.491338     0.643275
    0.646668     0.347712     0.757418
