EA136   8.593  8.593 21.019 90.08 90.08 90.08 Sym.group:    0
1.0000
    8.593017     0.000000     0.000000
   -0.011983     8.593000     0.000000
   -0.029353    -0.029394    21.018959
   O  Cu
  17   40 
Direct
    0.600000     0.800000     0.429088     1.026966
    0.000610     0.000610     0.004757     0.000000
    0.500610     0.000610     0.004757     0.000000
    0.000610     0.500610     0.004757     0.000000
    0.500610     0.500610     0.004757     0.000000
    0.250790     0.250800     0.107041     0.000000
    0.750790     0.250800     0.107041     0.000000
    0.250790     0.750800     0.107041     0.000000
    0.750790     0.750800     0.107041     0.000000
    0.000610     0.000610     0.209175     0.000000
    0.500610     0.000610     0.209175     0.000000
    0.000610     0.500610     0.209175     0.000000
    0.500610     0.500610     0.209175     0.000000
    0.250790     0.250800     0.311459     0.000000
    0.750790     0.250800     0.311459     0.000000
    0.250790     0.750800     0.311459     0.000000
    0.750790     0.750800     0.311459     0.000000
    0.500000     0.200000     0.429088     1.022509
    0.089237     0.072005     0.431714     1.033175
    0.200000     0.600000     0.429088     1.027282
    0.800000     0.500000     0.429088     1.033010
    0.706797     0.074995     0.423311     1.026823
    0.474667     0.454445     0.423311     1.032291
    0.117037     0.296655     0.439759     1.023972
    0.286077     0.044205     0.439759     1.026308
    0.125670     0.125670     0.055888     0.000000
    0.625670     0.125670     0.055888     0.000000
    0.375590     0.375590     0.055892     0.000000
    0.875590     0.375590     0.055892     0.000000
    0.125670     0.625670     0.055888     0.000000
    0.625670     0.625670     0.055888     0.000000
    0.375590     0.875590     0.055892     0.000000
    0.875590     0.875590     0.055892     0.000000
    0.375580     0.125690     0.158064     0.000000
    0.875580     0.125690     0.158064     0.000000
    0.125680     0.375590     0.158064     0.000000
    0.625680     0.375590     0.158064     0.000000
    0.375580     0.625690     0.158064     0.000000
    0.875580     0.625690     0.158064     0.000000
    0.125680     0.875590     0.158064     0.000000
    0.625680     0.875590     0.158064     0.000000
    0.125670     0.125670     0.260306     0.000000
    0.625670     0.125670     0.260306     0.000000
    0.375590     0.375590     0.260313     0.000000
    0.875590     0.375590     0.260313     0.000000
    0.125670     0.625670     0.260306     0.000000
    0.625670     0.625670     0.260306     0.000000
    0.375590     0.875590     0.260313     0.000000
    0.875590     0.875590     0.260313     0.000000
    0.375580     0.125690     0.362482     0.000000
    0.875580     0.125690     0.362482     0.000000
    0.125680     0.375590     0.362482     0.000000
    0.625680     0.375590     0.362482     0.000000
    0.375580     0.625690     0.362482     0.000000
    0.875580     0.625690     0.362482     0.000000
    0.125680     0.875590     0.362482     0.000000
    0.625680     0.875590     0.362482     0.000000
