EA1
 1.0000000000000000
     6.6110597766396664    0.0000000000000000    0.0000000000000000
     0.0000000000000000    6.6110597766396664    0.0000000000000000
     0.0000000000000000    0.0000000000000000   19.0556096044305505
 O   Cu 
  18  24
Direct
  0.8535533905932737  0.8535533905932737  0.7376100736846819
  1.0000000000000000  0.5000000000000000  0.2623899263153180
  0.5000000000000000  1.0000000000000000  0.7376100736846819
  0.8535533905932737  0.8535533905932737  0.2623899263153181
  0.8535533905932737  0.1464466094067262  0.2623899263153180
  1.0000000000000000  0.5000000000000000  0.7376100736846819
  0.1464466094067262  0.8535533905932737  0.7376100736846819
  0.5000000000000000  1.0000000000000000  0.2623899263153180
  0.5000000000000000  0.0000000000000000  0.2623899263153180
  0.8535533905932737  0.1464466094067262  0.7376100736846819
  0.0000000000000000  0.5000000000000000  0.7376100736846819
  0.1464466094067262  0.8535533905932737  0.2623899263153180
  0.1464466094067262  0.1464466094067262  0.2623899263153180
  0.5000000000000000  0.0000000000000000  0.7376100736846819
  0.1464466094067262  0.1464466094067262  0.7376100736846819
  0.0000000000000000  0.5000000000000000  0.2623899263153180
  0.5000000000000000  0.5000000000000000  0.6640318190477295
  0.5000000000000000  0.5000000000000000  0.3359681809522705
  0.8507912787669921  0.8507912787669921  0.6174174625274950
  0.9960937839944815  0.5000000000000000  0.3825825374725050
  0.5000000000000000  0.9960937839944815  0.6174174625274950
  0.8507912787669921  0.8507912787669921  0.3825825374725050
  0.8507912787669921  0.1492087212330078  0.3825825374725050
  0.9960937839944815  0.5000000000000000  0.6174174625274950
  0.1492087212330078  0.8507912787669921  0.6174174625274950
  0.5000000000000000  0.9960937839944815  0.3825825374725050
  0.5000000000000000  0.0039062160055185  0.3825825374725050
  0.8507912787669921  0.1492087212330078  0.6174174625274950
  0.0039062160055185  0.5000000000000000  0.6174174625274950
  0.1492087212330078  0.8507912787669921  0.3825825374725050
  0.1492087212330078  0.1492087212330078  0.3825825374725050
  0.5000000000000000  0.0039062160055185  0.6174174625274950
  0.1492087212330078  0.1492087212330078  0.6174174625274950
  0.0039062160055185  0.5000000000000000  0.3825825374725050
  0.7597634885116998  0.7597634885116998  0.5000000000000000
  0.8673610484625935  0.5000000000000000  0.5000000000000000
  0.5000000000000000  0.8673610484625935  0.5000000000000000
  0.7597634885116998  0.2402365114883002  0.5000000000000000
  0.2402365114883002  0.7597634885116998  0.5000000000000000
  0.5000000000000000  0.1326389515374065  0.5000000000000000
  0.1326389515374065  0.5000000000000000  0.5000000000000000
  0.2402365114883002  0.2402365114883002  0.5000000000000000
EA2
 1.0000000000000000
    17.1879247123221468    0.0000000000000000    0.0000000000000000
     0.0000000000000000   18.0724535480581245    0.0000000000000000
     0.0000000000000000    0.0000000000000000   23.2203382981605380
 O   Cu 
  18  24
Direct
  0.4472135954999580  0.5000000000000000  0.5000000000000001
  0.6180339887498949  1.0000000000000000  0.7090102698260863
  1.0000000000000000  0.5000000000000000  0.2909897301739140
  0.0000000000000001  0.8090169943749475  0.7090102698260862
  0.6180339887498949  1.0000000000000000  0.2909897301739140
  0.6180339887498949  0.0000000000000000  0.2909897301739139
  1.0000000000000000  0.5000000000000000  0.7090102698260863
  0.0000000000000000  0.1909830056250526  0.7090102698260862
  0.0000000000000001  0.8090169943749475  0.2909897301739139
  0.0000000000000001  0.1909830056250525  0.2909897301739139
  0.6180339887498949  0.0000000000000000  0.7090102698260862
  0.4472135954999580  0.5000000000000000  0.5417676091702951
  0.4472135954999580  0.5000000000000000  0.4582323908297050
  0.4786005354194188  0.5918711733485381  0.5000000000000001
  0.5487838666850349  0.5000000000000000  0.5000000000000001
  0.3650415199879588  0.5567795077157300  0.5000000000000001
  0.4786005354194188  0.4081288266514619  0.5000000000000001
  0.3650415199879587  0.4432204922842700  0.5000000000000001
  0.4472135954999580  0.5000000000000000  0.6016085831314336
  0.4472135954999580  0.5000000000000000  0.3983914168685666
  0.5627686875726075  0.8382356458563305  0.6858730439114514
  0.8211577285932989  0.5000000000000000  0.3141269560885487
  0.1446864368806379  0.7090411253459847  0.6858730439114514
  0.5627686875726075  0.8382356458563305  0.3141269560885487
  0.5627686875726075  0.1617643541436695  0.3141269560885487
  0.8211577285932989  0.5000000000000000  0.6858730439114514
  0.1446864368806379  0.2909588746540153  0.6858730439114514
  0.1446864368806379  0.7090411253459847  0.3141269560885487
  0.1446864368806379  0.2909588746540152  0.3141269560885487
  0.5627686875726075  0.1617643541436695  0.6858730439114514
  0.6083562654827261  0.9716728105964233  0.6471528683514266
  0.9686822296400105  0.5000000000000000  0.3528471316485737
  0.0253366084471635  0.7915098285177813  0.6471528683514266
  0.6083562654827261  0.9716728105964233  0.3528471316485737
  0.6083562654827261  0.0283271894035766  0.3528471316485736
  0.9686822296400105  0.5000000000000000  0.6471528683514266
  0.0253366084471635  0.2084901714822188  0.6471528683514265
  0.0253366084471635  0.7915098285177813  0.3528471316485736
  0.0253366084471635  0.2084901714822187  0.3528471316485736
  0.6083562654827261  0.0283271894035766  0.6471528683514266
  0.4472135954999580  0.5000000000000000  0.7846715264955427
  0.4472135954999580  0.5000000000000000  0.2153284735044575
EA3
 1.0000000000000000
     5.1351395721890007    0.0000000000000000    0.0000000000000000
     0.0000000000000000    5.1351395721890007    0.0000000000000000
     0.0000000000000000    0.0000000000000000   33.5386193300526401
 O   Cu 
  18  24
Direct
  0.7167926449481977  0.8298331681345521  0.5163143685866995
  0.7167926449481977  0.8298331681345521  0.4836856314133005
  0.2832073550518022  0.1701668318654479  0.5163143685866995
  0.1701668318654479  0.7167926449481977  0.4836856314133005
  0.1701668318654479  0.7167926449481977  0.5163143685866995
  0.8298331681345521  0.2832073550518022  0.5163143685866995
  0.2832073550518022  0.1701668318654479  0.4836856314133005
  0.8298331681345521  0.2832073550518022  0.4836856314133005
  0.5030588507717341  0.9269581366173343  0.6007554025761581
  0.5030588507717341  0.9269581366173343  0.3992445974238419
  0.4969411492282659  0.0730418633826657  0.6007554025761581
  0.0730418633826657  0.5030588507717341  0.3992445974238419
  0.0730418633826657  0.5030588507717341  0.6007554025761581
  0.9269581366173343  0.4969411492282659  0.6007554025761581
  0.4969411492282659  0.0730418633826657  0.3992445974238419
  0.9269581366173343  0.4969411492282659  0.3992445974238419
  0.5000000000000000  0.5000000000000000  0.7452874246523976
  0.5000000000000000  0.5000000000000000  0.2547125753476024
  0.5000000000000000  0.5000000000000000  0.8382727174198754
  0.5000000000000000  0.5000000000000000  0.1617272825801246
  0.5000000000000000  0.5000000000000000  0.5925838827826655
  0.5000000000000000  0.5000000000000000  0.4074161172173346
  0.8486280255373450  0.5038246400655821  0.8509181325923069
  0.8486280255373450  0.5038246400655821  0.1490818674076930
  0.1513719744626550  0.4961753599344179  0.8509181325923069
  0.4961753599344179  0.8486280255373450  0.1490818674076930
  0.4961753599344179  0.8486280255373450  0.8509181325923069
  0.5038246400655821  0.1513719744626550  0.8509181325923069
  0.1513719744626550  0.4961753599344179  0.1490818674076930
  0.5038246400655821  0.1513719744626550  0.1490818674076930
  0.9181233804469461  1.0000000000000000  0.5000000000000000
  0.0000000000000000  0.9181233804469461  0.5000000000000000
  0.0818766195530539  0.0000000000000000  0.5000000000000000
  1.0000000000000000  0.0818766195530539  0.5000000000000000
  0.6316753356325256  0.9044189789262691  0.5476923287220892
  0.6316753356325256  0.9044189789262691  0.4523076712779108
  0.3683246643674744  0.0955810210737308  0.5476923287220892
  0.0955810210737308  0.6316753356325256  0.4523076712779108
  0.0955810210737308  0.6316753356325256  0.5476923287220892
  0.9044189789262691  0.3683246643674744  0.5476923287220892
  0.3683246643674744  0.0955810210737308  0.4523076712779108
  0.9044189789262691  0.3683246643674744  0.4523076712779108
EA4
 1.0000000000000000
     9.5057038070086399    0.0000000000000000    0.0000000000000000
     0.0000000000000000    9.5057038070086399    0.0000000000000000
     0.0000000000000000    0.0000000000000000   19.5057038070086399
 O   Cu 
  18  24
Direct
  0.5000000000000000  0.6370501624402054  0.5468902392470136
  0.5000000000000000  0.3629498375597947  0.5468902392470136
  0.5000000000000000  0.6370501624402054  0.4531097607529864
  0.5000000000000000  0.3629498375597947  0.4531097607529864
  0.5962187689371992  0.5000000000000000  0.5667885795738842
  0.5962187689371992  0.5000000000000000  0.4332114204261158
  0.4037812310628008  0.5000000000000000  0.5667885795738842
  0.4037812310628008  0.5000000000000000  0.4332114204261158
  0.6370501624402054  0.5962187689371992  0.5000000000000000
  0.3629498375597947  0.5962187689371992  0.5000000000000000
  0.6370501624402054  0.4037812310628008  0.5000000000000000
  0.3629498375597947  0.4037812310628008  0.5000000000000000
  0.5622362360401886  0.5000000000000000  0.5000000000000000
  0.4377637639598114  0.5000000000000000  0.5000000000000000
  0.5000000000000000  0.5622362360401886  0.5000000000000000
  0.5000000000000000  0.4377637639598114  0.5000000000000000
  0.5000000000000000  0.5000000000000000  0.5303295503568828
  0.5000000000000000  0.5000000000000000  0.4696704496431173
  0.5000000000000000  0.8770510758307757  0.7436647224078407
  0.5000000000000000  0.1229489241692242  0.7436647224078407
  0.5000000000000000  0.8770510758307757  0.2563352775921594
  0.5000000000000000  0.1229489241692242  0.2563352775921594
  1.0000000000000000  0.5000000000000000  0.6837480914517673
  1.0000000000000000  0.5000000000000000  0.3162519085482327
  0.0000000000000000  0.5000000000000000  0.6837480914517673
  0.0000000000000000  0.5000000000000000  0.3162519085482327
  0.8770510758307757  1.0000000000000000  0.5000000000000000
  0.1229489241692242  1.0000000000000000  0.5000000000000000
  0.8770510758307757  0.0000000000000000  0.5000000000000000
  0.1229489241692242  0.0000000000000000  0.5000000000000000
  0.8919302644184600  0.5000000000000000  0.5000000000000000
  0.1080697355815399  0.5000000000000000  0.5000000000000000
  0.5000000000000000  0.8919302644184600  0.5000000000000000
  0.5000000000000000  0.1080697355815399  0.5000000000000000
  0.5000000000000000  0.5000000000000000  0.6909991581655113
  0.5000000000000000  0.5000000000000000  0.3090008418344887
  0.6916894559700005  0.5000000000000000  0.5000000000000000
  0.3083105440299994  0.5000000000000000  0.5000000000000000
  0.5000000000000000  0.6916894559700005  0.5000000000000000
  0.5000000000000000  0.3083105440299994  0.5000000000000000
  0.5000000000000000  0.5000000000000000  0.5934159161548803
  0.5000000000000000  0.5000000000000000  0.4065840838451196
EA5
 1.0000000000000000
     7.5507514552685020    0.0000000000000000    0.0000000000000000
     0.0000000000000000    8.1342876983966832    0.0000000000000000
     0.0000000000000000    0.0000000000000000   24.3914212366932688
 O   Cu 
  18  24
Direct
  0.7974202435092099  0.5805175036527764  0.5986561310775145
  0.2761707936333607  0.6988369686570653  0.5986561310775145
  0.2025797564907900  0.4194824963472233  0.4013438689224855
  0.4264089628574294  0.2206455276901580  0.5986561310775145
  0.7238292063666393  0.3011630313429344  0.4013438689224855
  0.5735910371425706  0.7793544723098418  0.4013438689224855
  0.8034587853479167  0.6418286043826229  0.6561118848136775
  0.2159511183988956  0.6730357936855587  0.6561118848136775
  0.1965412146520834  0.3581713956173769  0.3438881151863225
  0.4805900962531876  0.1851356019318182  0.6561118848136775
  0.7840488816011043  0.3269642063144411  0.3438881151863225
  0.5194099037468123  0.8148643980681816  0.3438881151863225
  0.5000000000000000  0.4999999999999999  0.6245761411467963
  0.5000000000000000  0.4999999999999999  0.3754238588532037
  0.5000000000000000  0.4999999999999999  0.7124054968111353
  0.5000000000000000  0.4999999999999999  0.2875945031888648
  0.5000000000000000  0.4999999999999999  0.7950098950167674
  0.5000000000000000  0.4999999999999999  0.2049901049832325
  0.7799526685909829  0.5251481143569077  0.7458649607095106
  0.3365616450939810  0.7124795040999123  0.7458649607095106
  0.2200473314090170  0.4748518856430921  0.2541350392904893
  0.3834856863150360  0.2623723815431798  0.7458649607095106
  0.6634383549060190  0.2875204959000874  0.2541350392904893
  0.6165143136849639  0.7376276184568201  0.2541350392904893
  0.5642980084659237  0.6093896341650444  0.5791925237783525
  0.3657955567415126  0.4969942625793843  0.5791925237783525
  0.4357019915340763  0.3906103658349553  0.4208074762216475
  0.5699064347925635  0.3936161032555709  0.5791925237783525
  0.6342044432584873  0.5030057374206155  0.4208074762216475
  0.4300935652074364  0.6063838967444288  0.4208074762216475
  0.9329534722782478  0.8038986104725240  0.6887855713387164
  0.0000000000000000  0.6961013895274759  0.6887855713387162
  0.0670465277217521  0.1961013895274758  0.3112144286612836
  0.5670465277217519  0.0000000000000000  0.6887855713387162
  1.0000000000000000  0.3038986104725239  0.3112144286612837
  0.4329534722782479  1.0000000000000000  0.3112144286612837
  0.7743205425005800  0.7519025334336722  0.7257629288634261
  0.1278263855070778  0.5945746362234491  0.7257629288634261
  0.2256794574994198  0.2480974665663275  0.2742370711365740
  0.5978530719923417  0.1535228303428783  0.7257629288634261
  0.8721736144929221  0.4054253637765506  0.2742370711365740
  0.4021469280076580  0.8464771696571215  0.2742370711365740
