EA47   20.253 19.661 18.863 90.00 90.00 90.00 Sym.group:    0
1.0000
   20.252968     0.000000     0.000000
    0.000000    19.661081     0.000000
    0.000000     0.000000    18.862905
   O  Cu
  24   24 
Direct
    0.504524     0.693957     0.438327
    0.495476     0.306043     0.438327
    0.323801     0.568539     0.561673
    0.676199     0.431461     0.561673
    0.659506     0.539349     0.616984
    0.391486     0.560023     0.664950
    0.595319     0.637494     0.383016
    0.486762     0.626142     0.335050
    0.340494     0.460651     0.616984
    0.513238     0.373858     0.335050
    0.404681     0.362506     0.383016
    0.608514     0.439977     0.664950
    0.495476     0.306043     0.561673
    0.504524     0.693957     0.561673
    0.676199     0.431461     0.438327
    0.323801     0.568539     0.438327
    0.340494     0.460651     0.383016
    0.608514     0.439977     0.335050
    0.404681     0.362506     0.616984
    0.513238     0.373858     0.664950
    0.659506     0.539349     0.383016
    0.486762     0.626142     0.664950
    0.595319     0.637494     0.616984
    0.391486     0.560023     0.335050
    0.603825     0.449253     0.392407
    0.396175     0.550747     0.392407
    0.506655     0.381820     0.607593
    0.493345     0.618180     0.607593
    0.473994     0.357488     0.562898
    0.384161     0.492372     0.393847
    0.362015     0.528707     0.437102
    0.550376     0.607722     0.606153
    0.526006     0.642512     0.562898
    0.449624     0.392278     0.606153
    0.637985     0.471293     0.437102
    0.615839     0.507628     0.393847
    0.396175     0.550747     0.607593
    0.603825     0.449253     0.607593
    0.493345     0.618180     0.392407
    0.506655     0.381820     0.392407
    0.526006     0.642512     0.437102
    0.615839     0.507628     0.606153
    0.637985     0.471293     0.562898
    0.449624     0.392278     0.393847
    0.473994     0.357488     0.437102
    0.550376     0.607722     0.393847
    0.362015     0.528707     0.562898
    0.384161     0.492372     0.606153
EA105  20.253 19.661 18.863 90.00 90.00 90.00 Sym.group:    0
1.0000
   20.252968     0.000000     0.000000
    0.000000    19.661081     0.000000
    0.000000     0.000000    18.862905
   O  Cu
  24   24 
Direct
    0.504524     0.693957     0.438327
    0.495476     0.306043     0.438327
    0.323801     0.568539     0.561673
    0.676199     0.431461     0.561673
    0.659506     0.539349     0.616984
    0.391486     0.560023     0.664950
    0.595319     0.637494     0.383016
    0.486762     0.626142     0.335050
    0.340494     0.460651     0.616984
    0.513238     0.373858     0.335050
    0.404681     0.362506     0.383016
    0.608514     0.439977     0.664950
    0.495476     0.306043     0.561673
    0.504524     0.693957     0.561673
    0.676199     0.431461     0.438327
    0.323801     0.568539     0.438327
    0.340494     0.460651     0.383016
    0.608514     0.439977     0.335050
    0.404681     0.362506     0.616984
    0.513238     0.373858     0.664950
    0.659506     0.539349     0.383016
    0.486762     0.626142     0.664950
    0.595319     0.637494     0.616984
    0.391486     0.560023     0.335050
    0.603825     0.449253     0.392407
    0.396175     0.550747     0.392407
    0.506655     0.381820     0.607593
    0.493345     0.618180     0.607593
    0.473994     0.357488     0.562898
    0.384161     0.492372     0.393847
    0.362015     0.528707     0.437102
    0.550376     0.607722     0.606153
    0.526006     0.642512     0.562898
    0.449624     0.392278     0.606153
    0.637985     0.471293     0.437102
    0.615839     0.507628     0.393847
    0.396175     0.550747     0.607593
    0.603825     0.449253     0.607593
    0.493345     0.618180     0.392407
    0.506655     0.381820     0.392407
    0.526006     0.642512     0.437102
    0.615839     0.507628     0.606153
    0.637985     0.471293     0.562898
    0.449624     0.392278     0.393847
    0.473994     0.357488     0.437102
    0.550376     0.607722     0.393847
    0.362015     0.528707     0.562898
    0.384161     0.492372     0.606153
EA163  20.253 19.661 18.863 90.00 90.00 90.00 Sym.group:    0
1.0000
   20.252968     0.000000     0.000000
    0.000000    19.661081     0.000000
    0.000000     0.000000    18.862905
   O  Cu
  24   24 
Direct
    0.504524     0.693957     0.438327
    0.495476     0.306043     0.438327
    0.323801     0.568539     0.561673
    0.676199     0.431461     0.561673
    0.659506     0.539349     0.616984
    0.391486     0.560023     0.664950
    0.595319     0.637494     0.383016
    0.486762     0.626142     0.335050
    0.340494     0.460651     0.616984
    0.513238     0.373858     0.335050
    0.404681     0.362506     0.383016
    0.608514     0.439977     0.664950
    0.495476     0.306043     0.561673
    0.504524     0.693957     0.561673
    0.676199     0.431461     0.438327
    0.323801     0.568539     0.438327
    0.340494     0.460651     0.383016
    0.608514     0.439977     0.335050
    0.404681     0.362506     0.616984
    0.513238     0.373858     0.664950
    0.659506     0.539349     0.383016
    0.486762     0.626142     0.664950
    0.595319     0.637494     0.616984
    0.391486     0.560023     0.335050
    0.603825     0.449253     0.392407
    0.396175     0.550747     0.392407
    0.506655     0.381820     0.607593
    0.493345     0.618180     0.607593
    0.473994     0.357488     0.562898
    0.384161     0.492372     0.393847
    0.362015     0.528707     0.437102
    0.550376     0.607722     0.606153
    0.526006     0.642512     0.562898
    0.449624     0.392278     0.606153
    0.637985     0.471293     0.437102
    0.615839     0.507628     0.393847
    0.396175     0.550747     0.607593
    0.603825     0.449253     0.607593
    0.493345     0.618180     0.392407
    0.506655     0.381820     0.392407
    0.526006     0.642512     0.437102
    0.615839     0.507628     0.606153
    0.637985     0.471293     0.562898
    0.449624     0.392278     0.393847
    0.473994     0.357488     0.437102
    0.550376     0.607722     0.393847
    0.362015     0.528707     0.562898
    0.384161     0.492372     0.606153
