EA76   18.966 18.943 22.305 90.00 90.00 90.00 Sym.group:    0
1.0000
   18.965920     0.000000     0.000000
    0.000000    18.943381     0.000000
    0.000000     0.000000    22.305496
   O  Cu
  24   24 
Direct
    0.290361     0.401896     0.534168
    0.312229     0.617954     0.532643
    0.419865     0.307406     0.459034
    0.258743     0.477095     0.458879
    0.408043     0.657505     0.456840
    0.510019     0.628082     0.586378
    0.354658     0.567320     0.587678
    0.375008     0.428231     0.588459
    0.415683     0.367731     0.403713
    0.340618     0.492956     0.403342
    0.463739     0.591908     0.401983
    0.392225     0.465245     0.402279
    0.582271     0.407804     0.446203
    0.570140     0.572387     0.427390
    0.571784     0.562514     0.547212
    0.583915     0.397931     0.566026
    0.607541     0.417300     0.593216
    0.610118     0.368332     0.464913
    0.595832     0.557604     0.399930
    0.593256     0.606573     0.528233
    0.727212     0.397293     0.560575
    0.723811     0.430581     0.433954
    0.711489     0.599495     0.431286
    0.714891     0.566206     0.557906
    0.447051     0.542605     0.401459
    0.523389     0.578828     0.587558
    0.496547     0.436349     0.588636
    0.399737     0.475285     0.588950
    0.416326     0.563342     0.588284
    0.331841     0.619186     0.485293
    0.284770     0.410504     0.486917
    0.264944     0.468642     0.506125
    0.388791     0.655846     0.504191
    0.442164     0.316793     0.506071
    0.326859     0.677146     0.494681
    0.218080     0.425186     0.496946
    0.481923     0.508687     0.577458
    0.482916     0.492294     0.494964
    0.678576     0.494602     0.496153
    0.613862     0.437988     0.406543
    0.600526     0.624548     0.438916
    0.607922     0.538629     0.586503
    0.621258     0.352068     0.554129
    0.737744     0.502462     0.564458
    0.737033     0.497679     0.427205
    0.730266     0.596095     0.478997
    0.491503     0.415937     0.470425
    0.542518     0.481950     0.496896
