Generation:1
EA1
 1.0000000000000000
     8.7826894352670930    0.0000000000000000    0.0000000000000000
     0.0000000000000000    9.2346661683998690    0.0000000000000000
     0.0000000000000000    0.0000000000000000   18.9761329800088383
 O   Cu 
  24  24
Direct
  0.7383200857104499  0.8877627185679369  0.5507373567622016
  0.7383200857104499  0.1122372814320632  0.4492626432377984
  0.7383200857104499  0.8877627185679369  0.4492626432377984
  0.0825396651471417  0.3148845759644756  0.5507373567622016
  0.9671353335020566  0.5882396706366092  0.4492626432377984
  0.1916098963661828  0.8278902102816541  0.4492626432377984
  0.1916098963661828  0.1721097897183459  0.4492626432377984
  0.1916098963661828  0.8278902102816541  0.5507373567622016
  0.7383200857104499  0.1122372814320632  0.5507373567622016
  0.5618407444372316  0.0577021658225427  0.5507373567622016
  0.5618407444372316  0.9422978341774574  0.4492626432377984
  0.0825396651471417  0.3148845759644756  0.4492626432377984
  0.9671353335020566  0.5882396706366092  0.5507373567622016
  0.0825396651471417  0.6851154240355244  0.4492626432377984
  0.9671353335020566  0.4117603293633909  0.5507373567622016
  0.1916098963661828  0.1721097897183459  0.5507373567622016
  0.5618407444372316  0.0577021658225427  0.4492626432377984
  0.5618407444372316  0.9422978341774574  0.5507373567622016
  0.0825396651471417  0.6851154240355244  0.5507373567622016
  0.9671353335020566  0.4117603293633909  0.4492626432377984
  0.5082891450326126  0.5000000000000000  0.5397195106986288
  0.5082891450326126  0.5000000000000000  0.4602804893013712
  0.5082891450326126  0.5000000000000000  0.5856794117574212
  0.5082891450326126  0.5000000000000000  0.4143205882425787
  0.5082891450326126  0.5000000000000000  0.7365111213508332
  0.5082891450326126  0.5000000000000000  0.2634888786491668
  0.8390074028406170  0.8895132929546390  0.6348208319356208
  0.8390074028406170  0.1104867070453611  0.3651791680643793
  0.8390074028406170  0.8895132929546390  0.3651791680643793
  0.0000000000000000  0.3697542529294993  0.6348208319356208
  1.0000000000000000  0.6787712473044467  0.3651791680643793
  0.2209734140907220  0.9195037014203086  0.3651791680643793
  0.2209734140907220  0.0804962985796915  0.3651791680643792
  0.2209734140907220  0.9195037014203086  0.6348208319356208
  0.8390074028406170  0.1104867070453611  0.6348208319356208
  0.4814649082317236  0.0000000000000000  0.6348208319356208
  0.4814649082317236  1.0000000000000000  0.3651791680643793
  0.0000000000000000  0.3697542529294993  0.3651791680643793
  1.0000000000000000  0.6787712473044467  0.6348208319356208
  0.0000000000000000  0.6302457470705006  0.3651791680643793
  1.0000000000000000  0.3212287526955533  0.6348208319356208
  0.2209734140907220  0.0804962985796915  0.6348208319356208
  0.4814649082317236  0.0000000000000000  0.3651791680643793
  0.4814649082317236  1.0000000000000000  0.6348208319356208
  0.0000000000000000  0.6302457470705006  0.6348208319356208
  1.0000000000000000  0.3212287526955533  0.3651791680643793
  0.5082891450326126  0.5000000000000000  0.6559214412445691
  0.5082891450326126  0.5000000000000000  0.3440785587554309
EA2
 1.0000000000000000
     7.4750535996703835    0.0000000000000000    0.0000000000000000
     0.0000000000000000    8.1309689736834443    0.0000000000000000
     0.0000000000000000    0.0000000000000000   17.2884014793660370
 O   Cu 
  24  24
Direct
  0.7553026672123005  0.7646131479048824  0.2892112382956616
  0.1230786491315481  0.5709562668261730  0.2892112382956616
  0.2446973327876994  0.2353868520951175  0.2892112382956616
  0.6216186836561511  0.1644305852689445  0.2892112382956616
  0.8769213508684519  0.4290437331738269  0.2892112382956616
  0.3783813163438487  0.8355694147310554  0.2892112382956616
  0.5000000000000000  0.5000000000000000  0.7107887617043384
  0.7706450257642650  0.5759354953451877  0.6179069928442295
  0.2931449786790942  0.6775101295471520  0.6179069928442295
  0.2293549742357350  0.4240645046548122  0.6179069928442295
  0.4362099955566407  0.2465543751076603  0.6179069928442295
  0.7068550213209057  0.3224898704528478  0.6179069928442295
  0.5637900044433592  0.7534456248923397  0.6179069928442295
  0.9953108840568141  0.7113024242066819  0.4223467624178780
  0.0532941353202629  0.7886975757933181  0.4223467624178780
  0.0046891159431858  0.2886975757933180  0.4223467624178780
  0.4513949806229228  0.0000000000000000  0.4223467624178780
  0.9467058646797371  0.2113024242066817  0.4223467624178780
  0.5486050193770771  1.0000000000000000  0.4223467624178780
  0.5000000000000000  0.5000000000000000  0.3017812688634000
  0.5000000000000000  0.5000000000000000  0.6288727624054978
  0.5000000000000000  0.5000000000000000  0.5483621653815641
  0.5000000000000000  0.5000000000000000  0.3750508902069447
  0.5000000000000000  0.5000000000000000  0.4914494636196802
  0.7447131904372690  0.5800365970605375  0.5311952373265292
  0.3022475898384605  0.6548135800686117  0.5311952373265292
  0.2552868095627309  0.4199634029394624  0.5311952373265292
  0.4530392197242704  0.2651498228708508  0.5311952373265292
  0.6977524101615395  0.3451864199313882  0.5311952373265292
  0.5469607802757296  0.7348501771291491  0.5311952373265292
  0.6801373071377932  0.8410673114310728  0.5254070728494383
  0.0886402266164873  0.4728852171808822  0.5254070728494383
  0.3198626928622067  0.1589326885689272  0.5254070728494383
  0.7312224662457191  0.1860474713880450  0.5254070728494383
  0.9113597733835126  0.5271147828191176  0.5254070728494383
  0.2687775337542807  0.8139525286119549  0.5254070728494383
  0.8647916319284689  0.7287566495513402  0.5865693330815958
  0.1021115887735454  0.6760557087097220  0.5865693330815958
  0.1352083680715310  0.2712433504486597  0.5865693330815958
  0.5330967792979855  0.0951876417389378  0.5865693330815958
  0.8978884112264546  0.3239442912902779  0.5865693330815958
  0.4669032207020143  0.9048123582610621  0.5865693330815958
  0.7273212926077069  0.9101194105246125  0.3855341200797314
  0.0000000000000000  0.4759253671203723  0.3855341200797314
  0.2726787073922931  0.0898805894753874  0.3855341200797314
  0.7726787073922928  0.1139552223550152  0.3855341200797314
  1.0000000000000000  0.5240746328796276  0.3855341200797314
  0.2273212926077071  0.8860447776449849  0.3855341200797314
EA3
 1.0000000000000000
     7.6828518101656700    0.0000000000000000    0.0000000000000000
     0.0000000000000000    7.4902266748871611    0.0000000000000000
     0.0000000000000000    0.0000000000000000   17.9772855312389055
 O   Cu 
  24  24
Direct
  0.3192959933596723  0.6217650654283305  0.5627882069712283
  0.5000000000000000  0.7110254733287038  0.5627882069712283
  0.2746657894094856  0.4211987494566903  0.5627882069712283
  0.6807040066403277  0.6217650654283305  0.5627882069712283
  0.3997168420141798  0.2603570521476752  0.5627882069712283
  0.7253342105905144  0.4211987494566903  0.5627882069712283
  0.6002831579858201  0.2603570521476752  0.5627882069712283
  0.8118269940708237  0.8128143921215664  0.3748066346771409
  0.1881730059291764  0.8128143921215664  0.3748066346771408
  0.1085289725947164  0.7103755782513228  0.3748066346771408
  0.0472885427425534  0.4351635846499220  0.3748066346771408
  0.5638695557626018  0.9352952518258922  0.3748066346771408
  0.4361304442373982  0.9352952518258922  0.3748066346771408
  0.0757131691418916  0.3074244731247184  0.3748066346771408
  0.2473050405015760  0.0867215901096754  0.3748066346771408
  0.8914710274052836  0.7103755782513228  0.3748066346771408
  0.9527114572574465  0.4351635846499221  0.3748066346771408
  0.3623940031992995  0.0298723373109991  0.3748066346771408
  0.6376059968007003  0.0298723373109991  0.3748066346771408
  0.9242868308581085  0.3074244731247184  0.3748066346771408
  0.7526949594984240  0.0867215901096754  0.3748066346771408
  0.5000000000000000  0.4739524581991566  0.5158923999687853
  0.5000000000000000  0.4739524581991566  0.7087905346268571
  0.5000000000000000  0.4739524581991566  0.2816784531974841
  0.5000000000000000  0.4739524581991566  0.6248670319866657
  0.1686288880493989  0.7450080309476903  0.7218712473965236
  0.5000000000000000  0.9086918427736420  0.7218712473965236
  0.0867869821364230  0.3772138443160488  0.7218712473965236
  0.8313711119506011  0.7450080309476903  0.7218712473965236
  0.3161029066841792  0.0822658070464880  0.7218712473965236
  0.9132130178635770  0.3772138443160488  0.7218712473965236
  0.6838970933158207  0.0822658070464879  0.7218712473965236
  0.0990311320975809  0.8019377358048384  0.2781287526034763
  0.5000000000000000  1.0000000000000000  0.2781287526034763
  0.0000000000000000  0.3568958678922096  0.2781287526034762
  0.9009688679024190  0.8019377358048384  0.2781287526034763
  0.2774790660436855  0.0000000000000001  0.2781287526034762
  1.0000000000000000  0.3568958678922096  0.2781287526034763
  0.7225209339563143  0.0000000000000000  0.2781287526034762
  0.5000000000000000  0.4739524581991566  0.4369271221304666
  0.2397891310477406  0.6868002399628329  0.3342990932475851
  0.5000000000000000  0.8153337945564465  0.3342990932475851
  0.1755223537509338  0.3979879643976778  0.3342990932475851
  0.7602108689522594  0.6868002399628330  0.3342990932475851
  0.3555938622174223  0.1663785020583141  0.3342990932475851
  0.8244776462490663  0.3979879643976778  0.3342990932475851
  0.6444061377825776  0.1663785020583141  0.3342990932475851
  0.5000000000000000  0.4739524581991566  0.3486597688522992
EA4
 1.0000000000000000
     5.6734062655478619    0.0000000000000000    0.0000000000000000
     0.0000000000000000    5.6734062655478619    0.0000000000000000
     0.0000000000000000    0.0000000000000000   32.1497557148165498
 O   Cu 
  24  24
Direct
  0.5977953816756622  0.5014197517845225  0.5000000000000000
  0.4985802482154775  0.5977953816756622  0.5000000000000000
  0.4022046183243379  0.4985802482154775  0.5000000000000000
  0.5014197517845225  0.4022046183243379  0.5000000000000000
  0.7357103524938350  0.5622468629610610  0.8444778229622536
  0.7357103524938350  0.5622468629610610  0.1555221770377464
  0.2642896475061650  0.4377531370389390  0.8444778229622536
  0.4377531370389390  0.7357103524938350  0.1555221770377464
  0.4377531370389390  0.7357103524938350  0.8444778229622536
  0.5622468629610610  0.2642896475061650  0.8444778229622536
  0.2642896475061650  0.4377531370389390  0.1555221770377464
  0.5622468629610610  0.2642896475061650  0.1555221770377464
  0.5689606990492906  0.6776229888152225  0.8098738076068654
  0.5689606990492906  0.6776229888152225  0.1901261923931345
  0.4310393009507094  0.3223770111847774  0.8098738076068654
  0.3223770111847774  0.5689606990492906  0.1901261923931345
  0.3223770111847774  0.5689606990492906  0.8098738076068654
  0.6776229888152225  0.4310393009507094  0.8098738076068654
  0.4310393009507094  0.3223770111847774  0.1901261923931345
  0.6776229888152225  0.4310393009507094  0.1901261923931345
  0.9601507839313699  0.5410500235678976  0.5000000000000000
  0.4589499764321026  0.9601507839313699  0.5000000000000000
  0.0398492160686301  0.4589499764321025  0.5000000000000000
  0.5410500235678974  0.0398492160686301  0.5000000000000000
  0.5502033371066457  0.7157194358568663  0.7648220145993433
  0.5502033371066457  0.7157194358568663  0.2351779854006567
  0.4497966628933543  0.2842805641431338  0.7648220145993433
  0.2842805641431338  0.5502033371066457  0.2351779854006567
  0.2842805641431338  0.5502033371066457  0.7648220145993433
  0.7157194358568663  0.4497966628933543  0.7648220145993433
  0.4497966628933543  0.2842805641431338  0.2351779854006567
  0.7157194358568663  0.4497966628933543  0.2351779854006567
  0.7297323228577867  0.8562464876118081  0.6560945871162169
  0.7297323228577867  0.8562464876118081  0.3439054128837831
  0.2702676771422133  0.1437535123881918  0.6560945871162169
  0.1437535123881918  0.7297323228577867  0.3439054128837831
  0.1437535123881918  0.7297323228577867  0.6560945871162169
  0.8562464876118081  0.2702676771422134  0.6560945871162169
  0.2702676771422133  0.1437535123881918  0.3439054128837831
  0.8562464876118081  0.2702676771422134  0.3439054128837831
  0.5000000000000000  0.5000000000000000  0.6921794141586262
  0.5000000000000000  0.5000000000000000  0.3078205858413738
  0.6550030865604370  1.0000000000000000  0.5000000000000000
  0.0000000000000000  0.6550030865604370  0.5000000000000000
  0.3449969134395629  0.0000000000000000  0.5000000000000000
  1.0000000000000000  0.3449969134395629  0.5000000000000000
  0.5000000000000000  0.5000000000000000  0.7350956236033908
  0.5000000000000000  0.5000000000000000  0.2649043763966092
EA5
 1.0000000000000000
    13.4745876362170076    0.0000000000000000    0.0000000000000000
     0.0000000000000000   13.7766035480368281    0.0000000000000000
     0.0000000000000000    0.0000000000000000   13.4238410847561518
 O   Cu 
  24  24
Direct
  0.7653350444896259  0.5335470618330332  0.6124626635076816
  0.3970362631389013  0.2584770551036327  0.6124626635076815
  0.2346649555103742  0.4664529381669670  0.3875373364923184
  0.3376286923714727  0.7079758830633346  0.6124626635076816
  0.6029637368610987  0.7415229448963675  0.3875373364923184
  0.6623713076285271  0.2920241169366657  0.3875373364923184
  0.5348983099269428  0.5266448032467677  0.5280335275199235
  0.5061431203055941  0.4571173315824038  0.5280335275199235
  0.4651016900730572  0.4733551967532326  0.4719664724800765
  0.4589585697674632  0.5162378651708289  0.5280335275199235
  0.4938568796944059  0.5428826684175965  0.4719664724800766
  0.5410414302325368  0.4837621348291714  0.4719664724800766
  0.9679619802477079  0.7072349053791499  0.5434981263771652
  0.4495123120327972  0.0000000000000000  0.5434981263771651
  0.0320380197522921  0.2927650946208503  0.4565018736228348
  0.0825257077194949  0.7927650946208507  0.5434981263771652
  0.5504876879672029  1.0000000000000000  0.4565018736228349
  0.9174742922805050  0.2072349053791495  0.4565018736228348
  0.8652564969967749  0.8584354530624905  0.6275283677428287
  0.6347435030032249  0.0113953856181078  0.6275283677428286
  0.1347435030032251  0.1415645469375098  0.3724716322571712
  0.0000000000000000  0.6301691613194024  0.6275283677428286
  0.3652564969967753  0.9886046143818923  0.3724716322571713
  1.0000000000000000  0.3698308386805980  0.3724716322571713
  0.8080746812728263  0.8053548155945928  0.5785420151111397
  0.6163348890822025  0.0863709933994623  0.5785420151111397
  0.1919253187271736  0.1946451844054075  0.4214579848888603
  0.0755904296449710  0.6082741910059454  0.5785420151111397
  0.3836651109177977  0.9136290066005377  0.4214579848888604
  0.9244095703550288  0.3917258089940548  0.4214579848888604
  0.5041504699988060  0.6432644688416583  0.6238928889058544
  0.6247763222774891  0.4248521511914565  0.6238928889058544
  0.4958495300011940  0.3567355311583418  0.3761071110941456
  0.3710732077237048  0.4318833799668855  0.6238928889058544
  0.3752236777225110  0.5751478488085437  0.3761071110941456
  0.6289267922762951  0.5681166200331147  0.3761071110941456
  0.6336847436701999  0.5713291712791037  0.5518781255316164
  0.4963150637047959  0.3510990800657572  0.5518781255316164
  0.3663152563298002  0.4286708287208966  0.4481218744683836
  0.3700001926250042  0.5775717486551395  0.5518781255316164
  0.5036849362952042  0.6489009199342429  0.4481218744683836
  0.6299998073749958  0.4224282513448607  0.4481218744683836
  0.6847370329153468  0.9383577608964978  0.6241229956251618
  0.7957693453843347  0.1243414507316608  0.6241229956251618
  0.3152629670846532  0.0616422391035024  0.3758770043748381
  0.0194936217003181  0.4373007883718418  0.6241229956251618
  0.2042306546156654  0.8756585492683392  0.3758770043748382
  0.9805063782996817  0.5626992116281585  0.3758770043748382
Generation:2
Generation:3
