EA23   20.018 20.018 19.195 90.00 90.00 90.00 Sym.group:    0
1.0000
   20.018442     0.000000     0.000000
    0.000000    20.018442     0.000000
    0.000000     0.000000    19.195082
   O  Cu
  18   24 
Direct
    0.402917     0.424114     0.654603     0.022631
    0.402917     0.575886     0.345397     0.019052
    0.597083     0.652625     0.430502     0.022628
    0.597083     0.347375     0.569498     0.022648
    0.343162     0.525704     0.613773     0.022700
    0.443990     0.536718     0.688516     0.018926
    0.656838     0.392690     0.466257     0.022708
    0.556010     0.678166     0.549797     0.018911
    0.343162     0.474296     0.386227     0.019059
    0.556010     0.321834     0.450203     0.018907
    0.656838     0.607310     0.533743     0.022704
    0.443990     0.463282     0.311484     0.019073
    0.402917     0.433361     0.340828     0.019032
    0.402917     0.566639     0.659172     0.018880
    0.597083     0.648245     0.579141     0.018898
    0.597083     0.351755     0.420859     0.018870
    0.343162     0.532355     0.388087     0.018995
    0.443990     0.547749     0.314191     0.018995
    0.656838     0.390906     0.526807     0.018705
    0.556010     0.680763     0.461707     0.018707
    0.343162     0.467645     0.611913     0.018714
    0.556010     0.319237     0.538293     0.018720
    0.656838     0.609094     0.473193     0.018706
    0.443990     0.452251     0.685809     0.018711
    0.434238     0.495599     0.649324     0.036229
    0.434238     0.504401     0.350676     0.040064
    0.565762     0.643182     0.504589     0.036219
    0.565762     0.356818     0.495411     0.036240
    0.398707     0.471258     0.622329     0.035260
    0.398707     0.521484     0.623939     0.038231
    0.601293     0.381158     0.522406     0.035282
    0.601293     0.617298     0.529974     0.038221
    0.398707     0.528742     0.377671     0.040059
    0.601293     0.382702     0.470026     0.038227
    0.601293     0.618842     0.477594     0.035277
    0.398707     0.478516     0.376061     0.040041
    0.336274     0.500000     0.500000     0.012623
    0.663726     0.500000     0.500000     0.011698
    0.500000     0.380726     0.616972     0.011577
    0.500000     0.619274     0.383028     0.012529
    0.500000     0.612161     0.624389     0.013911
    0.500000     0.387839     0.375611     0.014076
EA96   19.260 19.871 19.882 90.00 90.00 90.00 Sym.group:    0
1.0000
   19.260104     0.000000     0.000000
    0.000000    19.870743     0.000000
    0.000000     0.000000    19.882329
   O  Cu
  18   24 
Direct
    0.606781     0.422338     0.645947     0.018758
    0.600503     0.576400     0.349476     0.017580
    0.400123     0.655249     0.434283     0.023142
    0.402052     0.346748     0.569601     0.022182
    0.664989     0.521326     0.606131     0.021795
    0.561480     0.538113     0.680805     0.018280
    0.333231     0.393488     0.474486     0.023487
    0.443154     0.680775     0.549967     0.018666
    0.659787     0.476112     0.388395     0.018837
    0.437036     0.319665     0.451217     0.019644
    0.336474     0.607718     0.533550     0.023558
    0.554666     0.462132     0.316552     0.018387
    0.595382     0.433444     0.345641     0.017720
    0.602601     0.566056     0.652121     0.017933
    0.399638     0.650296     0.578073     0.018695
    0.393010     0.349493     0.425813     0.019414
    0.662877     0.534499     0.387362     0.019175
    0.556186     0.547221     0.320217     0.017739
    0.337691     0.390379     0.532893     0.018609
    0.442226     0.682654     0.464869     0.018588
    0.667476     0.462859     0.605366     0.019111
    0.441626     0.318724     0.536217     0.018749
    0.337629     0.612011     0.474985     0.018483
    0.563145     0.452910     0.676466     0.017317
    0.571994     0.495644     0.641977     0.032185
    0.566125     0.503998     0.354687     0.036163
    0.432115     0.645104     0.506075     0.036087
    0.429609     0.355883     0.496099     0.037154
    0.609625     0.469281     0.615510     0.031576
    0.607698     0.519900     0.617257     0.036749
    0.394929     0.380485     0.524727     0.034809
    0.394621     0.618861     0.530462     0.038120
    0.604554     0.529280     0.379895     0.036899
    0.391315     0.381876     0.474226     0.039502
    0.395344     0.621126     0.479840     0.035284
    0.602042     0.478728     0.379314     0.038372
    0.671782     0.497207     0.496667     0.011868
    0.328192     0.500987     0.505306     0.012401
    0.507158     0.382204     0.608676     0.010035
    0.501769     0.619403     0.389287     0.012001
    0.499663     0.615488     0.621566     0.012386
    0.491703     0.383933     0.377995     0.011212
EA164  19.260 19.871 19.882 90.00 90.00 90.00 Sym.group:    0
1.0000
   19.260104     0.000000     0.000000
    0.000000    19.870743     0.000000
    0.000000     0.000000    19.882329
   O  Cu
  18   24 
Direct
    0.606781     0.422338     0.645947     0.018758
    0.600503     0.576400     0.349476     0.017580
    0.400123     0.655249     0.434283     0.023142
    0.402052     0.346748     0.569601     0.022182
    0.664989     0.521326     0.606131     0.021795
    0.561480     0.538113     0.680805     0.018280
    0.333231     0.393488     0.474486     0.023487
    0.443154     0.680775     0.549967     0.018666
    0.659787     0.476112     0.388395     0.018837
    0.437036     0.319665     0.451217     0.019644
    0.336474     0.607718     0.533550     0.023558
    0.554666     0.462132     0.316552     0.018387
    0.595382     0.433444     0.345641     0.017720
    0.602601     0.566056     0.652121     0.017933
    0.399638     0.650296     0.578073     0.018695
    0.393010     0.349493     0.425813     0.019414
    0.662877     0.534499     0.387362     0.019175
    0.556186     0.547221     0.320217     0.017739
    0.337691     0.390379     0.532893     0.018609
    0.442226     0.682654     0.464869     0.018588
    0.667476     0.462859     0.605366     0.019111
    0.441626     0.318724     0.536217     0.018749
    0.337629     0.612011     0.474985     0.018483
    0.563145     0.452910     0.676466     0.017317
    0.571994     0.495644     0.641977     0.032185
    0.566125     0.503998     0.354687     0.036163
    0.432115     0.645104     0.506075     0.036087
    0.429609     0.355883     0.496099     0.037154
    0.609625     0.469281     0.615510     0.031576
    0.607698     0.519900     0.617257     0.036749
    0.394929     0.380485     0.524727     0.034809
    0.394621     0.618861     0.530462     0.038120
    0.604554     0.529280     0.379895     0.036899
    0.391315     0.381876     0.474226     0.039502
    0.395344     0.621126     0.479840     0.035284
    0.602042     0.478728     0.379314     0.038372
    0.671782     0.497207     0.496667     0.011868
    0.328192     0.500987     0.505306     0.012401
    0.507158     0.382204     0.608676     0.010035
    0.501769     0.619403     0.389287     0.012001
    0.499663     0.615488     0.621566     0.012386
    0.491703     0.383933     0.377995     0.011212
