EA1    18.554 18.554 12.059 90.00 90.00 90.00 Sym.group:    0
1.0000
   18.554077     0.000000     0.000000
    0.000000    18.554077     0.000000
    0.000000     0.000000    12.059186
   O  Cu
  18   24 
Direct
    0.466427     0.711969     0.500000
    0.288031     0.533573     0.500000
    0.402568     0.308780     0.500000
    0.651753     0.348247     0.500000
    0.691220     0.597432     0.500000
    0.348247     0.651753     0.500000
    0.308780     0.402568     0.500000
    0.533573     0.288031     0.500000
    0.711969     0.466427     0.500000
    0.597432     0.691220     0.500000
    0.523702     0.350353     0.500000
    0.649647     0.476298     0.500000
    0.568785     0.634998     0.500000
    0.392865     0.607135     0.500000
    0.365002     0.431215     0.500000
    0.607135     0.392865     0.500000
    0.634998     0.568785     0.500000
    0.476298     0.649647     0.500000
    0.350353     0.523702     0.500000
    0.431215     0.365002     0.500000
    0.638173     0.316119     0.584549
    0.717579     0.574588     0.584549
    0.496298     0.729978     0.584549
    0.280134     0.567547     0.584549
    0.367817     0.311768     0.584549
    0.425412     0.282421     0.415451
    0.270022     0.503702     0.415451
    0.432453     0.719866     0.415451
    0.688232     0.632183     0.415451
    0.683881     0.361827     0.415451
    0.567547     0.280134     0.584549
    0.729978     0.496298     0.584549
    0.574588     0.717579     0.584549
    0.316119     0.638173     0.584549
    0.311768     0.367817     0.584549
    0.503702     0.270022     0.415451
    0.282421     0.425412     0.415451
    0.361827     0.683881     0.415451
    0.632183     0.688232     0.415451
    0.719866     0.432453     0.415451
    0.500000     0.500000     0.568607
    0.500000     0.500000     0.431393
EA2    17.537 17.537 17.537 90.00 90.00 90.00 Sym.group:    0
1.0000
   17.537413     0.000000     0.000000
    0.000000    17.537413     0.000000
    0.000000     0.000000    17.537413
   O  Cu
  18   24 
Direct
    0.464594     0.710142     0.503693
    0.535406     0.289858     0.503693
    0.363143     0.663351     0.496307
    0.636857     0.336649     0.496307
    0.314800     0.410515     0.555861
    0.526749     0.450821     0.294348
    0.311707     0.417222     0.444139
    0.520042     0.447728     0.705652
    0.685200     0.589485     0.555861
    0.479958     0.552272     0.705652
    0.688293     0.582778     0.444139
    0.473251     0.549179     0.294348
    0.663351     0.636857     0.503693
    0.336649     0.363143     0.503693
    0.710142     0.535406     0.496307
    0.289858     0.464594     0.496307
    0.582778     0.311707     0.555861
    0.447728     0.479958     0.294348
    0.589485     0.314800     0.444139
    0.450821     0.473251     0.705652
    0.417222     0.688293     0.555861
    0.549179     0.526749     0.705652
    0.410515     0.685200     0.444139
    0.552272     0.520042     0.294348
    0.582003     0.469764     0.694211
    0.417997     0.530236     0.694211
    0.469764     0.417997     0.305789
    0.530236     0.582003     0.305789
    0.637459     0.349527     0.561801
    0.702240     0.525220     0.561801
    0.474780     0.702240     0.438199
    0.349527     0.362541     0.438199
    0.362541     0.650473     0.561801
    0.650473     0.637459     0.438199
    0.525220     0.297760     0.438199
    0.297760     0.474780     0.561801
    0.500000     0.500000     0.374447
    0.500000     0.500000     0.625553
    0.385989     0.447416     0.500000
    0.614011     0.552584     0.500000
    0.447416     0.614011     0.500000
    0.552584     0.385989     0.500000
EA3    18.745 19.030 13.709 90.00 90.00 90.00 Sym.group:    0
1.0000
   18.744923     0.000000     0.000000
    0.000000    19.030159     0.000000
    0.000000     0.000000    13.709490
   O  Cu
  18   24 
Direct
    0.648421     0.591291     0.365440
    0.493947     0.672255     0.365440
    0.345526     0.580965     0.365440
    0.351579     0.408709     0.365440
    0.506053     0.327745     0.365440
    0.654474     0.419035     0.365440
    0.600084     0.358619     0.634560
    0.425739     0.343933     0.634560
    0.325655     0.485315     0.634560
    0.399916     0.641381     0.634560
    0.574261     0.656067     0.634560
    0.674345     0.514685     0.634560
    0.593287     0.439852     0.633686
    0.599526     0.549504     0.633686
    0.506239     0.609652     0.633686
    0.406713     0.560148     0.633686
    0.400474     0.450496     0.633686
    0.493761     0.390348     0.633686
    0.609775     0.519217     0.366314
    0.571783     0.415965     0.366314
    0.462008     0.396748     0.366314
    0.390225     0.480783     0.366314
    0.428217     0.584035     0.366314
    0.537992     0.603252     0.366314
    0.571908     0.387744     0.434159
    0.634650     0.505213     0.434159
    0.562742     0.617469     0.434159
    0.428092     0.612256     0.434159
    0.365350     0.494787     0.434159
    0.437258     0.382531     0.434159
    0.610895     0.575409     0.565841
    0.621747     0.443106     0.565841
    0.510852     0.367697     0.565841
    0.389105     0.424591     0.565841
    0.378253     0.556894     0.565841
    0.489148     0.632303     0.565841
    0.732728     0.576413     0.500000
    0.549181     0.736734     0.500000
    0.316454     0.660321     0.500000
    0.267272     0.423587     0.500000
    0.450819     0.263266     0.500000
    0.683546     0.339679     0.500000
EA4    17.519 18.677 13.286 90.00 90.00 90.00 Sym.group:    0
1.0000
   17.518899     0.000000     0.000000
    0.000000    18.677185     0.000000
    0.000000     0.000000    13.286206
   O  Cu
  18   24 
Direct
    0.660873     0.440274     0.377083
    0.635581     0.600817     0.377083
    0.474707     0.660543     0.377083
    0.339127     0.559726     0.377083
    0.364419     0.399183     0.377083
    0.525293     0.339457     0.377083
    0.660873     0.440274     0.622917
    0.635581     0.600817     0.622917
    0.474707     0.660543     0.622917
    0.339127     0.559726     0.622917
    0.364419     0.399183     0.622917
    0.525293     0.339457     0.622917
    0.540350     0.344723     0.558318
    0.663540     0.455139     0.558318
    0.623190     0.610416     0.558318
    0.459650     0.655277     0.558318
    0.336460     0.544861     0.558318
    0.376810     0.389584     0.558318
    0.540350     0.344723     0.441682
    0.663540     0.455139     0.441682
    0.623190     0.610416     0.441682
    0.459650     0.655277     0.441682
    0.336460     0.544861     0.441682
    0.376810     0.389584     0.441682
    0.406650     0.544669     0.461984
    0.412083     0.446505     0.461984
    0.505433     0.401836     0.461984
    0.593350     0.455331     0.461984
    0.587917     0.553495     0.461984
    0.494567     0.598164     0.461984
    0.406650     0.544669     0.538016
    0.412083     0.446505     0.538016
    0.505433     0.401836     0.538016
    0.593350     0.455331     0.538016
    0.587917     0.553495     0.538016
    0.494567     0.598164     0.538016
    0.714023     0.384193     0.500000
    0.713934     0.615951     0.500000
    0.499911     0.731758     0.500000
    0.285977     0.615807     0.500000
    0.286066     0.384049     0.500000
    0.500089     0.268242     0.500000
EA5    20.081 14.797 14.790 90.00 90.00 90.00 Sym.group:    0
1.0000
   20.081329     0.000000     0.000000
    0.000000    14.796862     0.000000
    0.000000     0.000000    14.789972
   O  Cu
  18   24 
Direct
    0.508376     0.500000     0.500000
    0.663859     0.356029     0.458796
    0.663859     0.607652     0.395861
    0.663859     0.536319     0.645342
    0.675092     0.597617     0.500079
    0.675092     0.451123     0.584539
    0.675092     0.451260     0.415382
    0.675092     0.582891     0.551581
    0.675092     0.503204     0.402390
    0.675092     0.413904     0.546029
    0.534551     0.575618     0.557334
    0.534551     0.412561     0.536850
    0.534551     0.511821     0.405816
    0.534551     0.594485     0.491348
    0.534551     0.445268     0.422462
    0.534551     0.460247     0.586190
    0.269234     0.523199     0.422603
    0.269234     0.555397     0.558798
    0.269234     0.421405     0.518598
    0.269234     0.478777     0.577962
    0.269234     0.578097     0.479407
    0.269234     0.443126     0.442631
    0.331187     0.500000     0.500000
    0.669679     0.661251     0.500669
    0.669679     0.418796     0.639378
    0.669679     0.419953     0.359954
    0.669679     0.637210     0.584749
    0.669679     0.504756     0.338743
    0.669679     0.358035     0.576508
    0.301930     0.479557     0.418191
    0.301930     0.581037     0.523192
    0.301930     0.439406     0.558617
    0.249485     0.500000     0.500000
    0.510196     0.450437     0.657844
    0.510196     0.388148     0.378135
    0.510196     0.661415     0.464021
    0.510196     0.541371     0.339812
    0.510196     0.340652     0.544249
    0.510196     0.617977     0.615939
    0.353691     0.522694     0.590817
    0.353691     0.410040     0.474254
    0.353691     0.567267     0.434929
EA6    22.930 16.205 13.994 90.00 90.00 90.00 Sym.group:    0
1.0000
   22.929607     0.000000     0.000000
    0.000000    16.205026     0.000000
    0.000000     0.000000    13.994276
   O  Cu
  18   24 
Direct
    0.218495     0.476062     0.475305
    0.781505     0.523938     0.475305
    0.218495     0.523938     0.524695
    0.781505     0.476062     0.524695
    0.569628     0.526892     0.497045
    0.430372     0.473108     0.497045
    0.569628     0.473108     0.502955
    0.430372     0.526892     0.502955
    0.342774     0.482537     0.407255
    0.657226     0.517463     0.407255
    0.342774     0.517463     0.592745
    0.657226     0.482537     0.592745
    0.257190     0.564383     0.549640
    0.742810     0.435617     0.549640
    0.257190     0.435617     0.450360
    0.742810     0.564383     0.450360
    0.665335     0.391958     0.426524
    0.334665     0.608042     0.426524
    0.665335     0.608042     0.573476
    0.334665     0.391958     0.573476
    0.445983     0.690837     0.552698
    0.554017     0.309163     0.552698
    0.445983     0.309163     0.447302
    0.554017     0.690837     0.447302
    0.422149     0.481091     0.358004
    0.577851     0.518909     0.358004
    0.422149     0.518909     0.641996
    0.577851     0.481091     0.641996
    0.279171     0.567910     0.481848
    0.720829     0.432090     0.481848
    0.279171     0.432090     0.518152
    0.720829     0.567910     0.518152
    0.397527     0.440321     0.560461
    0.602473     0.559679     0.560461
    0.397527     0.559679     0.439539
    0.602473     0.440321     0.439539
    0.613011     0.414278     0.569529
    0.386989     0.585722     0.569529
    0.613011     0.585722     0.430471
    0.386989     0.414278     0.430471
    0.500000     0.334649     0.500000
    0.500000     0.665351     0.500000
EA7    16.806 15.816 15.816 90.00 90.00 90.00 Sym.group:    0
1.0000
   16.806137     0.000000     0.000000
    0.000000    15.816053     0.000000
    0.000000     0.000000    15.816053
   O  Cu
  18   24 
Direct
    0.393427     0.683233     0.500000
    0.422883     0.336111     0.386756
    0.595322     0.449356     0.683233
    0.606573     0.316767     0.500000
    0.577117     0.663889     0.386756
    0.404678     0.550644     0.683233
    0.298105     0.480656     0.500000
    0.577117     0.663889     0.613244
    0.595322     0.449356     0.316767
    0.701895     0.519344     0.500000
    0.422883     0.336111     0.613244
    0.404678     0.550644     0.316767
    0.500000     0.500000     0.659325
    0.500000     0.500000     0.340675
    0.365891     0.571252     0.500000
    0.634109     0.428748     0.500000
    0.432945     0.357495     0.500000
    0.567055     0.642505     0.500000
    0.378697     0.420337     0.549234
    0.621303     0.579663     0.450766
    0.412224     0.601681     0.420337
    0.587776     0.398319     0.579663
    0.507915     0.406730     0.371103
    0.492085     0.593270     0.628897
    0.425031     0.450766     0.371103
    0.574969     0.549234     0.628897
    0.487194     0.650915     0.450766
    0.512806     0.349085     0.549234
    0.629218     0.486392     0.420337
    0.370782     0.513608     0.579663
    0.574969     0.549234     0.371103
    0.425031     0.450766     0.628897
    0.487194     0.650915     0.549234
    0.512806     0.349085     0.450766
    0.629218     0.486392     0.579663
    0.370782     0.513608     0.420337
    0.621303     0.579663     0.549234
    0.378697     0.420337     0.450766
    0.412224     0.601681     0.579663
    0.587776     0.398319     0.420337
    0.507915     0.406730     0.628897
    0.492085     0.593270     0.371103
EA8    17.669 15.840 16.458 90.00 90.00 90.00 Sym.group:    0
1.0000
   17.668834     0.000000     0.000000
    0.000000    15.839643     0.000000
    0.000000     0.000000    16.458355
   O  Cu
  18   24 
Direct
    0.638820     0.656873     0.494020
    0.361180     0.573055     0.366261
    0.638820     0.416182     0.372241
    0.361180     0.343127     0.505980
    0.638820     0.426945     0.633739
    0.361180     0.583818     0.627759
    0.475734     0.331691     0.389370
    0.524266     0.316295     0.584966
    0.475734     0.484604     0.695595
    0.524266     0.668309     0.610630
    0.475734     0.683705     0.415034
    0.524266     0.515396     0.304405
    0.593087     0.570539     0.337889
    0.406913     0.389393     0.360153
    0.593087     0.318855     0.522264
    0.406913     0.429461     0.662111
    0.593087     0.610607     0.639847
    0.406913     0.681145     0.477736
    0.475663     0.347559     0.569259
    0.524337     0.486102     0.661684
    0.475663     0.638543     0.592426
    0.524337     0.652441     0.430741
    0.475663     0.513898     0.338316
    0.524337     0.361457     0.407574
    0.405004     0.345826     0.452062
    0.594996     0.379775     0.604530
    0.405004     0.533950     0.652469
    0.594996     0.654174     0.547938
    0.405004     0.620225     0.395470
    0.594996     0.466050     0.347531
    0.549122     0.542626     0.405238
    0.450878     0.436041     0.417092
    0.549122     0.393415     0.511854
    0.450878     0.457374     0.594762
    0.549122     0.563959     0.582908
    0.450878     0.606585     0.488146
    0.716450     0.530885     0.559654
    0.283550     0.569122     0.504085
    0.716450     0.538237     0.444431
    0.283550     0.469115     0.440346
    0.716450     0.430878     0.495915
    0.283550     0.461763     0.555569
EA9    20.797 14.852 14.852 90.00 90.00 90.00 Sym.group:    0
1.0000
   20.797412     0.000000     0.000000
    0.000000    14.852458     0.000000
    0.000000     0.000000    14.852458
   O  Cu
  18   24 
Direct
    0.436391     0.500000     0.500000
    0.428795     0.427759     0.402638
    0.428795     0.572241     0.597362
    0.573606     0.495802     0.621163
    0.573606     0.504198     0.378837
    0.428795     0.621163     0.504198
    0.428795     0.378837     0.495802
    0.573606     0.597362     0.427759
    0.573606     0.402638     0.572241
    0.759105     0.438527     0.467719
    0.759105     0.561473     0.532281
    0.243297     0.467719     0.561473
    0.243297     0.532281     0.438527
    0.364053     0.433405     0.511715
    0.364053     0.566595     0.488285
    0.638348     0.438527     0.528162
    0.638348     0.561473     0.471838
    0.364053     0.528162     0.561473
    0.364053     0.471838     0.438527
    0.638348     0.488285     0.433405
    0.638348     0.511715     0.566595
    0.681150     0.595293     0.470831
    0.681150     0.404707     0.529169
    0.321251     0.595008     0.469915
    0.321251     0.404992     0.530085
    0.681150     0.469915     0.404992
    0.681150     0.530085     0.595008
    0.321251     0.529169     0.595293
    0.321251     0.470831     0.404707
    0.700107     0.453498     0.588555
    0.700107     0.546502     0.411445
    0.302294     0.411445     0.453498
    0.302294     0.588555     0.546502
    0.515584     0.500000     0.500000
    0.641932     0.570063     0.536791
    0.641932     0.429937     0.463209
    0.360469     0.536791     0.429937
    0.360469     0.463209     0.570063
    0.501201     0.449345     0.337318
    0.501201     0.662682     0.449345
    0.501201     0.550655     0.662682
    0.501201     0.337318     0.550655
EA10   16.839 16.839 14.577 90.00 90.00 90.00 Sym.group:    0
1.0000
   16.838819     0.000000     0.000000
    0.000000    16.838819     0.000000
    0.000000     0.000000    14.577100
   O  Cu
  18   24 
Direct
    0.530249     0.357460     0.656310
    0.357460     0.469751     0.656310
    0.469751     0.642540     0.656310
    0.642540     0.530249     0.656310
    0.617583     0.413936     0.343690
    0.586064     0.617583     0.343690
    0.382417     0.586064     0.343690
    0.413936     0.382417     0.343690
    0.530249     0.357460     0.343690
    0.357460     0.469751     0.343690
    0.469751     0.642540     0.343690
    0.642540     0.530249     0.343690
    0.617583     0.413936     0.656310
    0.586064     0.617583     0.656310
    0.382417     0.586064     0.656310
    0.413936     0.382417     0.656310
    0.358539     0.481328     0.553359
    0.481328     0.641461     0.553359
    0.641461     0.518672     0.553359
    0.518672     0.358539     0.553359
    0.575064     0.621347     0.446641
    0.378653     0.575064     0.446641
    0.424936     0.378653     0.446641
    0.621347     0.424936     0.446641
    0.358539     0.481328     0.446641
    0.481328     0.641461     0.446641
    0.641461     0.518672     0.446641
    0.518672     0.358539     0.446641
    0.575064     0.621347     0.553359
    0.378653     0.575064     0.553359
    0.424936     0.378653     0.553359
    0.621347     0.424936     0.553359
    0.598164     0.297527     0.500000
    0.297527     0.401836     0.500000
    0.401836     0.702473     0.500000
    0.702473     0.598164     0.500000
    0.644378     0.327412     0.500000
    0.672588     0.644378     0.500000
    0.355622     0.672588     0.500000
    0.327412     0.355622     0.500000
    0.500000     0.500000     0.615277
    0.500000     0.500000     0.384723
EA11   22.375 17.766 12.489 90.00 90.00 90.00 Sym.group:    0
1.0000
   22.374848     0.000000     0.000000
    0.000000    17.765719     0.000000
    0.000000     0.000000    12.488676
   O  Cu
  18   24 
Direct
    0.445305     0.396107     0.407644
    0.554695     0.603893     0.407644
    0.554695     0.396107     0.592356
    0.445305     0.603893     0.592356
    0.617981     0.421164     0.435874
    0.382019     0.578836     0.435874
    0.382019     0.421164     0.564126
    0.617981     0.578836     0.564126
    0.672332     0.434334     0.543602
    0.327668     0.565666     0.543602
    0.327668     0.434334     0.456398
    0.672332     0.565666     0.456398
    0.658432     0.404731     0.456598
    0.341568     0.595269     0.456598
    0.341568     0.404731     0.543402
    0.658432     0.595269     0.543402
    0.603274     0.537865     0.535565
    0.396726     0.462135     0.535565
    0.396726     0.537865     0.464435
    0.603274     0.462135     0.464435
    0.536161     0.282004     0.401163
    0.463839     0.717996     0.401163
    0.463839     0.282004     0.598837
    0.536161     0.717996     0.598837
    0.569732     0.616603     0.562595
    0.430268     0.383397     0.562595
    0.430268     0.616603     0.437405
    0.569732     0.383397     0.437405
    0.567866     0.542951     0.580423
    0.432134     0.457049     0.580423
    0.432134     0.542951     0.419577
    0.567866     0.457049     0.419577
    0.380187     0.680320     0.518346
    0.619813     0.319680     0.518346
    0.619813     0.680320     0.481654
    0.380187     0.319680     0.481654
    0.628440     0.451531     0.529625
    0.371560     0.548469     0.529625
    0.371560     0.451531     0.470375
    0.628440     0.548469     0.470375
    0.776088     0.500000     0.500000
    0.223912     0.500000     0.500000
EA12   18.315 18.297 14.052 90.00 90.00 90.00 Sym.group:    0
1.0000
   18.314860     0.000000     0.000000
    0.000000    18.296876     0.000000
    0.000000     0.000000    14.052172
   O  Cu
  18   24 
Direct
    0.513412     0.592286     0.477829
    0.565042     0.566770     0.525821
    0.591828     0.515750     0.477829
    0.583539     0.458714     0.525821
    0.543340     0.417448     0.477829
    0.486588     0.407714     0.525821
    0.434958     0.433230     0.477829
    0.408172     0.484250     0.525821
    0.416461     0.541286     0.477829
    0.456660     0.582552     0.525821
    0.726452     0.534311     0.579631
    0.703351     0.394523     0.424019
    0.602577     0.295023     0.579631
    0.462623     0.273817     0.424019
    0.336945     0.339006     0.579631
    0.273548     0.465689     0.424019
    0.296649     0.605477     0.579631
    0.397423     0.704977     0.424019
    0.537377     0.726183     0.579631
    0.663055     0.660994     0.424019
    0.439663     0.333210     0.550083
    0.353246     0.400564     0.453566
    0.322884     0.505899     0.550083
    0.360174     0.608981     0.453566
    0.450873     0.670436     0.550083
    0.560337     0.666790     0.453566
    0.646754     0.599436     0.550083
    0.677116     0.494101     0.453566
    0.639826     0.391019     0.550083
    0.549127     0.329564     0.453566
    0.590180     0.520820     0.360178
    0.585183     0.463785     0.643471
    0.547648     0.420583     0.360178
    0.491914     0.407716     0.643471
    0.439268     0.430098     0.360178
    0.409820     0.479180     0.643471
    0.414817     0.536215     0.360178
    0.452352     0.579417     0.643471
    0.508086     0.592284     0.360178
    0.560732     0.569902     0.643471
    0.500000     0.500000     0.527030
    0.500000     0.500000     0.399977
EA13   18.096 17.161 13.586 90.00 90.00 90.00 Sym.group:    0
1.0000
   18.095680     0.000000     0.000000
    0.000000    17.161121     0.000000
    0.000000     0.000000    13.585873
   O  Cu
  18   24 
Direct
    0.500000     0.500000     0.368765
    0.500000     0.500000     0.631235
    0.356602     0.440959     0.446659
    0.523209     0.660470     0.446659
    0.620189     0.398571     0.446659
    0.523209     0.339530     0.553341
    0.620189     0.601429     0.553341
    0.356602     0.559041     0.553341
    0.356602     0.440959     0.553341
    0.523209     0.660470     0.553341
    0.620189     0.398571     0.553341
    0.523209     0.339530     0.446659
    0.620189     0.601429     0.446659
    0.356602     0.559041     0.446659
    0.490344     0.590798     0.614385
    0.579401     0.463419     0.614385
    0.430256     0.445783     0.614385
    0.579401     0.536581     0.385615
    0.430256     0.554217     0.385615
    0.490344     0.409202     0.385615
    0.490344     0.590798     0.385615
    0.579401     0.463419     0.385615
    0.430256     0.445783     0.385615
    0.579401     0.536581     0.614385
    0.430256     0.554217     0.614385
    0.490344     0.409202     0.614385
    0.494905     0.708061     0.545759
    0.673428     0.400622     0.545759
    0.331667     0.391317     0.545759
    0.673428     0.599378     0.454241
    0.331667     0.608683     0.454241
    0.494905     0.291939     0.454241
    0.494905     0.708061     0.454241
    0.673428     0.400622     0.454241
    0.331667     0.391317     0.454241
    0.673428     0.599378     0.545759
    0.331667     0.608683     0.545759
    0.494905     0.291939     0.545759
    0.276862     0.500000     0.500000
    0.611569     0.703767     0.500000
    0.611569     0.296233     0.500000
    0.500000     0.500000     0.500000
EA14   17.079 16.983 13.440 90.00 90.00 90.00 Sym.group:    0
1.0000
   17.078937     0.000000     0.000000
    0.000000    16.982743     0.000000
    0.000000     0.000000    13.439898
   O  Cu
  18   24 
Direct
    0.361970     0.652535     0.555525
    0.601599     0.679153     0.555525
    0.700821     0.458188     0.555525
    0.522515     0.295005     0.555525
    0.313094     0.415118     0.555525
    0.361970     0.652535     0.444475
    0.601599     0.679153     0.444475
    0.700821     0.458188     0.444475
    0.522515     0.295005     0.444475
    0.313094     0.415118     0.444475
    0.629318     0.573924     0.626247
    0.609871     0.399158     0.626247
    0.438586     0.363753     0.626247
    0.352173     0.516637     0.626247
    0.470052     0.646529     0.626247
    0.629318     0.573924     0.373753
    0.609871     0.399158     0.373753
    0.438586     0.363753     0.373753
    0.352173     0.516637     0.373753
    0.470052     0.646529     0.373753
    0.489271     0.425632     0.627229
    0.426354     0.487280     0.627229
    0.465213     0.566507     0.627229
    0.552146     0.553823     0.627229
    0.567015     0.466757     0.627229
    0.489271     0.425632     0.372771
    0.426354     0.487280     0.372771
    0.465213     0.566507     0.372771
    0.552146     0.553823     0.372771
    0.567015     0.466757     0.372771
    0.456452     0.459414     0.500000
    0.448161     0.529110     0.500000
    0.511510     0.558577     0.500000
    0.558953     0.507092     0.500000
    0.524924     0.445807     0.500000
    0.706656     0.483371     0.500000
    0.548135     0.297206     0.500000
    0.323093     0.391295     0.500000
    0.342531     0.635610     0.500000
    0.579586     0.692516     0.500000
    0.500000     0.500000     0.603042
    0.500000     0.500000     0.396958
EA15   16.188 16.245 15.970 90.00 90.00 90.00 Sym.group:    0
1.0000
   16.188496     0.000000     0.000000
    0.000000    16.244923     0.000000
    0.000000     0.000000    15.970157
   O  Cu
  18   24 
Direct
    0.544580     0.602708     0.527147
    0.415754     0.573990     0.527147
    0.403353     0.443020     0.527147
    0.524515     0.390795     0.527147
    0.611798     0.489487     0.527147
    0.393557     0.464347     0.463766
    0.433081     0.589864     0.463766
    0.565085     0.591192     0.463766
    0.607143     0.466496     0.463766
    0.501134     0.388101     0.463766
    0.436701     0.365075     0.577867
    0.609208     0.398314     0.577867
    0.630793     0.572079     0.577867
    0.471627     0.646233     0.577867
    0.351671     0.518298     0.577867
    0.640228     0.551538     0.413045
    0.592519     0.383025     0.413045
    0.416952     0.376167     0.413045
    0.356154     0.540442     0.413045
    0.494146     0.648827     0.413045
    0.500000     0.500000     0.686290
    0.362783     0.634800     0.577561
    0.328948     0.411607     0.577561
    0.531502     0.310570     0.577561
    0.690521     0.471319     0.577561
    0.586247     0.671704     0.577561
    0.376718     0.647567     0.413352
    0.602737     0.662442     0.413352
    0.686778     0.452828     0.413352
    0.512698     0.308404     0.413352
    0.321070     0.428759     0.413352
    0.460879     0.597453     0.375525
    0.394905     0.493038     0.375525
    0.474168     0.398244     0.375525
    0.589131     0.444074     0.375525
    0.580917     0.567192     0.375525
    0.405834     0.547023     0.615388
    0.515778     0.603777     0.615388
    0.603918     0.517115     0.615388
    0.548447     0.406801     0.615388
    0.426024     0.425284     0.615388
    0.500000     0.500000     0.495456
EA16   22.722 14.884 13.482 90.00 90.00 90.00 Sym.group:    0
1.0000
   22.721508     0.000000     0.000000
    0.000000    14.883711     0.000000
    0.000000     0.000000    13.481847
   O  Cu
  18   24 
Direct
    0.426756     0.336610     0.505896
    0.573244     0.663390     0.505896
    0.438944     0.556619     0.483104
    0.561056     0.443381     0.483104
    0.391546     0.568525     0.427411
    0.608454     0.431475     0.427411
    0.420367     0.445462     0.460894
    0.579633     0.554538     0.460894
    0.748334     0.493972     0.442346
    0.251666     0.506028     0.442346
    0.519517     0.641625     0.580157
    0.480483     0.358375     0.580157
    0.253059     0.466011     0.595184
    0.746941     0.533989     0.595184
    0.284889     0.548244     0.542819
    0.715111     0.451756     0.542819
    0.755066     0.371502     0.473376
    0.244934     0.628498     0.473376
    0.299331     0.397254     0.499833
    0.700669     0.602746     0.499833
    0.594345     0.440981     0.536087
    0.405655     0.559019     0.536087
    0.365875     0.484007     0.413886
    0.634125     0.515993     0.413886
    0.500000     0.500000     0.420786
    0.532030     0.357451     0.511653
    0.467970     0.642549     0.511653
    0.262864     0.537644     0.386090
    0.737136     0.462356     0.386090
    0.368425     0.372388     0.595585
    0.631575     0.627612     0.595585
    0.655663     0.637698     0.439946
    0.344337     0.362302     0.439946
    0.467320     0.610629     0.628389
    0.532680     0.389371     0.628389
    0.561689     0.632266     0.577267
    0.438311     0.367734     0.577267
    0.220496     0.603146     0.525322
    0.779504     0.396854     0.525322
    0.637380     0.575917     0.373003
    0.362620     0.424083     0.373003
    0.500000     0.500000     0.582716
EA17   16.727 15.697 15.671 90.00 90.00 90.00 Sym.group:    0
1.0000
   16.726651     0.000000     0.000000
    0.000000    15.696965     0.000000
    0.000000     0.000000    15.671458
   O  Cu
  18   24 
Direct
    0.492731     0.469655     0.626157
    0.492731     0.624251     0.463244
    0.492731     0.406095     0.410599
    0.569062     0.481246     0.344135
    0.569062     0.374613     0.594200
    0.569062     0.644141     0.561665
    0.569062     0.343637     0.489148
    0.569062     0.587564     0.369792
    0.569062     0.568799     0.641060
    0.641699     0.522930     0.404672
    0.641699     0.406113     0.527774
    0.641699     0.570957     0.567554
    0.448436     0.410687     0.485905
    0.448436     0.532470     0.584521
    0.448436     0.556843     0.429574
    0.448436     0.481414     0.411372
    0.448436     0.585922     0.528192
    0.448436     0.432664     0.560436
    0.342090     0.584889     0.509986
    0.342090     0.466190     0.421371
    0.342090     0.448921     0.568642
    0.342090     0.514264     0.584411
    0.342090     0.419885     0.470168
    0.342090     0.565851     0.445421
    0.382569     0.429357     0.385910
    0.382569     0.436677     0.618323
    0.382569     0.633966     0.495767
    0.382569     0.382658     0.435122
    0.382569     0.614766     0.430652
    0.382569     0.502576     0.634226
    0.533896     0.680830     0.511441
    0.533896     0.419477     0.337421
    0.533896     0.399693     0.651138
    0.533896     0.520583     0.680311
    0.533896     0.333809     0.427699
    0.533896     0.645608     0.391990
    0.612986     0.603359     0.469424
    0.612986     0.421884     0.425631
    0.612986     0.474757     0.604945
    0.700478     0.557408     0.483017
    0.700478     0.456612     0.458694
    0.700478     0.485980     0.558289
EA18   17.991 14.970 15.063 90.00 90.00 90.00 Sym.group:    0
1.0000
   17.991113     0.000000     0.000000
    0.000000    14.970375     0.000000
    0.000000     0.000000    15.063031
   O  Cu
  18   24 
Direct
    0.500000     0.480317     0.374831
    0.500000     0.374138     0.479925
    0.500000     0.441896     0.612763
    0.500000     0.589952     0.589766
    0.500000     0.613698     0.442716
    0.500000     0.479782     0.652831
    0.500000     0.640003     0.566338
    0.500000     0.606745     0.388168
    0.500000     0.425969     0.364546
    0.500000     0.347502     0.528117
    0.349005     0.387517     0.625694
    0.349005     0.585522     0.645161
    0.349005     0.665339     0.464021
    0.349005     0.516663     0.332602
    0.349005     0.344959     0.432522
    0.650995     0.387517     0.625694
    0.650995     0.585522     0.645161
    0.650995     0.665339     0.464021
    0.650995     0.516663     0.332602
    0.650995     0.344959     0.432522
    0.721529     0.495478     0.422654
    0.721529     0.424587     0.480373
    0.721529     0.457914     0.565216
    0.721529     0.549402     0.559933
    0.721529     0.572618     0.471825
    0.278471     0.495478     0.422654
    0.278471     0.424587     0.480373
    0.278471     0.457914     0.565216
    0.278471     0.549402     0.559933
    0.278471     0.572618     0.471825
    0.540406     0.538343     0.600015
    0.540406     0.607557     0.494664
    0.540406     0.528131     0.396687
    0.540406     0.409829     0.441485
    0.540406     0.416140     0.567148
    0.459594     0.538343     0.600015
    0.459594     0.607557     0.494664
    0.459594     0.528131     0.396687
    0.459594     0.409829     0.441485
    0.459594     0.416140     0.567148
    0.340848     0.500000     0.500000
    0.659152     0.500000     0.500000
EA19   20.311 16.575 13.266 90.00 90.00 90.00 Sym.group:    0
1.0000
   20.310979     0.000000     0.000000
    0.000000    16.574840     0.000000
    0.000000     0.000000    13.265559
   O  Cu
  18   24 
Direct
    0.746778     0.510270     0.585609
    0.746778     0.489730     0.414391
    0.264657     0.489730     0.585609
    0.264657     0.510270     0.414391
    0.350681     0.628659     0.548111
    0.350681     0.371341     0.451889
    0.660755     0.371341     0.548111
    0.660755     0.628659     0.451889
    0.543058     0.491718     0.612871
    0.543058     0.508282     0.387129
    0.468377     0.508282     0.612871
    0.468377     0.491718     0.387129
    0.379363     0.500000     0.500000
    0.378385     0.560615     0.514871
    0.378385     0.439385     0.485129
    0.633051     0.439385     0.514871
    0.633051     0.560615     0.485129
    0.638693     0.500000     0.500000
    0.491185     0.440120     0.622330
    0.491185     0.559880     0.377670
    0.520250     0.559880     0.622330
    0.520250     0.440120     0.377670
    0.518006     0.500000     0.500000
    0.379969     0.494292     0.427944
    0.379969     0.505708     0.572056
    0.631466     0.505708     0.427944
    0.631466     0.494292     0.572056
    0.246665     0.500000     0.500000
    0.569015     0.637608     0.413122
    0.569015     0.362392     0.586878
    0.442421     0.362392     0.413122
    0.442421     0.637608     0.586878
    0.568083     0.579241     0.432749
    0.568083     0.420759     0.567251
    0.443352     0.420759     0.432749
    0.443352     0.579241     0.567251
    0.490127     0.332105     0.446149
    0.490127     0.667895     0.553851
    0.521308     0.667895     0.446149
    0.521308     0.332105     0.553851
    0.505718     0.697735     0.500000
    0.505718     0.302265     0.500000
EA20   16.623 15.497 15.339 90.00 90.00 90.00 Sym.group:    0
1.0000
   16.623466     0.000000     0.000000
    0.000000    15.497007     0.000000
    0.000000     0.000000    15.339093
   O  Cu
  18   24 
Direct
    0.579877     0.544588     0.444486
    0.436671     0.503775     0.428610
    0.579877     0.461519     0.440003
    0.436671     0.433962     0.474312
    0.579877     0.431629     0.518434
    0.436671     0.455412     0.555514
    0.579877     0.496225     0.571390
    0.436671     0.538481     0.559997
    0.579877     0.566038     0.525688
    0.436671     0.568371     0.481566
    0.648790     0.323288     0.511619
    0.367758     0.363797     0.614338
    0.648790     0.456331     0.673384
    0.367758     0.565545     0.666203
    0.648790     0.649723     0.595538
    0.367758     0.676712     0.488381
    0.648790     0.636203     0.385662
    0.367758     0.543669     0.326616
    0.648790     0.434455     0.333797
    0.367758     0.350277     0.404462
    0.392386     0.551094     0.398820
    0.624162     0.482470     0.387802
    0.392386     0.420542     0.419640
    0.624162     0.388964     0.482172
    0.392386     0.399798     0.551515
    0.624162     0.448906     0.601180
    0.392386     0.517530     0.612198
    0.624162     0.579458     0.580360
    0.392386     0.611036     0.517828
    0.624162     0.600202     0.448485
    0.480443     0.561856     0.640291
    0.536105     0.631664     0.576766
    0.480443     0.651180     0.483918
    0.536105     0.612951     0.397213
    0.480443     0.531578     0.349769
    0.536105     0.438144     0.359709
    0.480443     0.368336     0.423234
    0.536105     0.348820     0.516082
    0.480443     0.387049     0.602787
    0.536105     0.468422     0.650231
    0.301381     0.500000     0.500000
    0.367657     0.500000     0.500000
EA21   15.462 15.906 15.474 90.00 90.00 90.00 Sym.group:    0
1.0000
   15.462276     0.000000     0.000000
    0.000000    15.906118     0.000000
    0.000000     0.000000    15.474163
   O  Cu
  18   24 
Direct
    0.528992     0.500000     0.379768
    0.574101     0.436747     0.574732
    0.453778     0.602345     0.545762
    0.471008     0.500000     0.620232
    0.425899     0.436747     0.425268
    0.546222     0.602345     0.454238
    0.620587     0.500000     0.472142
    0.425899     0.563253     0.425268
    0.453778     0.397655     0.545762
    0.379413     0.500000     0.527858
    0.574101     0.563253     0.574732
    0.546222     0.397655     0.454238
    0.500000     0.314973     0.500000
    0.500000     0.685027     0.500000
    0.364790     0.500000     0.633863
    0.635210     0.500000     0.366137
    0.366034     0.500000     0.364894
    0.633966     0.500000     0.635106
    0.324014     0.442824     0.457629
    0.675986     0.557176     0.542371
    0.432011     0.592513     0.650047
    0.567989     0.407487     0.349953
    0.474799     0.649690     0.391081
    0.525201     0.350310     0.608919
    0.391235     0.649690     0.473813
    0.608765     0.350310     0.526187
    0.540776     0.557176     0.676235
    0.459224     0.442824     0.323765
    0.650785     0.592513     0.433453
    0.349215     0.407487     0.566547
    0.608765     0.649690     0.526187
    0.391235     0.350310     0.473813
    0.540776     0.442824     0.676235
    0.459224     0.557176     0.323765
    0.650785     0.407487     0.433453
    0.349215     0.592513     0.566547
    0.675986     0.442824     0.542371
    0.324014     0.557176     0.457629
    0.432011     0.407487     0.650047
    0.567989     0.592513     0.349953
    0.474799     0.350310     0.391081
    0.525201     0.649690     0.608919
EA22   17.004 16.089 16.519 90.00 90.00 90.00 Sym.group:    0
1.0000
   17.003516     0.000000     0.000000
    0.000000    16.088772     0.000000
    0.000000     0.000000    16.518601
   O  Cu
  18   24 
Direct
    0.429681     0.374133     0.439429
    0.429681     0.509076     0.636454
    0.429681     0.616792     0.424118
    0.416760     0.500000     0.500000
    0.585103     0.500000     0.500000
    0.595340     0.485674     0.303294
    0.595340     0.332260     0.610437
    0.595340     0.682066     0.586269
    0.446768     0.470734     0.550239
    0.446768     0.559304     0.499566
    0.446768     0.469962     0.450195
    0.597156     0.537564     0.590913
    0.597156     0.562054     0.422859
    0.597156     0.400382     0.486229
    0.549635     0.572502     0.581297
    0.549635     0.536036     0.398197
    0.549635     0.391463     0.520506
    0.705355     0.443818     0.578461
    0.705355     0.597856     0.508158
    0.705355     0.458326     0.413380
    0.462185     0.444275     0.605088
    0.462185     0.621303     0.494459
    0.462185     0.434422     0.400453
    0.336844     0.537284     0.383639
    0.336844     0.377894     0.526732
    0.336844     0.584822     0.589629
    0.398884     0.688603     0.561909
    0.398884     0.460746     0.309961
    0.398884     0.350651     0.628130
    0.363001     0.642533     0.410480
    0.363001     0.349136     0.424535
    0.363001     0.508331     0.664985
    0.498625     0.653494     0.437119
    0.498625     0.367342     0.401970
    0.498625     0.479164     0.660911
    0.467503     0.545804     0.665879
    0.467503     0.624592     0.378425
    0.467503     0.329605     0.455696
    0.644120     0.666232     0.492627
    0.644120     0.410328     0.363471
    0.644120     0.423440     0.643902
    0.512846     0.500000     0.500000
EA23   17.537 17.537 17.537 90.00 90.00 90.00 Sym.group:    0
1.0000
   17.537413     0.000000     0.000000
    0.000000    17.537413     0.000000
    0.000000     0.000000    17.537413
   O  Cu
  18   24 
Direct
    0.312617     0.467976     0.389183
    0.687383     0.532024     0.389183
    0.624708     0.643477     0.610817
    0.375292     0.356523     0.610817
    0.389956     0.565255     0.320974
    0.315657     0.601728     0.436067
    0.498591     0.372071     0.679026
    0.508842     0.710363     0.563933
    0.610044     0.434745     0.320974
    0.491158     0.289637     0.563933
    0.501409     0.627929     0.679026
    0.684343     0.398272     0.436067
    0.643477     0.375292     0.389183
    0.356523     0.624708     0.389183
    0.467976     0.687383     0.610817
    0.532024     0.312617     0.610817
    0.627929     0.498591     0.320974
    0.710363     0.491158     0.436067
    0.434745     0.389956     0.679026
    0.601728     0.684343     0.563933
    0.372071     0.501409     0.320974
    0.398272     0.315657     0.563933
    0.565255     0.610044     0.679026
    0.289637     0.508842     0.436067
    0.342546     0.544108     0.424935
    0.657454     0.455892     0.424935
    0.544108     0.657454     0.575065
    0.455892     0.342546     0.575065
    0.362426     0.508756     0.384377
    0.377898     0.563988     0.384377
    0.436012     0.377898     0.615623
    0.508756     0.637574     0.615623
    0.637574     0.491244     0.384377
    0.491244     0.362426     0.615623
    0.563988     0.622102     0.615623
    0.622102     0.436012     0.384377
    0.500000     0.500000     0.313111
    0.500000     0.500000     0.686889
    0.337101     0.408396     0.500000
    0.662899     0.591604     0.500000
    0.408396     0.662899     0.500000
    0.591604     0.337101     0.500000
EA24   29.776 16.278 11.731 90.00 90.00 90.00 Sym.group:    0
1.0000
   29.776331     0.000000     0.000000
    0.000000    16.278199     0.000000
    0.000000     0.000000    11.730738
   O  Cu
  18   24 
Direct
    0.591441     0.476787     0.439211
    0.408559     0.523213     0.560789
    0.518807     0.527759     0.491397
    0.481193     0.472241     0.508603
    0.415110     0.541446     0.469078
    0.584890     0.458554     0.530922
    0.629144     0.684185     0.519608
    0.370856     0.315815     0.480392
    0.795243     0.476979     0.506468
    0.204757     0.523021     0.493532
    0.545935     0.687572     0.517650
    0.454065     0.312428     0.482350
    0.655072     0.477269     0.479484
    0.344928     0.522731     0.520516
    0.694185     0.471306     0.496119
    0.305815     0.528694     0.503881
    0.795217     0.584410     0.505570
    0.204783     0.415590     0.494430
    0.727427     0.509450     0.427083
    0.272573     0.490550     0.572917
    0.267082     0.636370     0.503083
    0.732918     0.363630     0.496917
    0.624863     0.307774     0.490726
    0.375137     0.692226     0.509274
    0.232200     0.486497     0.445683
    0.767800     0.513503     0.554317
    0.500675     0.318415     0.572882
    0.499325     0.681585     0.427118
    0.558163     0.339026     0.492220
    0.441837     0.660974     0.507780
    0.435030     0.421612     0.507719
    0.564970     0.578388     0.492281
    0.831746     0.559553     0.499584
    0.168254     0.440447     0.500416
    0.694159     0.534775     0.489411
    0.305841     0.465225     0.510589
    0.231312     0.529722     0.533828
    0.768688     0.470278     0.466172
    0.729643     0.425563     0.526008
    0.270357     0.574437     0.473992
    0.707968     0.580081     0.549344
    0.292032     0.419919     0.450656
EA25   16.541 16.541 13.903 90.00 90.00 90.00 Sym.group:    0
1.0000
   16.541260     0.000000     0.000000
    0.000000    16.541260     0.000000
    0.000000     0.000000    13.902834
   O  Cu
  18   24 
Direct
    0.440339     0.573410     0.360358
    0.573410     0.559661     0.360358
    0.559661     0.426590     0.360358
    0.426590     0.440339     0.360358
    0.406060     0.511128     0.639642
    0.488872     0.406060     0.639642
    0.593940     0.488872     0.639642
    0.511128     0.593940     0.639642
    0.440339     0.573410     0.639642
    0.573410     0.559661     0.639642
    0.559661     0.426590     0.639642
    0.426590     0.440339     0.639642
    0.406060     0.511128     0.360358
    0.488872     0.406060     0.360358
    0.593940     0.488872     0.360358
    0.511128     0.593940     0.360358
    0.697121     0.492944     0.567822
    0.492944     0.302879     0.567822
    0.302879     0.507056     0.567822
    0.507056     0.697121     0.567822
    0.611425     0.337240     0.432178
    0.662760     0.611425     0.432178
    0.388575     0.662760     0.432178
    0.337240     0.388575     0.432178
    0.697121     0.492944     0.432178
    0.492944     0.302879     0.432178
    0.302879     0.507056     0.432178
    0.507056     0.697121     0.432178
    0.611425     0.337240     0.567822
    0.662760     0.611425     0.567822
    0.388575     0.662760     0.567822
    0.337240     0.388575     0.567822
    0.679291     0.520229     0.500000
    0.520229     0.320709     0.500000
    0.320709     0.479771     0.500000
    0.479771     0.679291     0.500000
    0.578835     0.337705     0.500000
    0.662295     0.578835     0.500000
    0.421165     0.662295     0.500000
    0.337705     0.421165     0.500000
    0.500000     0.500000     0.430604
    0.500000     0.500000     0.569396
EA26   17.075 17.288 15.641 90.00 90.00 90.00 Sym.group:    0
1.0000
   17.075212     0.000000     0.000000
    0.000000    17.287544     0.000000
    0.000000     0.000000    15.641015
   O  Cu
  18   24 
Direct
    0.612597     0.352749     0.396153
    0.572810     0.669940     0.396153
    0.314593     0.477311     0.396153
    0.612597     0.352749     0.603847
    0.572810     0.669940     0.603847
    0.314593     0.477311     0.603847
    0.322530     0.573670     0.388479
    0.524142     0.311359     0.388479
    0.653329     0.614971     0.388479
    0.322530     0.573670     0.611521
    0.524142     0.311359     0.611521
    0.653329     0.614971     0.611521
    0.528811     0.648752     0.393268
    0.355170     0.450269     0.393268
    0.616019     0.400979     0.393268
    0.528811     0.648752     0.606732
    0.355170     0.450269     0.606732
    0.616019     0.400979     0.606732
    0.410311     0.624811     0.448331
    0.435411     0.360875     0.448331
    0.654278     0.514314     0.448331
    0.410311     0.624811     0.551669
    0.435411     0.360875     0.551669
    0.654278     0.514314     0.551669
    0.506875     0.386602     0.679688
    0.595990     0.562580     0.679688
    0.397135     0.550819     0.679688
    0.506875     0.386602     0.320312
    0.595990     0.562580     0.320312
    0.397135     0.550819     0.320312
    0.578354     0.483827     0.598035
    0.475003     0.575110     0.598035
    0.446643     0.441063     0.598035
    0.578354     0.483827     0.401965
    0.475003     0.575110     0.401965
    0.446643     0.441063     0.401965
    0.601660     0.529261     0.500000
    0.423514     0.572328     0.500000
    0.474826     0.398410     0.500000
    0.544587     0.710196     0.500000
    0.293408     0.433041     0.500000
    0.662005     0.356763     0.500000
EA27   17.863 14.214 14.289 90.00 90.00 90.00 Sym.group:    0
1.0000
   17.863099     0.000000     0.000000
    0.000000    14.213967     0.000000
    0.000000     0.000000    14.288813
   O  Cu
  18   24 
Direct
    0.335122     0.376501     0.500000
    0.664878     0.623499     0.500000
    0.339405     0.550794     0.500000
    0.660595     0.449206     0.500000
    0.672187     0.553897     0.500000
    0.327813     0.446103     0.500000
    0.547135     0.459152     0.466753
    0.452865     0.540848     0.466753
    0.547135     0.459152     0.533247
    0.452865     0.540848     0.533247
    0.423788     0.545231     0.600406
    0.576212     0.454769     0.600406
    0.423788     0.545231     0.399594
    0.576212     0.454769     0.399594
    0.538177     0.643637     0.544308
    0.461823     0.356363     0.544308
    0.538177     0.643637     0.455692
    0.461823     0.356363     0.455692
    0.559065     0.605997     0.649376
    0.440935     0.394003     0.649376
    0.559065     0.605997     0.350624
    0.440935     0.394003     0.350624
    0.500000     0.500000     0.627936
    0.500000     0.500000     0.372064
    0.552378     0.352470     0.500000
    0.447622     0.647530     0.500000
    0.516742     0.586703     0.540616
    0.483258     0.413297     0.540616
    0.516742     0.586703     0.459384
    0.483258     0.413297     0.459384
    0.334936     0.628067     0.407939
    0.665064     0.371933     0.407939
    0.334936     0.628067     0.592061
    0.665064     0.371933     0.592061
    0.280466     0.487295     0.396669
    0.719534     0.512705     0.396669
    0.280466     0.487295     0.603331
    0.719534     0.512705     0.603331
    0.424003     0.452002     0.450359
    0.575997     0.547998     0.450359
    0.424003     0.452002     0.549641
    0.575997     0.547998     0.549641
EA28   17.537 17.537 17.537 90.00 90.00 90.00 Sym.group:    0
1.0000
   17.537413     0.000000     0.000000
    0.000000    17.537413     0.000000
    0.000000     0.000000    17.537413
   O  Cu
  18   24 
Direct
    0.395072     0.373059     0.614375
    0.395072     0.614375     0.626941
    0.395072     0.626941     0.385625
    0.395072     0.385625     0.373059
    0.329133     0.577954     0.429763
    0.604928     0.626941     0.385625
    0.670867     0.422046     0.570237
    0.500000     0.443295     0.692328
    0.604928     0.373059     0.614375
    0.500000     0.302822     0.536421
    0.604928     0.614375     0.626941
    0.604928     0.385625     0.373059
    0.670867     0.577954     0.429763
    0.329133     0.422046     0.570237
    0.500000     0.556705     0.307672
    0.500000     0.697178     0.463579
    0.670867     0.429763     0.422046
    0.500000     0.692328     0.556705
    0.329133     0.570237     0.577954
    0.500000     0.536421     0.697178
    0.670867     0.570237     0.577954
    0.500000     0.463579     0.302822
    0.329133     0.429763     0.422046
    0.500000     0.307672     0.443295
    0.706216     0.500000     0.500000
    0.293784     0.500000     0.500000
    0.500000     0.346798     0.638036
    0.500000     0.653202     0.361964
    0.500000     0.638036     0.653202
    0.500000     0.361964     0.346798
    0.434790     0.500000     0.500000
    0.565210     0.500000     0.500000
    0.500000     0.548446     0.456350
    0.500000     0.451554     0.543650
    0.500000     0.456350     0.451554
    0.500000     0.543650     0.548446
    0.373449     0.500000     0.500000
    0.626551     0.500000     0.500000
    0.500000     0.594017     0.415290
    0.500000     0.405983     0.584710
    0.500000     0.415290     0.405983
    0.500000     0.584710     0.594017
EA29   15.790 15.790 15.790 90.00 90.00 90.00 Sym.group:    0
1.0000
   15.789949     0.000000     0.000000
    0.000000    15.789949     0.000000
    0.000000     0.000000    15.789949
   O  Cu
  18   24 
Direct
    0.387079     0.682710     0.500000
    0.682710     0.500000     0.387079
    0.500000     0.387079     0.682710
    0.612921     0.317290     0.500000
    0.317290     0.500000     0.387079
    0.500000     0.612921     0.682710
    0.612921     0.682710     0.500000
    0.317290     0.500000     0.612921
    0.500000     0.387079     0.317290
    0.387079     0.317290     0.500000
    0.682710     0.500000     0.612921
    0.500000     0.612921     0.317290
    0.500000     0.500000     0.318712
    0.500000     0.500000     0.681288
    0.500000     0.318712     0.500000
    0.500000     0.681288     0.500000
    0.318712     0.500000     0.500000
    0.681288     0.500000     0.500000
    0.353335     0.409356     0.443979
    0.646665     0.590644     0.556021
    0.556021     0.353335     0.590644
    0.443979     0.646665     0.409356
    0.409356     0.556021     0.646665
    0.590644     0.443979     0.353335
    0.409356     0.443979     0.646665
    0.590644     0.556021     0.353335
    0.646665     0.409356     0.556021
    0.353335     0.590644     0.443979
    0.556021     0.646665     0.590644
    0.443979     0.353335     0.409356
    0.590644     0.556021     0.646665
    0.409356     0.443979     0.353335
    0.646665     0.409356     0.443979
    0.353335     0.590644     0.556021
    0.556021     0.646665     0.409356
    0.443979     0.353335     0.590644
    0.646665     0.590644     0.443979
    0.353335     0.409356     0.556021
    0.556021     0.353335     0.409356
    0.443979     0.646665     0.590644
    0.409356     0.556021     0.353335
    0.590644     0.443979     0.646665
EA30   20.043 20.559 12.310 90.00 90.00 90.00 Sym.group:    0
1.0000
   20.043408     0.000000     0.000000
    0.000000    20.559235     0.000000
    0.000000     0.000000    12.310202
   O  Cu
  18   24 
Direct
    0.603525     0.467207     0.500000
    0.500000     0.393879     0.500000
    0.396475     0.467207     0.500000
    0.436018     0.585854     0.500000
    0.563982     0.585854     0.500000
    0.461902     0.607076     0.590184
    0.592683     0.568413     0.590184
    0.595380     0.435205     0.590184
    0.466265     0.391541     0.590184
    0.383770     0.497764     0.590184
    0.407317     0.568413     0.409816
    0.404620     0.435205     0.409816
    0.533735     0.391541     0.409816
    0.616230     0.497764     0.409816
    0.538098     0.607076     0.409816
    0.461902     0.607076     0.409816
    0.592683     0.568413     0.409816
    0.595380     0.435205     0.409816
    0.466265     0.391541     0.409816
    0.383770     0.497764     0.409816
    0.407317     0.568413     0.590184
    0.404620     0.435205     0.590184
    0.533735     0.391541     0.590184
    0.616230     0.497764     0.590184
    0.538098     0.607076     0.590184
    0.462951     0.633979     0.500000
    0.619252     0.575753     0.500000
    0.610751     0.412840     0.500000
    0.449196     0.370379     0.500000
    0.357851     0.507050     0.500000
    0.380748     0.575753     0.500000
    0.389249     0.412840     0.500000
    0.550804     0.370379     0.500000
    0.642149     0.507050     0.500000
    0.537049     0.633979     0.500000
    0.500000     0.756314     0.500000
    0.750043     0.579205     0.500000
    0.654535     0.292638     0.500000
    0.345465     0.292638     0.500000
    0.249957     0.579205     0.500000
    0.500000     0.500000     0.406980
    0.500000     0.500000     0.593020
EA31   17.537 17.537 17.537 90.00 90.00 90.00 Sym.group:    0
1.0000
   17.537413     0.000000     0.000000
    0.000000    17.537413     0.000000
    0.000000     0.000000    17.537413
   O  Cu
  18   24 
Direct
    0.354345     0.550118     0.394448
    0.354345     0.394448     0.449882
    0.354345     0.449882     0.605552
    0.354345     0.605552     0.550118
    0.409755     0.607332     0.623305
    0.645655     0.593893     0.569549
    0.590245     0.536679     0.340693
    0.425779     0.336806     0.447776
    0.645655     0.406107     0.430451
    0.574221     0.619418     0.377123
    0.645655     0.430451     0.593893
    0.645655     0.569549     0.406107
    0.590245     0.463321     0.659307
    0.409755     0.392668     0.376695
    0.425779     0.663194     0.552224
    0.574221     0.380582     0.622877
    0.590245     0.659307     0.536679
    0.425779     0.447776     0.663194
    0.409755     0.376695     0.607332
    0.574221     0.377123     0.380582
    0.590245     0.340693     0.463321
    0.574221     0.622877     0.619418
    0.409755     0.623305     0.392668
    0.425779     0.552224     0.336806
    0.564825     0.500000     0.500000
    0.435175     0.500000     0.500000
    0.500000     0.484278     0.437110
    0.500000     0.515722     0.562890
    0.500000     0.437110     0.515722
    0.500000     0.562890     0.484278
    0.294155     0.500000     0.500000
    0.705845     0.500000     0.500000
    0.500000     0.549925     0.699699
    0.500000     0.450075     0.300301
    0.500000     0.699699     0.450075
    0.500000     0.300301     0.549925
    0.634088     0.500000     0.500000
    0.365912     0.500000     0.500000
    0.500000     0.467479     0.369916
    0.500000     0.532521     0.630084
    0.500000     0.369916     0.532521
    0.500000     0.630084     0.467479
EA32   17.282 16.268 16.268 90.00 90.00 90.00 Sym.group:    0
1.0000
   17.281566     0.000000     0.000000
    0.000000    16.268273     0.000000
    0.000000     0.000000    16.268273
   O  Cu
  18   24 
Direct
    0.505550     0.586773     0.502974
    0.505550     0.502974     0.413227
    0.505550     0.413227     0.497026
    0.505550     0.497026     0.586773
    0.710096     0.430345     0.492923
    0.710096     0.492923     0.569655
    0.710096     0.569655     0.507077
    0.710096     0.507077     0.430345
    0.520076     0.339813     0.349427
    0.520076     0.349427     0.660187
    0.520076     0.660187     0.650573
    0.520076     0.650573     0.339813
    0.591897     0.558655     0.555833
    0.591897     0.555833     0.441345
    0.591897     0.441345     0.444167
    0.591897     0.444167     0.558655
    0.498821     0.441842     0.637122
    0.498821     0.637122     0.558158
    0.498821     0.558158     0.362878
    0.498821     0.362878     0.441842
    0.446047     0.595492     0.575997
    0.446047     0.575997     0.404508
    0.446047     0.404508     0.424003
    0.446047     0.424003     0.595492
    0.520068     0.439812     0.692039
    0.520068     0.692039     0.560188
    0.520068     0.560188     0.307961
    0.520068     0.307961     0.439812
    0.477354     0.456759     0.391047
    0.477354     0.391047     0.543241
    0.477354     0.543241     0.608953
    0.477354     0.608953     0.456759
    0.358859     0.419055     0.531203
    0.358859     0.531203     0.580945
    0.358859     0.580945     0.468797
    0.358859     0.468797     0.419055
    0.340144     0.353961     0.441154
    0.340144     0.441154     0.646039
    0.340144     0.646039     0.558846
    0.340144     0.558846     0.353961
    0.482451     0.500000     0.500000
    0.641909     0.500000     0.500000
EA33   17.537 17.537 17.537 90.00 90.00 90.00 Sym.group:    0
1.0000
   17.537413     0.000000     0.000000
    0.000000    17.537413     0.000000
    0.000000     0.000000    17.537413
   O  Cu
  18   24 
Direct
    0.589441     0.329236     0.449325
    0.410559     0.670764     0.449325
    0.410559     0.329236     0.550675
    0.589441     0.670764     0.550675
    0.329236     0.449325     0.589441
    0.449325     0.589441     0.329236
    0.329236     0.550675     0.410559
    0.550675     0.589441     0.670764
    0.670764     0.550675     0.589441
    0.449325     0.410559     0.670764
    0.670764     0.449325     0.410559
    0.550675     0.410559     0.329236
    0.648652     0.317864     0.420272
    0.351348     0.682136     0.420272
    0.351348     0.317864     0.579728
    0.648652     0.682136     0.579728
    0.317864     0.420272     0.648652
    0.420272     0.648652     0.317864
    0.317864     0.579728     0.351348
    0.579728     0.648652     0.682136
    0.682136     0.579728     0.648652
    0.420272     0.351348     0.682136
    0.682136     0.420272     0.351348
    0.579728     0.351348     0.317864
    0.290977     0.565955     0.688325
    0.709023     0.434045     0.688325
    0.709023     0.565955     0.311675
    0.290977     0.434045     0.311675
    0.565955     0.688325     0.290977
    0.688325     0.290977     0.565955
    0.565955     0.311675     0.709023
    0.311675     0.290977     0.434045
    0.434045     0.311675     0.290977
    0.688325     0.709023     0.434045
    0.434045     0.688325     0.709023
    0.311675     0.709023     0.565955
    0.500000     0.500000     0.688081
    0.500000     0.500000     0.311919
    0.688081     0.500000     0.500000
    0.311919     0.500000     0.500000
    0.500000     0.688081     0.500000
    0.500000     0.311919     0.500000
EA34   19.134 19.025 14.019 90.00 90.00 90.00 Sym.group:    0
1.0000
   19.133881     0.000000     0.000000
    0.000000    19.024749     0.000000
    0.000000     0.000000    14.019209
   O  Cu
  18   24 
Direct
    0.345675     0.474084     0.537316
    0.400522     0.621458     0.537316
    0.554847     0.647374     0.537316
    0.654325     0.525916     0.537316
    0.599478     0.378542     0.537316
    0.445153     0.352626     0.537316
    0.625113     0.405510     0.462684
    0.643921     0.561728     0.462684
    0.518807     0.656218     0.462684
    0.374887     0.594490     0.462684
    0.356079     0.438272     0.462684
    0.481193     0.343782     0.462684
    0.500417     0.419436     0.482492
    0.430836     0.459354     0.482492
    0.430419     0.539919     0.482492
    0.499583     0.580564     0.482492
    0.569164     0.540646     0.482492
    0.569581     0.460081     0.482492
    0.462735     0.428683     0.517508
    0.542777     0.431884     0.517508
    0.580042     0.503201     0.517508
    0.537265     0.571317     0.517508
    0.457223     0.568116     0.517508
    0.419958     0.496799     0.517508
    0.461989     0.653680     0.642633
    0.613326     0.609947     0.642633
    0.651337     0.456267     0.642633
    0.538011     0.346320     0.642633
    0.386674     0.390053     0.642633
    0.348663     0.543733     0.642633
    0.604117     0.618802     0.357367
    0.449760     0.650086     0.357367
    0.345643     0.531284     0.357367
    0.395883     0.381198     0.357367
    0.550240     0.349914     0.357367
    0.654357     0.468716     0.357367
    0.330594     0.321786     0.500000
    0.261839     0.558445     0.500000
    0.431246     0.736659     0.500000
    0.669406     0.678214     0.500000
    0.738161     0.441555     0.500000
    0.568754     0.263341     0.500000
EA35   17.537 17.537 17.537 90.00 90.00 90.00 Sym.group:    0
1.0000
   17.537413     0.000000     0.000000
    0.000000    17.537413     0.000000
    0.000000     0.000000    17.537413
   O  Cu
  18   24 
Direct
    0.545340     0.400784     0.413330
    0.599216     0.545340     0.413330
    0.454660     0.599216     0.413330
    0.400784     0.454660     0.413330
    0.633563     0.489007     0.461904
    0.599216     0.454660     0.586670
    0.510993     0.366437     0.538096
    0.534347     0.411777     0.602216
    0.400784     0.545340     0.586670
    0.411777     0.534347     0.397784
    0.454660     0.400784     0.586670
    0.545340     0.599216     0.586670
    0.489007     0.633563     0.538096
    0.366437     0.510993     0.461904
    0.465653     0.588223     0.602216
    0.588223     0.465653     0.397784
    0.366437     0.489007     0.538096
    0.588223     0.534347     0.602216
    0.489007     0.366437     0.461904
    0.465653     0.411777     0.397784
    0.633563     0.510993     0.538096
    0.534347     0.588223     0.397784
    0.510993     0.633563     0.461904
    0.411777     0.465653     0.602216
    0.500000     0.500000     0.343653
    0.500000     0.500000     0.656347
    0.610554     0.610554     0.500000
    0.389446     0.389446     0.500000
    0.389446     0.610554     0.500000
    0.610554     0.389446     0.500000
    0.500000     0.500000     0.289689
    0.500000     0.500000     0.710311
    0.648713     0.648713     0.500000
    0.351287     0.351287     0.500000
    0.351287     0.648713     0.500000
    0.648713     0.351287     0.500000
    0.500000     0.500000     0.438067
    0.500000     0.500000     0.561933
    0.543794     0.543794     0.500000
    0.456206     0.456206     0.500000
    0.456206     0.543794     0.500000
    0.543794     0.456206     0.500000
EA36   17.097 17.020 14.512 90.00 90.00 90.00 Sym.group:    0
1.0000
   17.097080     0.000000     0.000000
    0.000000    17.019597     0.000000
    0.000000     0.000000    14.511726
   O  Cu
  18   24 
Direct
    0.652483     0.357112     0.515671
    0.411841     0.310166     0.515671
    0.293032     0.525563     0.515671
    0.460246     0.705633     0.515671
    0.682398     0.601525     0.515671
    0.411841     0.689834     0.484329
    0.293032     0.474437     0.484329
    0.460246     0.294367     0.484329
    0.682398     0.398475     0.484329
    0.652483     0.642888     0.484329
    0.539754     0.705633     0.515671
    0.706968     0.525563     0.515671
    0.588159     0.310166     0.515671
    0.347517     0.357112     0.515671
    0.317602     0.601525     0.515671
    0.706968     0.474437     0.484329
    0.588159     0.689834     0.484329
    0.347517     0.642888     0.484329
    0.317602     0.398475     0.484329
    0.539754     0.294367     0.484329
    0.528141     0.628052     0.598524
    0.629929     0.512685     0.598524
    0.552160     0.379788     0.598524
    0.402308     0.413019     0.598524
    0.387463     0.566455     0.598524
    0.629929     0.487315     0.401476
    0.552160     0.620212     0.401476
    0.402308     0.586981     0.401476
    0.387463     0.433545     0.401476
    0.528141     0.371948     0.401476
    0.597692     0.413019     0.598524
    0.447840     0.379788     0.598524
    0.370071     0.512685     0.598524
    0.471859     0.628052     0.598524
    0.612537     0.566455     0.598524
    0.447840     0.620212     0.401476
    0.370071     0.487315     0.401476
    0.471859     0.371948     0.401476
    0.612537     0.433545     0.401476
    0.597692     0.586981     0.401476
    0.500000     0.500000     0.345238
    0.500000     0.500000     0.654762
EA37   15.679 15.710 15.681 90.00 90.00 90.00 Sym.group:    0
1.0000
   15.678502     0.000000     0.000000
    0.000000    15.709577     0.000000
    0.000000     0.000000    15.681032
   O  Cu
  18   24 
Direct
    0.594580     0.561899     0.680506
    0.470241     0.608901     0.680506
    0.387028     0.505406     0.680506
    0.459939     0.394440     0.680506
    0.588213     0.429355     0.680506
    0.529759     0.391099     0.319494
    0.405420     0.438101     0.319494
    0.411787     0.570645     0.319494
    0.540061     0.605560     0.319494
    0.612972     0.494594     0.319494
    0.580772     0.435314     0.472285
    0.586602     0.556678     0.472285
    0.472751     0.599715     0.472285
    0.396557     0.504950     0.472285
    0.463318     0.403344     0.472285
    0.603443     0.495050     0.527715
    0.527249     0.400285     0.527715
    0.413398     0.443322     0.527715
    0.419228     0.564686     0.527715
    0.536682     0.596656     0.527715
    0.578926     0.336228     0.536981
    0.680454     0.524306     0.536981
    0.532601     0.678794     0.536981
    0.339694     0.586194     0.536981
    0.368325     0.374477     0.536981
    0.667833     0.570493     0.463019
    0.619039     0.362481     0.463019
    0.405738     0.344515     0.463019
    0.322703     0.541424     0.463019
    0.484687     0.681086     0.463019
    0.594262     0.655485     0.536981
    0.380961     0.637519     0.536981
    0.332167     0.429507     0.536981
    0.515313     0.318914     0.536981
    0.677297     0.458576     0.536981
    0.467399     0.321206     0.463019
    0.319546     0.475694     0.463019
    0.421074     0.663772     0.463019
    0.631675     0.625523     0.463019
    0.660306     0.413806     0.463019
    0.500000     0.500000     0.409282
    0.500000     0.500000     0.590718
EA38   15.816 15.816 13.350 90.00 90.00 90.00 Sym.group:    0
1.0000
   15.815659     0.000000     0.000000
    0.000000    15.815659     0.000000
    0.000000     0.000000    13.350114
   O  Cu
  18   24 
Direct
    0.316775     0.379580     0.384314
    0.379580     0.683225     0.384314
    0.683225     0.620420     0.384314
    0.620420     0.316775     0.384314
    0.379580     0.316775     0.615686
    0.683225     0.379580     0.615686
    0.620420     0.683225     0.615686
    0.316775     0.620420     0.615686
    0.316775     0.379580     0.615686
    0.379580     0.683225     0.615686
    0.683225     0.620420     0.615686
    0.620420     0.316775     0.615686
    0.379580     0.316775     0.384314
    0.683225     0.379580     0.384314
    0.620420     0.683225     0.384314
    0.316775     0.620420     0.384314
    0.662781     0.449711     0.500000
    0.449711     0.337219     0.500000
    0.337219     0.550289     0.500000
    0.550289     0.662781     0.500000
    0.449711     0.662781     0.500000
    0.337219     0.449711     0.500000
    0.550289     0.337219     0.500000
    0.662781     0.550289     0.500000
    0.500000     0.500000     0.608691
    0.500000     0.500000     0.391309
    0.448803     0.601726     0.375278
    0.601726     0.551197     0.375278
    0.551197     0.398274     0.375278
    0.398274     0.448803     0.375278
    0.601726     0.448803     0.624722
    0.551197     0.601726     0.624722
    0.398274     0.551197     0.624722
    0.448803     0.398274     0.624722
    0.448803     0.601726     0.624722
    0.601726     0.551197     0.624722
    0.551197     0.398274     0.624722
    0.398274     0.448803     0.624722
    0.601726     0.448803     0.375278
    0.551197     0.601726     0.375278
    0.398274     0.551197     0.375278
    0.448803     0.398274     0.375278
EA39   14.893 15.713 15.713 90.00 90.00 90.00 Sym.group:    0
1.0000
   14.892924     0.000000     0.000000
    0.000000    15.712687     0.000000
    0.000000     0.000000    15.712687
   O  Cu
  18   24 
Direct
    0.663599     0.576375     0.605437
    0.663599     0.605437     0.423625
    0.663599     0.423625     0.394563
    0.663599     0.394563     0.576375
    0.336401     0.435115     0.612872
    0.336401     0.387128     0.435115
    0.336401     0.564885     0.387128
    0.336401     0.612872     0.564885
    0.546589     0.370712     0.645485
    0.546589     0.645485     0.629288
    0.546589     0.629288     0.354515
    0.546589     0.354515     0.370712
    0.453411     0.643846     0.631110
    0.453411     0.368890     0.643846
    0.453411     0.356154     0.368890
    0.453411     0.631110     0.356154
    0.529411     0.466022     0.436790
    0.529411     0.436790     0.533978
    0.529411     0.533978     0.563210
    0.529411     0.563210     0.466022
    0.470589     0.527155     0.433572
    0.470589     0.566428     0.527155
    0.470589     0.472845     0.566428
    0.470589     0.433572     0.472845
    0.357064     0.614609     0.434894
    0.357064     0.434894     0.385391
    0.357064     0.385391     0.565106
    0.357064     0.565106     0.614609
    0.642936     0.379190     0.447284
    0.642936     0.552716     0.379190
    0.642936     0.620810     0.552716
    0.642936     0.447284     0.620810
    0.581452     0.681149     0.535541
    0.581452     0.535541     0.318851
    0.581452     0.318851     0.464459
    0.581452     0.464459     0.681149
    0.418548     0.323582     0.554361
    0.418548     0.445639     0.323582
    0.418548     0.676418     0.445639
    0.418548     0.554361     0.676418
    0.344714     0.500000     0.500000
    0.655286     0.500000     0.500000
EA40   15.428 15.707 15.810 90.00 90.00 90.00 Sym.group:    0
1.0000
   15.428153     0.000000     0.000000
    0.000000    15.707085     0.000000
    0.000000     0.000000    15.810348
   O  Cu
  18   24 
Direct
    0.612951     0.634374     0.616843
    0.387049     0.669041     0.442810
    0.612951     0.534667     0.325967
    0.387049     0.365626     0.383157
    0.612951     0.330959     0.557190
    0.387049     0.465333     0.674033
    0.675269     0.481184     0.352529
    0.324731     0.362039     0.442453
    0.675269     0.380855     0.589924
    0.324731     0.518816     0.647471
    0.675269     0.637961     0.557547
    0.324731     0.619145     0.410076
    0.538835     0.399811     0.467979
    0.461165     0.421992     0.570190
    0.538835     0.522182     0.602210
    0.461165     0.600189     0.532021
    0.538835     0.578008     0.429810
    0.461165     0.477818     0.397790
    0.393795     0.323276     0.513999
    0.606205     0.423841     0.659047
    0.393795     0.600565     0.645049
    0.606205     0.676724     0.486001
    0.393795     0.576159     0.340953
    0.606205     0.399435     0.354951
    0.670975     0.468083     0.442207
    0.329025     0.433662     0.498564
    0.670975     0.465579     0.556357
    0.329025     0.531917     0.557793
    0.670975     0.566338     0.501436
    0.329025     0.534421     0.443643
    0.608213     0.501575     0.647456
    0.391787     0.629328     0.572373
    0.608213     0.627753     0.424917
    0.391787     0.498425     0.352544
    0.608213     0.370672     0.427627
    0.391787     0.372247     0.575083
    0.554878     0.681036     0.554723
    0.445122     0.638221     0.371604
    0.554878     0.457185     0.316881
    0.445122     0.318964     0.445277
    0.554878     0.361779     0.628396
    0.445122     0.542815     0.683119
EA41   18.218 14.490 14.490 90.00 90.00 90.00 Sym.group:    0
1.0000
   18.217982     0.000000     0.000000
    0.000000    14.490122     0.000000
    0.000000     0.000000    14.490122
   O  Cu
  18   24 
Direct
    0.642773     0.469292     0.568981
    0.642773     0.568981     0.530708
    0.642773     0.530708     0.431019
    0.642773     0.431019     0.469292
    0.672594     0.531741     0.345753
    0.672594     0.345753     0.468259
    0.672594     0.468259     0.654247
    0.672594     0.654247     0.531741
    0.434567     0.524030     0.376128
    0.434567     0.376128     0.475970
    0.434567     0.475970     0.623872
    0.434567     0.623872     0.524030
    0.370091     0.615472     0.435720
    0.370091     0.435720     0.384528
    0.370091     0.384528     0.564280
    0.370091     0.564280     0.615472
    0.656015     0.430949     0.369465
    0.656015     0.369465     0.569051
    0.656015     0.569051     0.630535
    0.656015     0.630535     0.430949
    0.539223     0.580221     0.566659
    0.539223     0.566659     0.419779
    0.539223     0.419779     0.433341
    0.539223     0.433341     0.580221
    0.287689     0.601220     0.619989
    0.287689     0.619989     0.398780
    0.287689     0.398780     0.380011
    0.287689     0.380011     0.601220
    0.542051     0.496047     0.385535
    0.542051     0.385535     0.503953
    0.542051     0.503953     0.614465
    0.542051     0.614465     0.496047
    0.442426     0.588601     0.360431
    0.442426     0.360431     0.411399
    0.442426     0.411399     0.639569
    0.442426     0.639569     0.588601
    0.341289     0.403781     0.460381
    0.341289     0.460381     0.596219
    0.341289     0.596219     0.539619
    0.341289     0.539619     0.403781
    0.560130     0.500000     0.500000
    0.724997     0.500000     0.500000
EA42   17.537 17.537 17.537 90.00 90.00 90.00 Sym.group:    0
1.0000
   17.537413     0.000000     0.000000
    0.000000    17.537413     0.000000
    0.000000     0.000000    17.537413
   O  Cu
  18   24 
Direct
    0.638027     0.546009     0.540132
    0.453991     0.638027     0.540132
    0.361973     0.453991     0.540132
    0.546009     0.361973     0.540132
    0.581904     0.574071     0.397121
    0.453991     0.638027     0.459868
    0.510114     0.609965     0.602879
    0.574071     0.418096     0.602879
    0.546009     0.361973     0.459868
    0.609965     0.489886     0.397121
    0.638027     0.546009     0.459868
    0.361973     0.453991     0.459868
    0.489886     0.390035     0.602879
    0.418096     0.425929     0.397121
    0.425929     0.581904     0.602879
    0.390035     0.510114     0.397121
    0.609965     0.489886     0.602879
    0.581904     0.574071     0.602879
    0.574071     0.418096     0.397121
    0.510114     0.609965     0.397121
    0.390035     0.510114     0.602879
    0.489886     0.390035     0.397121
    0.425929     0.581904     0.397121
    0.418096     0.425929     0.602879
    0.500000     0.500000     0.363116
    0.500000     0.500000     0.636884
    0.377567     0.561216     0.500000
    0.622433     0.438784     0.500000
    0.438784     0.377567     0.500000
    0.561216     0.622433     0.500000
    0.500000     0.500000     0.433033
    0.500000     0.500000     0.566967
    0.440103     0.529949     0.500000
    0.559897     0.470051     0.500000
    0.470051     0.440103     0.500000
    0.529949     0.559897     0.500000
    0.500000     0.500000     0.290964
    0.500000     0.500000     0.709036
    0.313033     0.593484     0.500000
    0.686967     0.406516     0.500000
    0.406516     0.313033     0.500000
    0.593484     0.686967     0.500000
EA43   16.922 17.990 13.836 90.00 90.00 90.00 Sym.group:    0
1.0000
   16.922127     0.000000     0.000000
    0.000000    17.989890     0.000000
    0.000000     0.000000    13.836396
   O  Cu
  18   24 
Direct
    0.564050     0.653926     0.517641
    0.609690     0.370860     0.517641
    0.326260     0.475214     0.517641
    0.609690     0.629140     0.482359
    0.326260     0.524786     0.482359
    0.564050     0.346074     0.482359
    0.673740     0.475214     0.517641
    0.390310     0.370860     0.517641
    0.435950     0.653926     0.517641
    0.390310     0.629140     0.482359
    0.435950     0.346074     0.482359
    0.673740     0.524786     0.482359
    0.500000     0.721510     0.445852
    0.703938     0.389245     0.445852
    0.296062     0.389245     0.445852
    0.703938     0.610755     0.554148
    0.296062     0.610755     0.554148
    0.500000     0.278490     0.554148
    0.570842     0.431577     0.455573
    0.401584     0.476502     0.455573
    0.527574     0.591921     0.455573
    0.401584     0.523498     0.544427
    0.527574     0.408079     0.544427
    0.570842     0.568423     0.544427
    0.472426     0.591921     0.455573
    0.598416     0.476502     0.455573
    0.429158     0.431577     0.455573
    0.598416     0.523498     0.544427
    0.429158     0.568423     0.544427
    0.472426     0.408079     0.544427
    0.562397     0.380940     0.362089
    0.359187     0.508700     0.362089
    0.578416     0.610360     0.362089
    0.359187     0.491300     0.637911
    0.578416     0.389640     0.637911
    0.562397     0.619060     0.637911
    0.421584     0.610360     0.362089
    0.640813     0.508700     0.362089
    0.437603     0.380940     0.362089
    0.640813     0.491300     0.637911
    0.437603     0.619060     0.637911
    0.421584     0.389640     0.637911
EA44   17.537 17.537 17.537 90.00 90.00 90.00 Sym.group:    0
1.0000
   17.537413     0.000000     0.000000
    0.000000    17.537413     0.000000
    0.000000     0.000000    17.537413
   O  Cu
  18   24 
Direct
    0.687478     0.409831     0.591926
    0.687478     0.590169     0.408074
    0.312522     0.377180     0.461321
    0.312522     0.622820     0.538679
    0.432688     0.708504     0.561024
    0.390228     0.389227     0.334446
    0.567312     0.344744     0.651965
    0.609772     0.480167     0.698206
    0.432688     0.291496     0.438976
    0.609772     0.519833     0.301794
    0.567312     0.655256     0.348035
    0.390228     0.610773     0.665554
    0.687478     0.538679     0.377180
    0.687478     0.461321     0.622820
    0.312522     0.408074     0.409831
    0.312522     0.591926     0.590169
    0.432688     0.651965     0.655256
    0.390228     0.301794     0.480167
    0.567312     0.561024     0.291496
    0.609772     0.665554     0.389227
    0.432688     0.348035     0.344744
    0.609772     0.334446     0.610773
    0.567312     0.438976     0.708504
    0.390228     0.698206     0.519833
    0.316728     0.532748     0.445420
    0.316728     0.467252     0.554580
    0.683272     0.554580     0.532748
    0.683272     0.445420     0.467252
    0.545008     0.311284     0.500786
    0.545008     0.588114     0.666884
    0.454992     0.666884     0.411886
    0.454992     0.499214     0.311284
    0.545008     0.688716     0.499214
    0.454992     0.500786     0.688716
    0.454992     0.333116     0.588114
    0.545008     0.411886     0.333116
    0.441633     0.500000     0.500000
    0.558367     0.500000     0.500000
    0.500000     0.514156     0.556624
    0.500000     0.485844     0.443376
    0.500000     0.443376     0.514156
    0.500000     0.556624     0.485844
EA45   22.542 22.284 12.035 90.00 90.00 90.00 Sym.group:    0
1.0000
   22.541552     0.000000     0.000000
    0.000000    22.283614     0.000000
    0.000000     0.000000    12.035072
   O  Cu
  18   24 
Direct
    0.519223     0.335681     0.481975
    0.368936     0.401000     0.518025
    0.349713     0.565319     0.481975
    0.480777     0.664319     0.518025
    0.631064     0.599000     0.481975
    0.650287     0.434681     0.518025
    0.661741     0.377176     0.538261
    0.475718     0.296895     0.461739
    0.313978     0.419719     0.538261
    0.338259     0.622824     0.461739
    0.524282     0.703105     0.538261
    0.686022     0.580281     0.461739
    0.419230     0.342462     0.520246
    0.324744     0.491989     0.479754
    0.405514     0.649528     0.520246
    0.580770     0.657538     0.479754
    0.675256     0.508011     0.520246
    0.594486     0.350472     0.479754
    0.440814     0.458867     0.559904
    0.435193     0.531284     0.440096
    0.494379     0.572416     0.559904
    0.559186     0.541133     0.440096
    0.564807     0.468716     0.559904
    0.505621     0.427584     0.440096
    0.777744     0.436293     0.518657
    0.584331     0.224829     0.481343
    0.306587     0.288536     0.518657
    0.222256     0.563707     0.481343
    0.415669     0.775171     0.518657
    0.693413     0.711464     0.481343
    0.441150     0.386587     0.435052
    0.373480     0.494849     0.564948
    0.432330     0.608262     0.435052
    0.558850     0.613413     0.564948
    0.626520     0.505151     0.435052
    0.567670     0.391738     0.564948
    0.643616     0.493915     0.583717
    0.566599     0.371142     0.416283
    0.422982     0.377228     0.583717
    0.356384     0.506085     0.416283
    0.433401     0.628858     0.583717
    0.577018     0.622772     0.416283
EA46   18.087 18.371 13.916 90.00 90.00 90.00 Sym.group:    0
1.0000
   18.087012     0.000000     0.000000
    0.000000    18.371009     0.000000
    0.000000     0.000000    13.916322
   O  Cu
  18   24 
Direct
    0.323150     0.347002     0.548214
    0.276994     0.574289     0.548214
    0.453844     0.727288     0.548214
    0.676850     0.652998     0.548214
    0.723006     0.425711     0.548214
    0.546156     0.272712     0.548214
    0.323150     0.347002     0.451786
    0.276994     0.574289     0.451786
    0.453844     0.727288     0.451786
    0.676850     0.652998     0.451786
    0.723006     0.425711     0.451786
    0.546156     0.272712     0.451786
    0.572496     0.419350     0.639991
    0.465307     0.397862     0.639991
    0.392811     0.478512     0.639991
    0.427504     0.580650     0.639991
    0.534693     0.602138     0.639991
    0.607189     0.521488     0.639991
    0.572496     0.419350     0.360009
    0.465307     0.397862     0.360009
    0.392811     0.478512     0.360009
    0.427504     0.580650     0.360009
    0.534693     0.602138     0.360009
    0.607189     0.521488     0.360009
    0.696657     0.395115     0.500000
    0.506069     0.279881     0.500000
    0.309412     0.384766     0.500000
    0.303343     0.604885     0.500000
    0.493931     0.720119     0.500000
    0.690588     0.615234     0.500000
    0.572595     0.585745     0.451099
    0.611721     0.480975     0.451099
    0.539126     0.395230     0.451099
    0.427405     0.414255     0.451099
    0.388279     0.519025     0.451099
    0.460874     0.604770     0.451099
    0.572595     0.585745     0.548901
    0.611721     0.480975     0.548901
    0.539126     0.395230     0.548901
    0.427405     0.414255     0.548901
    0.388279     0.519025     0.548901
    0.460874     0.604770     0.548901
EA47   22.108 14.661 14.661 90.00 90.00 90.00 Sym.group:    0
1.0000
   22.108033     0.000000     0.000000
    0.000000    14.660568     0.000000
    0.000000     0.000000    14.660568
   O  Cu
  18   24 
Direct
    0.500000     0.471608     0.429020
    0.500000     0.429020     0.528392
    0.500000     0.528392     0.570980
    0.500000     0.570980     0.471608
    0.500000     0.555074     0.371495
    0.500000     0.371495     0.444926
    0.500000     0.444926     0.628505
    0.500000     0.628505     0.555074
    0.535978     0.503666     0.412189
    0.535978     0.412189     0.496334
    0.535978     0.496334     0.587811
    0.535978     0.587811     0.503666
    0.464022     0.561059     0.436786
    0.464022     0.563214     0.561059
    0.464022     0.438941     0.563214
    0.464022     0.436786     0.438941
    0.342238     0.653670     0.475013
    0.342238     0.475013     0.346330
    0.342238     0.346330     0.524987
    0.342238     0.524987     0.653670
    0.657762     0.412115     0.371489
    0.657762     0.628511     0.412115
    0.657762     0.587885     0.628511
    0.657762     0.371489     0.587885
    0.441356     0.341733     0.447175
    0.441356     0.447175     0.658267
    0.441356     0.658267     0.552825
    0.441356     0.552825     0.341733
    0.558644     0.647402     0.578176
    0.558644     0.421824     0.647402
    0.558644     0.352598     0.421824
    0.558644     0.578176     0.352598
    0.393940     0.570095     0.509796
    0.393940     0.509796     0.429905
    0.393940     0.429905     0.490204
    0.393940     0.490204     0.570095
    0.606060     0.444565     0.455997
    0.606060     0.544003     0.444565
    0.606060     0.555435     0.544003
    0.606060     0.455997     0.555435
    0.226614     0.500000     0.500000
    0.773386     0.500000     0.500000
EA48   20.577 16.801 16.184 90.00 90.00 90.00 Sym.group:    0
1.0000
   20.577213     0.000000     0.000000
    0.000000    16.800657     0.000000
    0.000000     0.000000    16.183734
   O  Cu
  18   24 
Direct
    0.628904     0.432354     0.450984
    0.628904     0.492933     0.585324
    0.628904     0.574713     0.463692
    0.371096     0.507067     0.414676
    0.371096     0.567646     0.549016
    0.371096     0.425287     0.536308
    0.359274     0.375580     0.533267
    0.359274     0.589962     0.595225
    0.359274     0.534458     0.371508
    0.640726     0.604300     0.422115
    0.640726     0.512824     0.632712
    0.640726     0.382876     0.445173
    0.359274     0.487176     0.367288
    0.359274     0.395700     0.577885
    0.359274     0.617124     0.554827
    0.640726     0.410038     0.404775
    0.640726     0.624420     0.466733
    0.640726     0.465542     0.628492
    0.756527     0.567960     0.466973
    0.756527     0.438468     0.455415
    0.756527     0.493572     0.577612
    0.243473     0.432040     0.533027
    0.243473     0.506428     0.422388
    0.243473     0.561532     0.544585
    0.562054     0.351522     0.483845
    0.562054     0.560762     0.641565
    0.562054     0.587716     0.374590
    0.437946     0.583149     0.371281
    0.437946     0.565806     0.639113
    0.437946     0.351045     0.489606
    0.562054     0.434194     0.360887
    0.562054     0.416851     0.628719
    0.562054     0.648955     0.510394
    0.437946     0.439238     0.358435
    0.437946     0.648478     0.516155
    0.437946     0.412284     0.625410
    0.500000     0.298203     0.481987
    0.500000     0.414128     0.309570
    0.500000     0.585872     0.690430
    0.500000     0.384075     0.672417
    0.500000     0.615925     0.327583
    0.500000     0.701797     0.518013
EA49   18.857 18.970 12.246 90.00 90.00 90.00 Sym.group:    0
1.0000
   18.856558     0.000000     0.000000
    0.000000    18.970196     0.000000
    0.000000     0.000000    12.246206
   O  Cu
  18   24 
Direct
    0.418347     0.425130     0.499762
    0.546403     0.399672     0.499762
    0.610332     0.512864     0.499762
    0.521786     0.608279     0.499762
    0.403133     0.554056     0.499762
    0.581653     0.574870     0.500238
    0.596867     0.445944     0.500238
    0.478214     0.391721     0.500238
    0.389668     0.487136     0.500238
    0.453597     0.600328     0.500238
    0.293822     0.531282     0.590894
    0.406358     0.314754     0.590894
    0.648304     0.354230     0.590894
    0.685299     0.595155     0.590894
    0.466217     0.704579     0.590894
    0.485239     0.706796     0.409106
    0.693299     0.577858     0.409106
    0.634227     0.341323     0.409106
    0.389658     0.324074     0.409106
    0.297578     0.549949     0.409106
    0.365773     0.658677     0.590894
    0.306701     0.422142     0.590894
    0.514761     0.293204     0.590894
    0.702422     0.450051     0.590894
    0.610342     0.675926     0.590894
    0.351696     0.645770     0.409106
    0.593642     0.685246     0.409106
    0.706178     0.468718     0.409106
    0.533783     0.295421     0.409106
    0.314701     0.404845     0.409106
    0.734310     0.453419     0.500000
    0.662016     0.325416     0.500000
    0.616974     0.707113     0.500000
    0.717106     0.599214     0.500000
    0.337984     0.674584     0.500000
    0.472163     0.735902     0.500000
    0.282894     0.400786     0.500000
    0.265690     0.546581     0.500000
    0.527837     0.264098     0.500000
    0.383026     0.292887     0.500000
    0.500000     0.500000     0.589389
    0.500000     0.500000     0.410611
EA50   17.537 17.537 17.537 90.00 90.00 90.00 Sym.group:    0
1.0000
   17.537413     0.000000     0.000000
    0.000000    17.537413     0.000000
    0.000000     0.000000    17.537413
   O  Cu
  18   24 
Direct
    0.624527     0.306967     0.543077
    0.375473     0.306967     0.456923
    0.375473     0.693033     0.543077
    0.624527     0.693033     0.456923
    0.543077     0.624527     0.306967
    0.306967     0.543077     0.624527
    0.543077     0.375473     0.693033
    0.693033     0.456923     0.624527
    0.456923     0.624527     0.693033
    0.306967     0.456923     0.375473
    0.456923     0.375473     0.306967
    0.693033     0.543077     0.375473
    0.456923     0.306967     0.375473
    0.543077     0.306967     0.624527
    0.456923     0.693033     0.624527
    0.543077     0.693033     0.375473
    0.693033     0.624527     0.456923
    0.375473     0.543077     0.693033
    0.306967     0.375473     0.456923
    0.375473     0.456923     0.306967
    0.306967     0.624527     0.543077
    0.624527     0.456923     0.693033
    0.693033     0.375473     0.543077
    0.624527     0.543077     0.306967
    0.432634     0.708983     0.432634
    0.567366     0.708983     0.567366
    0.567366     0.291017     0.432634
    0.432634     0.291017     0.567366
    0.432634     0.432634     0.708983
    0.708983     0.432634     0.432634
    0.432634     0.567366     0.291017
    0.291017     0.567366     0.432634
    0.567366     0.432634     0.291017
    0.708983     0.567366     0.567366
    0.567366     0.567366     0.708983
    0.291017     0.432634     0.567366
    0.500000     0.685090     0.500000
    0.500000     0.314910     0.500000
    0.685090     0.500000     0.500000
    0.314910     0.500000     0.500000
    0.500000     0.500000     0.685090
    0.500000     0.500000     0.314910
EA51    6.611  6.611 19.056 90.00 90.00 90.00 Sym.group:    0
1.0000
    6.611060     0.000000     0.000000
    0.000000     6.611060     0.000000
    0.000000     0.000000    19.055610
   O  Cu
  18   24 
Direct
    0.853553     0.853553     0.737610
    1.000000     0.500000     0.262390
    0.500000     1.000000     0.737610
    0.853553     0.853553     0.262390
    0.853553     0.146447     0.262390
    1.000000     0.500000     0.737610
    0.146447     0.853553     0.737610
    0.500000     1.000000     0.262390
    0.500000     0.000000     0.262390
    0.853553     0.146447     0.737610
    0.000000     0.500000     0.737610
    0.146447     0.853553     0.262390
    0.146447     0.146447     0.262390
    0.500000     0.000000     0.737610
    0.146447     0.146447     0.737610
    0.000000     0.500000     0.262390
    0.500000     0.500000     0.664032
    0.500000     0.500000     0.335968
    0.850791     0.850791     0.617417
    0.996094     0.500000     0.382583
    0.500000     0.996094     0.617417
    0.850791     0.850791     0.382583
    0.850791     0.149209     0.382583
    0.996094     0.500000     0.617417
    0.149209     0.850791     0.617417
    0.500000     0.996094     0.382583
    0.500000     0.003906     0.382583
    0.850791     0.149209     0.617417
    0.003906     0.500000     0.617417
    0.149209     0.850791     0.382583
    0.149209     0.149209     0.382583
    0.500000     0.003906     0.617417
    0.149209     0.149209     0.617417
    0.003906     0.500000     0.382583
    0.759763     0.759763     0.500000
    0.867361     0.500000     0.500000
    0.500000     0.867361     0.500000
    0.759763     0.240237     0.500000
    0.240237     0.759763     0.500000
    0.500000     0.132639     0.500000
    0.132639     0.500000     0.500000
    0.240237     0.240237     0.500000
EA52   17.188 18.072 23.220 90.00 90.00 90.00 Sym.group:    0
1.0000
   17.187925     0.000000     0.000000
    0.000000    18.072454     0.000000
    0.000000     0.000000    23.220338
   O  Cu
  18   24 
Direct
    0.447214     0.500000     0.500000
    0.618034     1.000000     0.709010
    1.000000     0.500000     0.290990
    0.000000     0.809017     0.709010
    0.618034     1.000000     0.290990
    0.618034     0.000000     0.290990
    1.000000     0.500000     0.709010
    0.000000     0.190983     0.709010
    0.000000     0.809017     0.290990
    0.000000     0.190983     0.290990
    0.618034     0.000000     0.709010
    0.447214     0.500000     0.541768
    0.447214     0.500000     0.458232
    0.478601     0.591871     0.500000
    0.548784     0.500000     0.500000
    0.365042     0.556780     0.500000
    0.478601     0.408129     0.500000
    0.365042     0.443220     0.500000
    0.447214     0.500000     0.601609
    0.447214     0.500000     0.398391
    0.562769     0.838236     0.685873
    0.821158     0.500000     0.314127
    0.144686     0.709041     0.685873
    0.562769     0.838236     0.314127
    0.562769     0.161764     0.314127
    0.821158     0.500000     0.685873
    0.144686     0.290959     0.685873
    0.144686     0.709041     0.314127
    0.144686     0.290959     0.314127
    0.562769     0.161764     0.685873
    0.608356     0.971673     0.647153
    0.968682     0.500000     0.352847
    0.025337     0.791510     0.647153
    0.608356     0.971673     0.352847
    0.608356     0.028327     0.352847
    0.968682     0.500000     0.647153
    0.025337     0.208490     0.647153
    0.025337     0.791510     0.352847
    0.025337     0.208490     0.352847
    0.608356     0.028327     0.647153
    0.447214     0.500000     0.784672
    0.447214     0.500000     0.215328
EA53    5.135  5.135 33.539 90.00 90.00 90.00 Sym.group:    0
1.0000
    5.135140     0.000000     0.000000
    0.000000     5.135140     0.000000
    0.000000     0.000000    33.538619
   O  Cu
  18   24 
Direct
    0.716793     0.829833     0.516314
    0.716793     0.829833     0.483686
    0.283207     0.170167     0.516314
    0.170167     0.716793     0.483686
    0.170167     0.716793     0.516314
    0.829833     0.283207     0.516314
    0.283207     0.170167     0.483686
    0.829833     0.283207     0.483686
    0.503059     0.926958     0.600755
    0.503059     0.926958     0.399245
    0.496941     0.073042     0.600755
    0.073042     0.503059     0.399245
    0.073042     0.503059     0.600755
    0.926958     0.496941     0.600755
    0.496941     0.073042     0.399245
    0.926958     0.496941     0.399245
    0.500000     0.500000     0.745287
    0.500000     0.500000     0.254713
    0.500000     0.500000     0.838273
    0.500000     0.500000     0.161727
    0.500000     0.500000     0.592584
    0.500000     0.500000     0.407416
    0.848628     0.503825     0.850918
    0.848628     0.503825     0.149082
    0.151372     0.496175     0.850918
    0.496175     0.848628     0.149082
    0.496175     0.848628     0.850918
    0.503825     0.151372     0.850918
    0.151372     0.496175     0.149082
    0.503825     0.151372     0.149082
    0.918123     1.000000     0.500000
    0.000000     0.918123     0.500000
    0.081877     0.000000     0.500000
    1.000000     0.081877     0.500000
    0.631675     0.904419     0.547692
    0.631675     0.904419     0.452308
    0.368325     0.095581     0.547692
    0.095581     0.631675     0.452308
    0.095581     0.631675     0.547692
    0.904419     0.368325     0.547692
    0.368325     0.095581     0.452308
    0.904419     0.368325     0.452308
EA54    9.506  9.506 19.506 90.00 90.00 90.00 Sym.group:    0
1.0000
    9.505704     0.000000     0.000000
    0.000000     9.505704     0.000000
    0.000000     0.000000    19.505704
   O  Cu
  18   24 
Direct
    0.500000     0.637050     0.546890
    0.500000     0.362950     0.546890
    0.500000     0.637050     0.453110
    0.500000     0.362950     0.453110
    0.596219     0.500000     0.566789
    0.596219     0.500000     0.433211
    0.403781     0.500000     0.566789
    0.403781     0.500000     0.433211
    0.637050     0.596219     0.500000
    0.362950     0.596219     0.500000
    0.637050     0.403781     0.500000
    0.362950     0.403781     0.500000
    0.562236     0.500000     0.500000
    0.437764     0.500000     0.500000
    0.500000     0.562236     0.500000
    0.500000     0.437764     0.500000
    0.500000     0.500000     0.530330
    0.500000     0.500000     0.469670
    0.500000     0.877051     0.743665
    0.500000     0.122949     0.743665
    0.500000     0.877051     0.256335
    0.500000     0.122949     0.256335
    1.000000     0.500000     0.683748
    1.000000     0.500000     0.316252
    0.000000     0.500000     0.683748
    0.000000     0.500000     0.316252
    0.877051     1.000000     0.500000
    0.122949     1.000000     0.500000
    0.877051     0.000000     0.500000
    0.122949     0.000000     0.500000
    0.891930     0.500000     0.500000
    0.108070     0.500000     0.500000
    0.500000     0.891930     0.500000
    0.500000     0.108070     0.500000
    0.500000     0.500000     0.690999
    0.500000     0.500000     0.309001
    0.691689     0.500000     0.500000
    0.308311     0.500000     0.500000
    0.500000     0.691689     0.500000
    0.500000     0.308311     0.500000
    0.500000     0.500000     0.593416
    0.500000     0.500000     0.406584
EA55    7.551  8.134 24.391 90.00 90.00 90.00 Sym.group:    0
1.0000
    7.550751     0.000000     0.000000
    0.000000     8.134288     0.000000
    0.000000     0.000000    24.391421
   O  Cu
  18   24 
Direct
    0.797420     0.580518     0.598656
    0.276171     0.698837     0.598656
    0.202580     0.419482     0.401344
    0.426409     0.220646     0.598656
    0.723829     0.301163     0.401344
    0.573591     0.779354     0.401344
    0.803459     0.641829     0.656112
    0.215951     0.673036     0.656112
    0.196541     0.358171     0.343888
    0.480590     0.185136     0.656112
    0.784049     0.326964     0.343888
    0.519410     0.814864     0.343888
    0.500000     0.500000     0.624576
    0.500000     0.500000     0.375424
    0.500000     0.500000     0.712405
    0.500000     0.500000     0.287595
    0.500000     0.500000     0.795010
    0.500000     0.500000     0.204990
    0.779953     0.525148     0.745865
    0.336562     0.712480     0.745865
    0.220047     0.474852     0.254135
    0.383486     0.262372     0.745865
    0.663438     0.287520     0.254135
    0.616514     0.737628     0.254135
    0.564298     0.609390     0.579193
    0.365796     0.496994     0.579193
    0.435702     0.390610     0.420807
    0.569906     0.393616     0.579193
    0.634204     0.503006     0.420807
    0.430094     0.606384     0.420807
    0.932953     0.803899     0.688786
    0.000000     0.696101     0.688786
    0.067047     0.196101     0.311214
    0.567047     0.000000     0.688786
    1.000000     0.303899     0.311214
    0.432953     1.000000     0.311214
    0.774321     0.751903     0.725763
    0.127826     0.594575     0.725763
    0.225679     0.248097     0.274237
    0.597853     0.153523     0.725763
    0.872174     0.405425     0.274237
    0.402147     0.846477     0.274237
EA56    9.788  9.806  9.310 90.00 90.00 90.00 Sym.group:    0
1.0000
    9.787639     0.000000     0.000000
    0.000000     9.806310     0.000000
    0.000000     0.000000     9.309700
   O  Cu
  18   24 
Direct
    0.381647     0.406449     0.848874
    0.220651     0.188643     0.467863
    0.814171     0.410770     0.271297
    0.863112     0.486296     0.529441
    0.454565     0.131180     0.342362
    0.316452     0.142192     0.488067
    0.285845     0.452899     0.828670
    0.288114     0.792126     0.791824
    0.714674     0.861793     0.646667
    0.556843     0.610876     0.145215
    0.813597     0.655398     0.773521
    0.854624     0.692156     0.506495
    0.187537     0.777127     0.541867
    0.132889     0.670895     0.560275
    0.867111     0.609452     0.670500
    0.386997     0.605873     0.157870
    0.208607     0.637577     0.818602
    0.279529     0.848975     0.679094
    0.434231     0.171611     0.242542
    0.183438     0.262636     0.285181
    0.834505     0.370339     0.371117
    0.203103     0.351626     0.632348
    0.406205     0.253151     0.675184
    0.702854     0.439880     0.697635
    0.296881     0.470528     0.138508
    0.136888     0.483286     0.307299
    0.651952     0.233556     0.415926
    0.408738     0.446201     0.517086
    0.512478     0.437930     0.407640
    0.618940     0.508082     0.154922
    0.723258     0.804946     0.759399
    0.792528     0.794949     0.496787
    0.259499     0.741656     0.630963
    0.741753     0.706467     0.693099
    0.788046     0.666720     0.603978
    0.266924     0.692480     0.728483
    0.477150     0.554784     0.211946
    0.734328     0.755644     0.595580
    0.212223     0.649758     0.646885
    0.714803     0.656571     0.315673
    0.501489     0.839720     0.726341
    0.249435     0.642862     0.350349
EA57    9.710  9.397  9.497 90.00 90.00 90.00 Sym.group:    0
1.0000
    9.710322     0.000000     0.000000
    0.000000     9.396763     0.000000
    0.000000     0.000000     9.496729
   O  Cu
  18   24 
Direct
    0.539545     0.139815     0.419791
    0.400406     0.646917     0.150639
    0.861777     0.456241     0.465153
    0.705384     0.518364     0.203960
    0.720792     0.762221     0.479646
    0.397033     0.352432     0.183358
    0.255754     0.424582     0.241656
    0.708933     0.352898     0.240711
    0.617286     0.797696     0.341940
    0.413319     0.855282     0.536130
    0.133796     0.473656     0.510588
    0.866204     0.306194     0.690989
    0.650354     0.236345     0.825485
    0.678523     0.848547     0.541447
    0.745816     0.497299     0.837706
    0.215851     0.327188     0.713911
    0.149723     0.485810     0.611809
    0.803000     0.217605     0.709134
    0.263643     0.342292     0.493880
    0.466840     0.318287     0.264148
    0.615383     0.572568     0.229193
    0.790629     0.466009     0.355767
    0.436951     0.182113     0.479036
    0.384797     0.525081     0.174466
    0.361878     0.447718     0.353052
    0.614583     0.419426     0.344129
    0.575458     0.666629     0.408171
    0.218353     0.810529     0.498435
    0.177005     0.706167     0.318604
    0.323608     0.842210     0.317633
    0.236057     0.228361     0.668481
    0.630148     0.335172     0.870915
    0.595115     0.858786     0.605023
    0.728470     0.147448     0.508603
    0.296362     0.672554     0.630270
    0.619835     0.678787     0.752855
    0.456862     0.180792     0.715628
    0.796665     0.657079     0.618070
    0.414026     0.390312     0.811943
    0.455308     0.517124     0.511523
    0.504979     0.397975     0.588214
    0.591861     0.519754     0.563271
EA58    8.805 12.898 12.686 90.00 90.00 90.00 Sym.group:    0
1.0000
    8.804787     0.000000     0.000000
    0.000000    12.898026     0.000000
    0.000000     0.000000    12.685553
   O  Cu
  18   24 
Direct
    0.238641     0.627195     0.260520
    0.146948     0.392815     0.499830
    0.300782     0.507340     0.143372
    0.202313     0.255641     0.400366
    0.408502     0.608798     0.852181
    0.293636     0.667152     0.317691
    0.199395     0.426259     0.563652
    0.678899     0.764784     0.637652
    0.684315     0.716645     0.589759
    0.679346     0.640542     0.765164
    0.684762     0.592403     0.717270
    0.541224     0.918448     0.728374
    0.574672     0.621144     0.432589
    0.755341     0.808590     0.846965
    0.788790     0.511287     0.551179
    0.547257     0.256014     0.257195
    0.540715     0.314167     0.315050
    0.458776     0.433667     0.621812
    0.442610     0.372831     0.213623
    0.358511     0.725539     0.543224
    0.396988     0.256215     0.332693
    0.312889     0.608922     0.662294
    0.385796     0.431171     0.829654
    0.283742     0.210324     0.558387
    0.442402     0.615879     0.144302
    0.459039     0.271200     0.490358
    0.348900     0.449719     0.628841
    0.435463     0.670983     0.402922
    0.416547     0.384780     0.344474
    0.137036     0.568786     0.417597
    0.531823     0.393202     0.393682
    0.556149     0.176979     0.178563
    0.515368     0.539461     0.539194
    0.781229     0.146549     0.178178
    0.601530     0.235091     0.082403
    0.573006     0.488628     0.334646
    0.514966     0.081552     0.237600
    0.832404     0.770835     0.586918
    0.764241     0.566062     0.795196
    0.629152     0.830552     0.662508
    0.732898     0.702847     0.796397
    0.748730     0.562120     0.656388
EA59   10.816 10.919 10.645 90.00 90.00 90.00 Sym.group:    0
1.0000
   10.815772     0.000000     0.000000
    0.000000    10.919320     0.000000
    0.000000     0.000000    10.644712
   O  Cu
  18   24 
Direct
    0.861508     0.441550     0.477608
    0.365605     0.312428     0.203710
    0.562992     0.223736     0.751221
    0.252916     0.311086     0.655033
    0.654937     0.359299     0.220755
    0.505546     0.144665     0.467577
    0.667561     0.180155     0.492919
    0.218879     0.284029     0.489588
    0.573913     0.494795     0.151211
    0.752499     0.641503     0.405443
    0.463067     0.725091     0.359320
    0.659607     0.529825     0.789421
    0.396366     0.746272     0.573675
    0.278817     0.625612     0.430799
    0.438324     0.555647     0.803385
    0.850864     0.630279     0.415620
    0.375561     0.761108     0.330297
    0.622264     0.551973     0.879734
    0.688534     0.369745     0.324634
    0.446325     0.221965     0.415756
    0.355770     0.326427     0.683182
    0.188118     0.447365     0.562209
    0.484130     0.349107     0.206544
    0.554706     0.195781     0.628096
    0.592413     0.314917     0.487447
    0.343294     0.369830     0.499457
    0.551355     0.497150     0.302178
    0.820916     0.325269     0.712690
    0.161234     0.470444     0.252334
    0.711753     0.415750     0.858413
    0.380872     0.819805     0.512222
    0.240631     0.710117     0.454680
    0.439311     0.502600     0.886772
    0.700299     0.747654     0.818914
    0.111991     0.585898     0.592015
    0.666598     0.511350     0.113228
    0.431457     0.657500     0.135634
    0.565736     0.893527     0.622436
    0.820639     0.792497     0.565735
    0.406300     0.666556     0.705229
    0.762607     0.505251     0.675113
    0.616050     0.702173     0.368034
EA60    9.676  9.710  8.651 90.00 90.00 90.00 Sym.group:    0
1.0000
    9.675710     0.000000     0.000000
    0.000000     9.710246     0.000000
    0.000000     0.000000     8.651388
   O  Cu
  18   24 
Direct
    0.189421     0.672253     0.573171
    0.388657     0.330917     0.179045
    0.224261     0.502177     0.766639
    0.135245     0.416995     0.538988
    0.221421     0.669958     0.671903
    0.830106     0.384057     0.721294
    0.748329     0.806335     0.614689
    0.859794     0.360585     0.516407
    0.778017     0.782862     0.409802
    0.586446     0.303762     0.813401
    0.743840     0.579050     0.797982
    0.536705     0.807480     0.698506
    0.653946     0.250394     0.347554
    0.811340     0.525682     0.332135
    0.604205     0.754112     0.232659
    0.169894     0.426376     0.326003
    0.683257     0.789284     0.325641
    0.560652     0.157038     0.276268
    0.193811     0.412795     0.719674
    0.133694     0.508674     0.487222
    0.390208     0.239238     0.230811
    0.365583     0.764402     0.460635
    0.433427     0.759538     0.669947
    0.269716     0.278977     0.417445
    0.373923     0.271504     0.738945
    0.266429     0.473340     0.307700
    0.438479     0.461000     0.838514
    0.491704     0.564435     0.532747
    0.493836     0.438408     0.603906
    0.449846     0.441565     0.468186
    0.543274     0.665026     0.730997
    0.610742     0.524755     0.776752
    0.611299     0.611242     0.261525
    0.565281     0.359163     0.300823
    0.678767     0.470971     0.307281
    0.590502     0.447277     0.538349
    0.606834     0.571884     0.517276
    0.826602     0.329523     0.622819
    0.797433     0.764952     0.527050
    0.541361     0.496679     0.314123
    0.497255     0.412946     0.770295
    0.318796     0.620000     0.186599
EA61    9.481  8.861 10.328 90.00 90.00 90.00 Sym.group:    0
1.0000
    9.481391     0.000000     0.000000
    0.000000     8.860858     0.000000
    0.000000     0.000000    10.328278
   O  Cu
  18   24 
Direct
    0.477667     0.364099     0.879640
    0.135170     0.305685     0.653076
    0.868034     0.487562     0.704294
    0.528743     0.222397     0.835095
    0.186246     0.163983     0.608530
    0.183042     0.370736     0.251161
    0.245504     0.773067     0.445266
    0.341567     0.816149     0.621056
    0.793572     0.632328     0.755169
    0.641845     0.537190     0.864482
    0.853447     0.607268     0.296812
    0.721583     0.768045     0.304007
    0.784894     0.506217     0.797080
    0.650522     0.663300     0.822570
    0.695791     0.161964     0.384877
    0.386836     0.314813     0.183363
    0.318283     0.213761     0.683630
    0.522333     0.635901     0.120360
    0.480855     0.333639     0.278899
    0.663745     0.420782     0.304001
    0.757043     0.381426     0.460432
    0.667446     0.254925     0.591761
    0.484556     0.167781     0.566659
    0.391258     0.207137     0.410228
    0.210547     0.489149     0.242518
    0.439662     0.276359     0.825703
    0.150209     0.265508     0.568221
    0.379298     0.295600     0.564714
    0.348506     0.380088     0.390559
    0.556693     0.343652     0.651565
    0.327494     0.439320     0.609894
    0.844417     0.707277     0.384126
    0.361781     0.845947     0.473536
    0.730613     0.668036     0.216694
    0.225289     0.743270     0.592785
    0.783520     0.558327     0.208045
    0.762124     0.795277     0.414915
    0.444073     0.864139     0.564773
    0.717177     0.729027     0.742904
    0.684653     0.611668     0.377911
    0.642035     0.548849     0.688915
    0.383073     0.676963     0.520008
EA62    8.024 10.536  9.955 90.00 90.00 90.00 Sym.group:    0
1.0000
    8.023847     0.000000     0.000000
    0.000000    10.535880     0.000000
    0.000000     0.000000     9.955179
   O  Cu
  18   24 
Direct
    0.822668     0.386459     0.292742
    0.788910     0.262542     0.555505
    0.676679     0.406412     0.793741
    0.401792     0.325804     0.230788
    0.368034     0.201888     0.493551
    0.255803     0.345758     0.731787
    0.357052     0.385687     0.754184
    0.512558     0.323988     0.266752
    0.469453     0.224062     0.535632
    0.501444     0.619625     0.355531
    0.717333     0.591829     0.481251
    0.303652     0.538329     0.377529
    0.584519     0.658332     0.340431
    0.780835     0.566824     0.539853
    0.153009     0.645374     0.642717
    0.336068     0.836584     0.473349
    0.655211     0.849486     0.589822
    0.669395     0.666250     0.831175
    0.556736     0.414464     0.783577
    0.712242     0.352765     0.296146
    0.669137     0.252839     0.565025
    0.631275     0.435603     0.356416
    0.617235     0.347253     0.507778
    0.551044     0.421029     0.660942
    0.501107     0.416844     0.337255
    0.487067     0.328494     0.488617
    0.420876     0.402270     0.641782
    0.653184     0.343836     0.128875
    0.628419     0.119272     0.474414
    0.475235     0.275435     0.845542
    0.488716     0.771568     0.837990
    0.339195     0.725076     0.835392
    0.264112     0.784956     0.727150
    0.367230     0.868457     0.662850
    0.506043     0.860183     0.731353
    0.457599     0.520861     0.339577
    0.667195     0.549615     0.390011
    0.410075     0.629120     0.429816
    0.619671     0.657874     0.480250
    0.663299     0.550555     0.636333
    0.324166     0.504030     0.554729
    0.429742     0.718487     0.689295
EA63    9.153  8.761 10.184 90.00 90.00 90.00 Sym.group:    0
1.0000
    9.153069     0.000000     0.000000
    0.000000     8.760859     0.000000
    0.000000     0.000000    10.184405
   O  Cu
  18   24 
Direct
    0.436817     0.684500     0.485170
    0.317710     0.480943     0.572733
    0.465765     0.269588     0.565801
    0.295699     0.392616     0.600044
    0.277411     0.155783     0.374377
    0.362717     0.685493     0.227409
    0.144868     0.475865     0.351862
    0.841768     0.684716     0.657546
    0.674452     0.500651     0.136524
    0.707336     0.384668     0.789731
    0.540020     0.200603     0.268708
    0.710639     0.793324     0.721523
    0.832574     0.485849     0.221245
    0.566273     0.471103     0.863476
    0.688208     0.163628     0.363198
    0.608815     0.553735     0.169925
    0.834169     0.653463     0.576396
    0.696001     0.345076     0.712255
    0.370102     0.634589     0.804375
    0.311245     0.489876     0.156103
    0.227237     0.375219     0.211517
    0.307087     0.237965     0.212884
    0.440448     0.267792     0.158314
    0.386760     0.575919     0.603084
    0.441382     0.362835     0.630177
    0.485251     0.636827     0.402132
    0.326487     0.533445     0.481991
    0.381109     0.320360     0.509084
    0.392329     0.391651     0.265875
    0.506618     0.742893     0.679048
    0.827241     0.466960     0.424789
    0.760354     0.317670     0.490558
    0.563942     0.145713     0.493240
    0.701870     0.854287     0.554616
    0.796554     0.664896     0.264516
    0.611934     0.330971     0.570888
    0.738844     0.614230     0.446100
    0.530234     0.746634     0.517621
    0.700338     0.423469     0.433593
    0.527784     0.611835     0.649865
    0.546923     0.345454     0.136707
    0.856606     0.493189     0.716581
EA64    9.552  9.426  8.678 90.00 90.00 90.00 Sym.group:    0
1.0000
    9.552442     0.000000     0.000000
    0.000000     9.425680     0.000000
    0.000000     0.000000     8.678070
   O  Cu
  18   24 
Direct
    0.657597     0.223155     0.303350
    0.293868     0.459221     0.150812
    0.263645     0.836004     0.408924
    0.559745     0.144926     0.415088
    0.804740     0.425474     0.425122
    0.565204     0.401114     0.188335
    0.370314     0.666623     0.212002
    0.489403     0.855074     0.463417
    0.342720     0.223246     0.442390
    0.147830     0.488754     0.466057
    0.564266     0.634065     0.622779
    0.422570     0.465654     0.683108
    0.531600     0.622776     0.710109
    0.373445     0.397887     0.679012
    0.412244     0.864410     0.528086
    0.226670     0.673941     0.687340
    0.821075     0.533641     0.687188
    0.635501     0.343172     0.846443
    0.494300     0.605155     0.276103
    0.517770     0.726513     0.389501
    0.652635     0.689005     0.483983
    0.712517     0.544465     0.428979
    0.614660     0.492643     0.300501
    0.396504     0.579352     0.465550
    0.546860     0.428923     0.488540
    0.439065     0.464350     0.417153
    0.645841     0.182649     0.392042
    0.270151     0.379407     0.198800
    0.193129     0.773126     0.427099
    0.577064     0.594518     0.400150
    0.545922     0.135590     0.614972
    0.729632     0.159236     0.604029
    0.870176     0.317622     0.521109
    0.845318     0.342019     0.675523
    0.758458     0.244131     0.726770
    0.639738     0.584766     0.555951
    0.526838     0.481646     0.686861
    0.453202     0.337441     0.567064
    0.530335     0.673280     0.513375
    0.417434     0.570160     0.644285
    0.343799     0.425955     0.524488
    0.716008     0.321854     0.568009
EA65    8.829  9.373  8.078 90.00 90.00 90.00 Sym.group:    0
1.0000
    8.828913     0.000000     0.000000
    0.000000     9.373496     0.000000
    0.000000     0.000000     8.077951
   O  Cu
  18   24 
Direct
    0.525607     0.688548     0.156820
    0.156426     0.634727     0.354108
    0.768386     0.383472     0.229488
    0.549252     0.141102     0.471688
    0.828961     0.703615     0.451294
    0.352737     0.340897     0.169425
    0.645853     0.535730     0.195541
    0.305115     0.744892     0.441667
    0.263740     0.320052     0.360162
    0.790707     0.771166     0.578229
    0.856991     0.338894     0.547726
    0.721183     0.752633     0.750673
    0.787467     0.320361     0.720170
    0.322886     0.841095     0.536811
    0.571215     0.258691     0.723708
    0.279551     0.293989     0.562435
    0.205006     0.602996     0.568700
    0.608675     0.800813     0.341764
    0.451375     0.243013     0.321950
    0.342251     0.660381     0.257365
    0.796352     0.543204     0.341632
    0.675905     0.694557     0.305580
    0.256490     0.487906     0.263618
    0.657583     0.264134     0.351750
    0.560092     0.363256     0.201793
    0.166347     0.465823     0.451786
    0.488270     0.771596     0.343791
    0.638768     0.779069     0.489882
    0.803602     0.375350     0.438176
    0.439645     0.514609     0.165742
    0.450599     0.758674     0.733846
    0.676929     0.545881     0.829646
    0.311706     0.511328     0.617136
    0.408146     0.624739     0.690261
    0.543142     0.554547     0.756381
    0.530133     0.397754     0.724120
    0.387098     0.371044     0.638062
    0.559193     0.606585     0.527305
    0.613918     0.492281     0.540520
    0.726079     0.796987     0.652918
    0.842359     0.369317     0.651747
    0.451187     0.495919     0.647634
EA66    9.499 14.424 10.114 90.00 90.00 90.00 Sym.group:    0
1.0000
    9.498855     0.000000     0.000000
    0.000000    14.424405     0.000000
    0.000000     0.000000    10.113543
   O  Cu
  18   24 
Direct
    0.687876     0.698086     0.241325
    0.762357     0.737022     0.483290
    0.423344     0.747124     0.289140
    0.661984     0.641390     0.271572
    0.673170     0.925781     0.496575
    0.646547     0.851819     0.119298
    0.869648     0.858363     0.310954
    0.450070     0.919236     0.304919
    0.486639     0.501669     0.306103
    0.290161     0.569086     0.491724
    0.388811     0.366235     0.849206
    0.695388     0.206742     0.506738
    0.607184     0.613421     0.830417
    0.844476     0.419915     0.632925
    0.226398     0.580422     0.742430
    0.157527     0.450383     0.675230
    0.526401     0.735181     0.754071
    0.729579     0.350992     0.751231
    0.653374     0.874601     0.315512
    0.506434     0.552849     0.487166
    0.423828     0.372823     0.413288
    0.767900     0.640610     0.182046
    0.319843     0.713677     0.214642
    0.668385     0.752308     0.178950
    0.820933     0.778854     0.416884
    0.414568     0.814338     0.297371
    0.592693     0.586566     0.267373
    0.338876     0.648596     0.385794
    0.806499     0.503388     0.584421
    0.294369     0.635385     0.671559
    0.564454     0.525356     0.801050
    0.700102     0.684476     0.690503
    0.746099     0.294951     0.574222
    0.311852     0.446819     0.792206
    0.300537     0.479147     0.597457
    0.510410     0.629924     0.652394
    0.636370     0.421859     0.645904
    0.422949     0.125946     0.520678
    0.271262     0.195614     0.656771
    0.481898     0.169729     0.723397
    0.435546     0.474644     0.198950
    0.839966     0.713773     0.588035
EA67   10.428 14.049 12.284 90.00 90.00 90.00 Sym.group:    0
1.0000
   10.427865     0.000000     0.000000
    0.000000    14.048643     0.000000
    0.000000     0.000000    12.283939
   O  Cu
  18   24 
Direct
    0.435152     0.869776     0.481668
    0.426851     0.609016     0.402564
    0.356472     0.551665     0.454893
    0.615165     0.640062     0.462115
    0.522359     0.724022     0.739286
    0.555509     0.672236     0.698155
    0.222608     0.711672     0.592888
    0.435933     0.796079     0.566905
    0.309034     0.639615     0.765269
    0.255758     0.659886     0.551757
    0.342185     0.587829     0.724138
    0.460096     0.903452     0.780726
    0.664831     0.583622     0.526703
    0.113286     0.800286     0.764340
    0.256240     0.919290     0.639440
    0.317143     0.784448     0.905627
    0.318021     0.480456     0.510317
    0.521878     0.464618     0.651603
    0.846835     0.208083     0.277295
    0.800813     0.255538     0.173004
    0.591076     0.165919     0.196415
    0.765811     0.142058     0.337538
    0.668278     0.275747     0.301779
    0.242842     0.820716     0.471623
    0.669552     0.165571     0.369159
    0.819324     0.287618     0.257799
    0.735476     0.159816     0.214574
    0.695914     0.667185     0.371080
    0.260419     0.490064     0.405076
    0.422449     0.622101     0.284601
    0.675068     0.383902     0.216330
    0.765435     0.290723     0.421110
    0.508803     0.248414     0.339954
    0.294993     0.838900     0.762232
    0.598425     0.353457     0.528568
    0.155217     0.696645     0.506654
    0.256579     0.562450     0.794356
    0.166794     0.739012     0.657723
    0.363991     0.847214     0.581758
    0.317215     0.688084     0.829526
    0.263705     0.587622     0.537482
    0.414126     0.536694     0.709285
EA68    9.278 10.184  9.316 90.00 90.00 90.00 Sym.group:    0
1.0000
    9.278165     0.000000     0.000000
    0.000000    10.183717     0.000000
    0.000000     0.000000     9.316048
   O  Cu
  18   24 
Direct
    0.411498     0.643344     0.414915
    0.363865     0.536699     0.618432
    0.365864     0.484522     0.687043
    0.346173     0.663390     0.467547
    0.136668     0.417905     0.472858
    0.306110     0.186594     0.580541
    0.258440     0.508798     0.200077
    0.467397     0.774578     0.753146
    0.532834     0.177772     0.453804
    0.738807     0.296138     0.679165
    0.851798     0.564283     0.637066
    0.758817     0.714064     0.369607
    0.552844     0.595697     0.144246
    0.560146     0.672447     0.813655
    0.538722     0.399053     0.813780
    0.633843     0.663648     0.746649
    0.525936     0.790257     0.474761
    0.241183     0.285936     0.630393
    0.330647     0.255029     0.183886
    0.215835     0.323750     0.230782
    0.176079     0.267047     0.356647
    0.266320     0.163280     0.387544
    0.361849     0.155853     0.280771
    0.422138     0.623897     0.585020
    0.420756     0.381149     0.604016
    0.432901     0.563068     0.341411
    0.333635     0.528451     0.510015
    0.338458     0.306663     0.345820
    0.677095     0.347734     0.729997
    0.772217     0.612330     0.662867
    0.664309     0.738938     0.390979
    0.668634     0.540803     0.618831
    0.623132     0.643916     0.463630
    0.590603     0.380160     0.627894
    0.578432     0.574256     0.673447
    0.532930     0.677369     0.518245
    0.500401     0.413613     0.682509
    0.593015     0.241916     0.855837
    0.788595     0.616978     0.855613
    0.695581     0.875062     0.499778
    0.701057     0.847035     0.642001
    0.581371     0.437161     0.331211
EA69   16.001  7.644  9.463 90.00 90.00 90.00 Sym.group:    0
1.0000
   16.001426     0.000000     0.000000
    0.000000     7.644056     0.000000
    0.000000     0.000000     9.463041
   O  Cu
  18   24 
Direct
    0.376410     0.448606     0.420885
    0.529243     0.476916     0.469586
    0.398952     0.578406     0.367232
    0.690004     0.218268     0.327630
    0.119705     0.709019     0.251693
    0.582430     0.279999     0.262180
    0.298644     0.561773     0.362074
    0.250644     0.612814     0.319468
    0.105369     0.797609     0.410597
    0.723753     0.691263     0.716112
    0.218188     0.538996     0.700591
    0.661138     0.210867     0.685424
    0.427042     0.715756     0.780881
    0.449223     0.341131     0.821378
    0.405642     0.149298     0.505371
    0.345664     0.790414     0.650524
    0.576313     0.433560     0.853165
    0.283589     0.234922     0.567895
    0.193598     0.556459     0.375562
    0.214635     0.552401     0.132429
    0.361866     0.415755     0.129731
    0.156616     0.797621     0.308913
    0.532436     0.467384     0.206490
    0.444697     0.395209     0.223269
    0.595918     0.398973     0.428321
    0.060379     0.793922     0.349713
    0.241407     0.655045     0.415473
    0.150051     0.617945     0.274696
    0.214356     0.649470     0.216226
    0.225006     0.801188     0.451879
    0.511228     0.665536     0.752649
    0.386987     0.385073     0.745285
    0.492639     0.195543     0.527861
    0.678344     0.749647     0.610982
    0.303076     0.623511     0.719665
    0.580964     0.280205     0.746193
    0.418808     0.670133     0.589409
    0.536174     0.465053     0.705131
    0.381454     0.343348     0.544620
    0.842747     0.318487     0.548895
    0.874812     0.529828     0.541767
    0.821969     0.438284     0.722655
EA70    9.609  8.828  9.784 90.00 90.00 90.00 Sym.group:    0
1.0000
    9.608634     0.000000     0.000000
    0.000000     8.828497     0.000000
    0.000000     0.000000     9.784135
   O  Cu
  18   24 
Direct
    0.417583     0.737820     0.240864
    0.659538     0.254318     0.285772
    0.177606     0.330884     0.495991
    0.528281     0.197846     0.248270
    0.144850     0.394814     0.369532
    0.446271     0.632720     0.141443
    0.373714     0.635633     0.440681
    0.592779     0.670545     0.472234
    0.634733     0.474063     0.367424
    0.854847     0.622908     0.563602
    0.436421     0.848925     0.712058
    0.792819     0.241395     0.573525
    0.130751     0.452265     0.556981
    0.493952     0.514520     0.870928
    0.778417     0.316569     0.694108
    0.359991     0.542586     0.842564
    0.570382     0.820859     0.740422
    0.582417     0.262180     0.759136
    0.491743     0.148124     0.416961
    0.157088     0.566767     0.439393
    0.620546     0.618703     0.194786
    0.411926     0.301468     0.278575
    0.274366     0.445931     0.297133
    0.442437     0.484709     0.201685
    0.248897     0.635322     0.367344
    0.641213     0.485626     0.225749
    0.374905     0.209498     0.449557
    0.580838     0.738807     0.273209
    0.833026     0.513451     0.438764
    0.633021     0.188658     0.433616
    0.595542     0.602380     0.729943
    0.259868     0.614932     0.559878
    0.355601     0.652652     0.679142
    0.714339     0.519713     0.656101
    0.464095     0.356091     0.561308
    0.469780     0.767945     0.565044
    0.698498     0.661204     0.512687
    0.495154     0.415096     0.728562
    0.627683     0.270456     0.556374
    0.387379     0.437677     0.705744
    0.616098     0.330935     0.653386
    0.577555     0.745364     0.587863
EA71   10.581 11.688 11.744 90.00 90.00 90.00 Sym.group:    0
1.0000
   10.580884     0.000000     0.000000
    0.000000    11.687509     0.000000
    0.000000     0.000000    11.743854
   O  Cu
  18   24 
Direct
    0.484909     0.654387     0.150601
    0.152858     0.635081     0.391586
    0.718261     0.348660     0.222277
    0.819008     0.682576     0.387801
    0.306558     0.319308     0.224616
    0.469569     0.859593     0.492441
    0.623379     0.246521     0.365969
    0.650776     0.667171     0.270996
    0.231810     0.477372     0.309594
    0.552749     0.437782     0.728408
    0.421019     0.257612     0.522386
    0.249266     0.505090     0.611332
    0.530108     0.354122     0.796921
    0.333393     0.196031     0.571511
    0.198229     0.475894     0.704592
    0.383422     0.373930     0.652423
    0.301231     0.285048     0.759885
    0.223930     0.201453     0.860954
    0.830486     0.523562     0.498122
    0.477416     0.754992     0.322907
    0.512314     0.335275     0.225596
    0.419128     0.231957     0.367130
    0.320290     0.643609     0.272874
    0.766547     0.515497     0.306555
    0.780504     0.357903     0.416002
    0.396544     0.486948     0.190037
    0.643168     0.768977     0.440586
    0.245767     0.319778     0.419041
    0.600795     0.501512     0.188876
    0.312682     0.745415     0.442464
    0.382555     0.308896     0.905569
    0.311439     0.117468     0.724550
    0.115765     0.327196     0.772353
    0.500694     0.387488     0.614054
    0.376170     0.388209     0.546079
    0.400813     0.483879     0.630551
    0.622678     0.281508     0.875334
    0.235986     0.099751     0.527863
    0.111339     0.545593     0.789759
    0.506424     0.228008     0.863737
    0.199443     0.138443     0.628457
    0.160327     0.448139     0.836493
EA72    9.736  9.721  9.240 90.00 90.00 90.00 Sym.group:    0
1.0000
    9.735613     0.000000     0.000000
    0.000000     9.721454     0.000000
    0.000000     0.000000     9.239571
   O  Cu
  18   24 
Direct
    0.261460     0.177091     0.684014
    0.471443     0.635755     0.172424
    0.133981     0.355504     0.539829
    0.192914     0.396564     0.809061
    0.392262     0.809673     0.743060
    0.422467     0.384293     0.149032
    0.139453     0.444361     0.704279
    0.445723     0.761876     0.847841
    0.372768     0.493167     0.157286
    0.693120     0.361615     0.776503
    0.780107     0.325353     0.346415
    0.568717     0.831557     0.623441
    0.829232     0.554177     0.648820
    0.648637     0.733107     0.735159
    0.512525     0.540545     0.862842
    0.735625     0.696845     0.305069
    0.641154     0.226611     0.690768
    0.652932     0.482014     0.168638
    0.485465     0.863407     0.593746
    0.183680     0.246631     0.531575
    0.265221     0.238167     0.797052
    0.254705     0.334484     0.725244
    0.484321     0.774462     0.676918
    0.251451     0.281649     0.627460
    0.208455     0.375834     0.634602
    0.469020     0.526052     0.217171
    0.268054     0.365689     0.334772
    0.481165     0.175154     0.752452
    0.283049     0.609151     0.785358
    0.694571     0.204343     0.426654
    0.862801     0.540182     0.482847
    0.622135     0.809288     0.359326
    0.543711     0.134953     0.540628
    0.706229     0.557160     0.808758
    0.811213     0.513395     0.289692
    0.513822     0.384563     0.512848
    0.565215     0.518075     0.597637
    0.598414     0.504236     0.433495
    0.526825     0.275977     0.524932
    0.626558     0.535078     0.689478
    0.690985     0.508221     0.370939
    0.699518     0.136593     0.692026
EA73    9.471  8.867  8.741 90.00 90.00 90.00 Sym.group:    0
1.0000
    9.471291     0.000000     0.000000
    0.000000     8.866802     0.000000
    0.000000     0.000000     8.741171
   O  Cu
  18   24 
Direct
    0.601941     0.308781     0.162959
    0.375303     0.706847     0.183542
    0.146102     0.450608     0.399287
    0.735031     0.555875     0.190088
    0.861735     0.457559     0.437371
    0.728646     0.210464     0.410242
    0.635095     0.855626     0.457955
    0.430844     0.307118     0.153853
    0.362829     0.852982     0.443463
    0.682034     0.736212     0.736997
    0.348906     0.178895     0.653600
    0.366435     0.538967     0.851777
    0.346330     0.846396     0.583661
    0.140445     0.501954     0.532119
    0.683627     0.323675     0.780222
    0.501278     0.168846     0.534698
    0.255358     0.520301     0.690455
    0.681408     0.529711     0.756598
    0.291667     0.551568     0.166494
    0.647569     0.709491     0.198030
    0.285281     0.206159     0.386648
    0.244714     0.353803     0.230348
    0.779801     0.358999     0.258825
    0.506275     0.839418     0.283664
    0.419272     0.453769     0.414730
    0.588480     0.455412     0.423734
    0.501985     0.607333     0.431589
    0.343335     0.410282     0.334520
    0.671708     0.413471     0.351996
    0.503852     0.708294     0.367239
    0.769479     0.411552     0.623088
    0.358777     0.360028     0.750725
    0.514071     0.789039     0.659082
    0.665270     0.776492     0.541373
    0.524837     0.431854     0.813543
    0.245382     0.672820     0.557439
    0.667337     0.240671     0.597515
    0.524047     0.636521     0.792098
    0.246660     0.341666     0.592137
    0.768689     0.616219     0.601643
    0.357499     0.691183     0.716027
    0.516139     0.253218     0.715224
EA74   12.615 11.439 11.311 90.00 90.00 90.00 Sym.group:    0
1.0000
   12.615282     0.000000     0.000000
    0.000000    11.439449     0.000000
    0.000000     0.000000    11.311474
   O  Cu
  18   24 
Direct
    0.372190     0.680555     0.389324
    0.435171     0.652504     0.697887
    0.289607     0.432905     0.553729
    0.311203     0.764648     0.420906
    0.352882     0.680659     0.755988
    0.198160     0.475552     0.546131
    0.330359     0.611947     0.559324
    0.210758     0.690873     0.601148
    0.098272     0.765103     0.640485
    0.656386     0.170478     0.391663
    0.610612     0.369765     0.836866
    0.841251     0.393341     0.602882
    0.823073     0.635006     0.371625
    0.574253     0.853098     0.374353
    0.500882     0.800053     0.335745
    0.586827     0.305683     0.764467
    0.798994     0.352915     0.523032
    0.756023     0.600099     0.308670
    0.156815     0.781480     0.462389
    0.235259     0.802063     0.735640
    0.103508     0.579279     0.653217
    0.419963     0.638192     0.515066
    0.398773     0.546782     0.612994
    0.357744     0.528519     0.485074
    0.305996     0.899142     0.383616
    0.327036     0.685093     0.896155
    0.095735     0.424707     0.489929
    0.249559     0.878714     0.484187
    0.240433     0.688024     0.829078
    0.087711     0.541892     0.509261
    0.711285     0.247178     0.422819
    0.668314     0.494362     0.208457
    0.614407     0.325249     0.481101
    0.619324     0.464525     0.333820
    0.671582     0.394176     0.546427
    0.676499     0.533452     0.399146
    0.533504     0.673740     0.385382
    0.523671     0.395187     0.679944
    0.825990     0.159986     0.552085
    0.857955     0.478026     0.196902
    0.531965     0.818042     0.144815
    0.413173     0.694317     0.235533
EA75    9.958 10.920 13.382 90.00 90.00 90.00 Sym.group:    0
1.0000
    9.957565     0.000000     0.000000
    0.000000    10.920140     0.000000
    0.000000     0.000000    13.382337
   O  Cu
  18   24 
Direct
    0.425452     0.259078     0.389856
    0.269792     0.589758     0.357973
    0.691678     0.526982     0.330341
    0.352088     0.226549     0.313532
    0.263365     0.606745     0.269127
    0.705612     0.470203     0.249840
    0.452404     0.447730     0.322447
    0.418848     0.410879     0.197267
    0.387287     0.376220     0.079535
    0.671639     0.707527     0.796003
    0.404874     0.369424     0.871108
    0.848136     0.484952     0.681932
    0.804967     0.739505     0.514745
    0.211543     0.279438     0.646071
    0.200965     0.565497     0.753883
    0.321371     0.540770     0.860692
    0.755142     0.536181     0.806419
    0.574548     0.740922     0.610144
    0.414365     0.212741     0.174056
    0.208363     0.487676     0.154123
    0.595463     0.490103     0.120556
    0.383684     0.416898     0.401344
    0.458082     0.554363     0.376147
    0.567465     0.429055     0.383901
    0.215726     0.116661     0.290761
    0.208426     0.731936     0.207198
    0.859463     0.413772     0.194837
    0.228942     0.208229     0.221058
    0.294032     0.640640     0.156302
    0.718259     0.366952     0.157328
    0.354701     0.250038     0.773061
    0.141311     0.423551     0.637309
    0.875199     0.595390     0.523506
    0.472384     0.683277     0.851866
    0.610511     0.399845     0.869097
    0.802750     0.293945     0.611752
    0.519439     0.875294     0.576410
    0.223479     0.734394     0.631069
    0.506790     0.153045     0.666411
    0.536668     0.536940     0.820147
    0.401107     0.214378     0.555242
    0.211355     0.603747     0.531571
EA76    9.998 10.602 10.902 90.00 90.00 90.00 Sym.group:    0
1.0000
    9.997654     0.000000     0.000000
    0.000000    10.602244     0.000000
    0.000000     0.000000    10.901861
   O  Cu
  18   24 
Direct
    0.216701     0.532162     0.518316
    0.487981     0.579284     0.379003
    0.434191     0.587102     0.279218
    0.330169     0.538957     0.411719
    0.188137     0.737031     0.171693
    0.321017     0.546532     0.617314
    0.166439     0.859636     0.305734
    0.295062     0.806242     0.253403
    0.329075     0.818458     0.109747
    0.588068     0.435557     0.355807
    0.639526     0.620292     0.485747
    0.655398     0.487131     0.341984
    0.638471     0.681277     0.545710
    0.542428     0.780128     0.258901
    0.691360     0.543438     0.835644
    0.457572     0.343463     0.863433
    0.657712     0.397812     0.522513
    0.543270     0.288736     0.607884
    0.128235     0.694540     0.333338
    0.457499     0.666357     0.377450
    0.300305     0.572671     0.293504
    0.487700     0.431890     0.438888
    0.373619     0.425056     0.627507
    0.230668     0.684819     0.124983
    0.200053     0.693606     0.493727
    0.133861     0.575721     0.363439
    0.430262     0.542393     0.690529
    0.278959     0.595488     0.562138
    0.276732     0.884179     0.134668
    0.219169     0.516914     0.298380
    0.734493     0.207884     0.470406
    0.862506     0.459646     0.592740
    0.775325     0.216230     0.660913
    0.817645     0.331220     0.732063
    0.726118     0.352277     0.838999
    0.627229     0.250301     0.833940
    0.657641     0.166220     0.723877
    0.563465     0.355894     0.428693
    0.667048     0.513226     0.482833
    0.579605     0.590732     0.640484
    0.581395     0.598987     0.393498
    0.654679     0.329445     0.689004
EA77    9.260  9.124 10.012 90.00 90.00 90.00 Sym.group:    0
1.0000
    9.259897     0.000000     0.000000
    0.000000     9.123754     0.000000
    0.000000     0.000000    10.012235
   O  Cu
  18   24 
Direct
    0.539651     0.857246     0.436093
    0.650772     0.197792     0.245274
    0.519713     0.389376     0.133592
    0.394051     0.200125     0.254560
    0.745037     0.745735     0.330234
    0.810594     0.752545     0.488812
    0.379830     0.302494     0.192555
    0.527826     0.152051     0.671303
    0.149382     0.464247     0.656133
    0.572432     0.612485     0.824745
    0.478758     0.835177     0.643107
    0.812972     0.664608     0.594421
    0.790451     0.282023     0.565314
    0.241215     0.222586     0.520492
    0.339903     0.746497     0.709069
    0.751000     0.349050     0.707762
    0.427568     0.387515     0.175255
    0.850618     0.535753     0.343867
    0.630084     0.346724     0.155068
    0.554622     0.138072     0.285802
    0.634666     0.788387     0.308759
    0.499675     0.242531     0.281798
    0.582851     0.294191     0.246738
    0.708288     0.729591     0.437879
    0.487372     0.331089     0.228161
    0.612809     0.766489     0.419302
    0.636659     0.572171     0.219375
    0.693344     0.164102     0.466536
    0.253386     0.334118     0.380932
    0.507129     0.806306     0.548289
    0.731120     0.609053     0.647889
    0.232119     0.649709     0.514735
    0.516137     0.698822     0.749638
    0.637614     0.219112     0.638762
    0.174926     0.396469     0.557894
    0.352983     0.339032     0.503316
    0.407221     0.647928     0.613349
    0.651209     0.417071     0.614108
    0.488274     0.346866     0.869785
    0.311176     0.261986     0.792239
    0.310188     0.468262     0.854864
    0.221745     0.523597     0.584144
EA78    9.201  9.006  8.312 90.00 90.00 90.00 Sym.group:    0
1.0000
    9.201335     0.000000     0.000000
    0.000000     9.006050     0.000000
    0.000000     0.000000     8.312296
   O  Cu
  18   24 
Direct
    0.446532     0.503493     0.145267
    0.327681     0.803364     0.626723
    0.291272     0.442120     0.210935
    0.161311     0.510304     0.633181
    0.494426     0.820402     0.688580
    0.336729     0.242800     0.715209
    0.377085     0.711169     0.772705
    0.494719     0.165450     0.676899
    0.326896     0.624645     0.208966
    0.359375     0.152705     0.561748
    0.809490     0.360322     0.699982
    0.694033     0.780827     0.751534
    0.859980     0.388857     0.516392
    0.744523     0.809362     0.567944
    0.517582     0.168994     0.317444
    0.569400     0.247033     0.705291
    0.696847     0.521403     0.825521
    0.592468     0.813573     0.369015
    0.146570     0.580715     0.469780
    0.149080     0.396161     0.493673
    0.436108     0.487812     0.609537
    0.422926     0.593299     0.464397
    0.422051     0.407891     0.450376
    0.297930     0.468922     0.844053
    0.256073     0.803888     0.383179
    0.253297     0.215144     0.338656
    0.368241     0.478534     0.724720
    0.340975     0.696732     0.424507
    0.339166     0.313222     0.395505
    0.684198     0.311914     0.287867
    0.811645     0.586283     0.408097
    0.573350     0.466714     0.761542
    0.589597     0.420611     0.271664
    0.689041     0.532100     0.340870
    0.611913     0.671739     0.341425
    0.583408     0.448963     0.518700
    0.588267     0.573093     0.550547
    0.820811     0.331940     0.592012
    0.754820     0.765603     0.667843
    0.550276     0.546254     0.331180
    0.674536     0.818503     0.424298
    0.701322     0.524068     0.159412
EA79    9.968  9.823  9.571 90.00 90.00 90.00 Sym.group:    0
1.0000
    9.967542     0.000000     0.000000
    0.000000     9.823397     0.000000
    0.000000     0.000000     9.570900
   O  Cu
  18   24 
Direct
    0.491730     0.258957     0.203044
    0.844779     0.558572     0.477321
    0.475213     0.760060     0.222766
    0.860180     0.437844     0.383514
    0.335196     0.772577     0.248377
    0.535654     0.148046     0.299071
    0.575517     0.664785     0.422762
    0.545521     0.469753     0.300489
    0.345783     0.457118     0.392302
    0.298158     0.722141     0.764275
    0.810872     0.325114     0.626516
    0.363380     0.138681     0.500152
    0.786939     0.610370     0.729302
    0.397579     0.456200     0.875272
    0.146580     0.465658     0.695587
    0.155843     0.624621     0.678021
    0.831148     0.673076     0.588062
    0.139820     0.562156     0.616486
    0.755077     0.511867     0.245035
    0.308058     0.593647     0.198839
    0.392700     0.165682     0.413937
    0.741657     0.338039     0.397082
    0.296316     0.714079     0.400614
    0.601561     0.206179     0.439349
    0.658549     0.420845     0.222469
    0.248494     0.533946     0.312861
    0.563912     0.810866     0.450229
    0.353715     0.257848     0.295347
    0.766922     0.632191     0.340480
    0.445095     0.605047     0.156429
    0.277882     0.374178     0.802727
    0.775926     0.421370     0.750188
    0.664180     0.180232     0.588790
    0.381861     0.850907     0.623617
    0.701545     0.821479     0.517926
    0.344496     0.209661     0.694480
    0.591938     0.379216     0.844450
    0.127302     0.360983     0.517253
    0.610155     0.691851     0.809900
    0.289508     0.740048     0.546426
    0.587883     0.532166     0.789894
    0.264483     0.310561     0.593887
EA80    8.462 12.213  9.534 90.00 90.00 90.00 Sym.group:    0
1.0000
    8.462340     0.000000     0.000000
    0.000000    12.213363     0.000000
    0.000000     0.000000     9.534050
   O  Cu
  18   24 
Direct
    0.140797     0.158574     0.412310
    0.249282     0.193321     0.204036
    0.500689     0.205021     0.120937
    0.262747     0.885369     0.368594
    0.747749     0.186820     0.211689
    0.514154     0.897068     0.285496
    0.761214     0.878867     0.376247
    0.845738     0.149379     0.423132
    0.495352     0.261127     0.443199
    0.800562     0.825628     0.601835
    0.297999     0.811748     0.732461
    0.312121     0.858272     0.546963
    0.612010     0.834828     0.692741
    0.508263     0.831963     0.719707
    0.485348     0.588387     0.643344
    0.618274     0.592058     0.608794
    0.338549     0.871509     0.451897
    0.377978     0.166894     0.233023
    0.146956     0.333571     0.453971
    0.254592     0.368047     0.247326
    0.504036     0.379656     0.164875
    0.261246     0.710028     0.328644
    0.749167     0.361596     0.254919
    0.510690     0.721636     0.246193
    0.755821     0.703577     0.336237
    0.846390     0.324448     0.464711
    0.241033     0.503378     0.496024
    0.320738     0.528907     0.343002
    0.505453     0.537504     0.281946
    0.686974     0.524130     0.348625
    0.183789     0.849632     0.547102
    0.678280     0.810701     0.789413
    0.508904     0.806023     0.833437
    0.540656     0.186510     0.501810
    0.735089     0.537602     0.674053
    0.179671     0.562601     0.533955
    0.429058     0.529149     0.753596
    0.365033     0.281789     0.502655
    0.611217     0.135609     0.438443
    0.663173     0.883290     0.278518
    0.153610     0.675552     0.535289
    0.745408     0.631953     0.752674
EA81   15.901 16.491 17.049 90.00 90.00 90.00 Sym.group:    0
1.0000
   15.900595     0.000000     0.000000
    0.000000    16.490901     0.000000
    0.000000     0.000000    17.048987
   O  Cu
  18   24 
Direct
    0.684917     0.441646     0.463359
    0.684917     0.496371     0.567202
    0.684917     0.561983     0.469439
    0.315083     0.496371     0.432798
    0.315083     0.561983     0.530561
    0.315083     0.441646     0.536641
    0.500000     0.394119     0.500000
    0.500000     0.552940     0.588694
    0.500000     0.552940     0.411306
    0.601239     0.591813     0.534183
    0.601239     0.484698     0.405999
    0.601239     0.423489     0.559818
    0.398761     0.484698     0.594001
    0.398761     0.423489     0.440182
    0.398761     0.591813     0.465817
    0.458612     0.523262     0.293859
    0.458612     0.303804     0.583584
    0.458612     0.672934     0.622557
    0.541388     0.303804     0.416416
    0.541388     0.672934     0.377443
    0.541388     0.523262     0.706141
    0.668236     0.625577     0.438659
    0.668236     0.382291     0.425477
    0.668236     0.492132     0.635864
    0.331764     0.382291     0.574523
    0.331764     0.492132     0.364136
    0.331764     0.625577     0.561341
    0.584057     0.417228     0.431049
    0.584057     0.479652     0.603812
    0.584057     0.603120     0.465140
    0.415943     0.479652     0.396188
    0.415943     0.603120     0.534860
    0.415943     0.417228     0.568951
    0.441097     0.356466     0.421927
    0.441097     0.501865     0.659272
    0.441097     0.641669     0.418802
    0.558903     0.501865     0.340728
    0.558903     0.641669     0.581198
    0.558903     0.356466     0.578073
    0.500000     0.668655     0.500000
    0.500000     0.415672     0.358721
    0.500000     0.415672     0.641279
EA82   16.934 16.934 16.972 90.00 90.00 90.00 Sym.group:    0
1.0000
   16.934390     0.000000     0.000000
    0.000000    16.934390     0.000000
    0.000000     0.000000    16.972055
   O  Cu
  18   24 
Direct
    0.330976     0.630563     0.500000
    0.481114     0.319304     0.387965
    0.611676     0.488328     0.681277
    0.669024     0.369437     0.500000
    0.518886     0.680696     0.387965
    0.388324     0.511672     0.681277
    0.307632     0.407210     0.500000
    0.518886     0.680696     0.612035
    0.611676     0.488328     0.318723
    0.692368     0.592790     0.500000
    0.481114     0.319304     0.612035
    0.388324     0.511672     0.318723
    0.500000     0.500000     0.704809
    0.500000     0.500000     0.295191
    0.295848     0.521338     0.500000
    0.704152     0.478662     0.500000
    0.478662     0.295848     0.500000
    0.521338     0.704152     0.500000
    0.380661     0.345506     0.563289
    0.619339     0.654494     0.436711
    0.341431     0.580349     0.397596
    0.658569     0.419651     0.602404
    0.552418     0.391330     0.334306
    0.447582     0.608670     0.665694
    0.426245     0.404518     0.334306
    0.573755     0.595482     0.665694
    0.415187     0.675832     0.436711
    0.584813     0.324168     0.563289
    0.671756     0.545824     0.397596
    0.328244     0.454176     0.602404
    0.573755     0.595482     0.334306
    0.426245     0.404518     0.665694
    0.415187     0.675832     0.563289
    0.584813     0.324168     0.436711
    0.671756     0.545824     0.602404
    0.328244     0.454176     0.397596
    0.619339     0.654494     0.563289
    0.380661     0.345506     0.436711
    0.341431     0.580349     0.602404
    0.658569     0.419651     0.397596
    0.552418     0.391330     0.665694
    0.447582     0.608670     0.334306
EA83   17.764 14.746 13.994 90.00 90.00 90.00 Sym.group:    0
1.0000
   17.764085     0.000000     0.000000
    0.000000    14.746386     0.000000
    0.000000     0.000000    13.994316
   O  Cu
  18   24 
Direct
    0.543182     0.519435     0.528685
    0.456818     0.480565     0.528685
    0.543182     0.519435     0.471315
    0.456818     0.480565     0.471315
    0.304781     0.490357     0.500000
    0.695219     0.509643     0.500000
    0.614877     0.660256     0.617538
    0.385123     0.339744     0.617538
    0.614877     0.660256     0.382462
    0.385123     0.339744     0.382462
    0.316492     0.484949     0.404555
    0.683508     0.515051     0.404555
    0.316492     0.484949     0.595445
    0.683508     0.515051     0.595445
    0.711820     0.466235     0.590287
    0.288180     0.533765     0.590287
    0.711820     0.466235     0.409713
    0.288180     0.533765     0.409713
    0.631415     0.554575     0.536299
    0.368585     0.445425     0.536299
    0.631415     0.554575     0.463701
    0.368585     0.445425     0.463701
    0.304088     0.644289     0.431608
    0.695912     0.355711     0.431608
    0.304088     0.644289     0.568392
    0.695912     0.355711     0.568392
    0.446204     0.586218     0.641997
    0.553796     0.413782     0.641997
    0.446204     0.586218     0.358003
    0.553796     0.413782     0.358003
    0.282030     0.420433     0.435677
    0.717970     0.579567     0.435677
    0.282030     0.420433     0.564323
    0.717970     0.579567     0.564323
    0.533351     0.345418     0.406165
    0.466649     0.654582     0.406165
    0.533351     0.345418     0.593835
    0.466649     0.654582     0.593835
    0.600531     0.477586     0.578471
    0.399469     0.522414     0.578471
    0.600531     0.477586     0.421529
    0.399469     0.522414     0.421529
EA84   16.574 16.855 16.561 90.00 90.00 90.00 Sym.group:    0
1.0000
   16.574311     0.000000     0.000000
    0.000000    16.855140     0.000000
    0.000000     0.000000    16.561342
   O  Cu
  18   24 
Direct
    0.523823     0.432062     0.412037
    0.441654     0.456726     0.412037
    0.440117     0.541194     0.412037
    0.521336     0.568733     0.412037
    0.573070     0.501286     0.412037
    0.543639     0.640578     0.465019
    0.649448     0.502630     0.465019
    0.548725     0.361047     0.465019
    0.380666     0.411493     0.465019
    0.377522     0.584252     0.465019
    0.643581     0.606490     0.580808
    0.647363     0.398629     0.580808
    0.447494     0.330859     0.580808
    0.320186     0.496836     0.580808
    0.441375     0.667186     0.580808
    0.616765     0.667129     0.489362
    0.697725     0.442445     0.489362
    0.505435     0.297300     0.489362
    0.305634     0.432279     0.489362
    0.374440     0.660846     0.489362
    0.498057     0.702761     0.489362
    0.303295     0.560840     0.489362
    0.380372     0.334840     0.489362
    0.622771     0.337085     0.489362
    0.695505     0.564473     0.489362
    0.413653     0.366081     0.416292
    0.343795     0.539369     0.416292
    0.489807     0.658250     0.416292
    0.649905     0.558435     0.416292
    0.602840     0.377864     0.416292
    0.495571     0.341492     0.416292
    0.651935     0.446876     0.416292
    0.598330     0.625675     0.416292
    0.408836     0.630795     0.416292
    0.345327     0.455161     0.416292
    0.548470     0.535949     0.697488
    0.549747     0.465779     0.697488
    0.482275     0.442901     0.697488
    0.439299     0.498932     0.697488
    0.480209     0.556439     0.697488
    0.500000     0.500000     0.616784
    0.500000     0.500000     0.549907
EA85   15.396 16.506 16.506 90.00 90.00 90.00 Sym.group:    0
1.0000
   15.396447     0.000000     0.000000
    0.000000    16.505606     0.000000
    0.000000     0.000000    16.506129
   O  Cu
  18   24 
Direct
    0.642069     0.414638     0.469063
    0.642069     0.444198     0.571621
    0.642069     0.550874     0.575202
    0.642069     0.587244     0.474856
    0.642069     0.503046     0.409258
    0.540506     0.364827     0.355348
    0.540506     0.320652     0.583854
    0.540506     0.524331     0.696476
    0.540506     0.694385     0.537576
    0.540506     0.595806     0.326747
    0.540506     0.303533     0.524457
    0.540506     0.416027     0.320713
    0.540506     0.644569     0.364737
    0.540506     0.673321     0.595690
    0.540506     0.462550     0.694403
    0.674600     0.500000     0.500000
    0.340144     0.436128     0.476851
    0.340144     0.458246     0.553591
    0.340144     0.538067     0.556270
    0.340144     0.565281     0.481186
    0.340144     0.502279     0.432102
    0.343086     0.583216     0.623009
    0.343086     0.642707     0.458871
    0.343086     0.504982     0.351572
    0.343086     0.360372     0.449395
    0.343086     0.408723     0.617152
    0.478285     0.410868     0.426562
    0.478285     0.402611     0.562074
    0.478285     0.528942     0.611801
    0.478285     0.615276     0.507023
    0.478285     0.542302     0.392540
    0.478285     0.384512     0.499278
    0.478285     0.464999     0.389945
    0.478285     0.593856     0.432704
    0.478285     0.593007     0.568464
    0.478285     0.463626     0.609609
    0.609892     0.410756     0.525720
    0.609892     0.496884     0.592821
    0.609892     0.587318     0.531646
    0.609892     0.557081     0.426737
    0.609892     0.447960     0.423075
    0.461533     0.500000     0.500000
EA86   20.106 13.077 12.196 90.00 90.00 90.00 Sym.group:    0
1.0000
   20.105965     0.000000     0.000000
    0.000000    13.076793     0.000000
    0.000000     0.000000    12.195585
   O  Cu
  18   24 
Direct
    0.591511     0.383121     0.548961
    0.408489     0.616879     0.548961
    0.408489     0.383121     0.451039
    0.591511     0.616879     0.451039
    0.591511     0.383121     0.451039
    0.408489     0.616879     0.451039
    0.408489     0.383121     0.548961
    0.591511     0.616879     0.548961
    0.702090     0.456360     0.425494
    0.297910     0.543640     0.425494
    0.297910     0.456360     0.574506
    0.702090     0.543640     0.574506
    0.702090     0.456360     0.574506
    0.297910     0.543640     0.574506
    0.297910     0.456360     0.425494
    0.702090     0.543640     0.425494
    0.577206     0.437545     0.410804
    0.422794     0.562455     0.410804
    0.422794     0.437545     0.589196
    0.577206     0.562455     0.589196
    0.577206     0.437545     0.589196
    0.422794     0.562455     0.589196
    0.422794     0.437545     0.410804
    0.577206     0.562455     0.410804
    0.367570     0.570371     0.500000
    0.632430     0.429629     0.500000
    0.632430     0.570371     0.500000
    0.367570     0.429629     0.500000
    0.531420     0.430702     0.544199
    0.468580     0.569298     0.544199
    0.468580     0.430702     0.455801
    0.531420     0.569298     0.455801
    0.531420     0.430702     0.455801
    0.468580     0.569298     0.455801
    0.468580     0.430702     0.544199
    0.531420     0.569298     0.544199
    0.577879     0.549164     0.500000
    0.422121     0.450836     0.500000
    0.422121     0.549164     0.500000
    0.577879     0.450836     0.500000
    0.750820     0.500000     0.500000
    0.249180     0.500000     0.500000
EA87   18.103 15.693 15.693 90.00 90.00 90.00 Sym.group:    0
1.0000
   18.103427     0.000000     0.000000
    0.000000    15.693265     0.000000
    0.000000     0.000000    15.693265
   O  Cu
  18   24 
Direct
    0.495137     0.483216     0.319245
    0.495137     0.319245     0.516784
    0.495137     0.516784     0.680755
    0.495137     0.680755     0.483216
    0.495137     0.386926     0.642015
    0.495137     0.357985     0.386926
    0.495137     0.613074     0.357985
    0.495137     0.642015     0.613074
    0.276743     0.500000     0.500000
    0.348657     0.434865     0.535202
    0.348657     0.535202     0.565135
    0.348657     0.565135     0.464798
    0.348657     0.464798     0.434865
    0.683678     0.468380     0.605994
    0.683678     0.605994     0.531620
    0.683678     0.531620     0.394006
    0.683678     0.394006     0.468380
    0.617714     0.455830     0.523872
    0.617714     0.523872     0.544170
    0.617714     0.544170     0.476128
    0.617714     0.476128     0.455830
    0.419997     0.565496     0.412161
    0.419997     0.412161     0.434504
    0.419997     0.434504     0.587839
    0.419997     0.587839     0.565496
    0.419997     0.506665     0.609366
    0.419997     0.390634     0.506665
    0.419997     0.493335     0.390634
    0.419997     0.609366     0.493335
    0.492926     0.453070     0.657313
    0.492926     0.657313     0.546930
    0.492926     0.546930     0.342687
    0.492926     0.342687     0.453070
    0.532620     0.512604     0.610260
    0.532620     0.610260     0.487396
    0.532620     0.487396     0.389740
    0.532620     0.389740     0.512604
    0.532620     0.570954     0.414667
    0.532620     0.585333     0.570954
    0.532620     0.429046     0.585333
    0.532620     0.414667     0.429046
    0.569331     0.500000     0.500000
EA88   17.537 17.537 17.537 90.00 90.00 90.00 Sym.group:    0
1.0000
   17.537413     0.000000     0.000000
    0.000000    17.537413     0.000000
    0.000000     0.000000    17.537413
   O  Cu
  18   24 
Direct
    0.347836     0.516907     0.537791
    0.483093     0.347836     0.537791
    0.652164     0.483093     0.537791
    0.516907     0.652164     0.537791
    0.439073     0.402862     0.608258
    0.483093     0.347836     0.462209
    0.391856     0.461882     0.391742
    0.402862     0.560927     0.391742
    0.516907     0.652164     0.462209
    0.461882     0.608144     0.608258
    0.347836     0.516907     0.462209
    0.652164     0.483093     0.462209
    0.608144     0.538118     0.391742
    0.560927     0.597138     0.608258
    0.597138     0.439073     0.391742
    0.538118     0.391856     0.608258
    0.461882     0.608144     0.391742
    0.439073     0.402862     0.391742
    0.402862     0.560927     0.608258
    0.391856     0.461882     0.608258
    0.538118     0.391856     0.391742
    0.608144     0.538118     0.608258
    0.597138     0.439073     0.608258
    0.560927     0.597138     0.391742
    0.500000     0.500000     0.424316
    0.500000     0.500000     0.575684
    0.452721     0.559099     0.500000
    0.547279     0.440901     0.500000
    0.440901     0.452721     0.500000
    0.559099     0.547279     0.500000
    0.500000     0.500000     0.292062
    0.500000     0.500000     0.707938
    0.370102     0.662372     0.500000
    0.629898     0.337628     0.500000
    0.337628     0.370102     0.500000
    0.662372     0.629898     0.500000
    0.500000     0.500000     0.365976
    0.500000     0.500000     0.634024
    0.416276     0.604655     0.500000
    0.583724     0.395345     0.500000
    0.395345     0.416276     0.500000
    0.604655     0.583724     0.500000
EA89   17.797  7.800  8.348 90.00 90.00 90.00 Sym.group:    0
1.0000
   17.796981     0.000000     0.000000
    0.000000     7.800114     0.000000
    0.000000     0.000000     8.347785
   O  Cu
  18   24 
Direct
    0.233920     0.618449     0.283612
    0.295397     0.618140     0.283751
    0.233920     0.381551     0.716388
    0.295397     0.277524     0.373916
    0.233920     0.277672     0.374204
    0.233920     0.722328     0.625796
    0.295397     0.381860     0.716249
    0.295397     0.722476     0.626084
    0.074170     0.481128     0.237756
    0.454321     0.475898     0.237604
    0.074170     0.518872     0.762244
    0.454321     0.219850     0.511970
    0.074170     0.219688     0.516859
    0.074170     0.780312     0.483141
    0.454321     0.524102     0.762396
    0.454321     0.780150     0.488030
    0.801047     0.500000     0.500000
    0.726768     0.500000     0.500000
    0.625815     0.500000     0.500000
    0.902000     0.500000     0.500000
    0.090075     0.500000     0.500000
    0.439066     0.500000     0.500000
    0.601978     0.728703     0.482259
    0.925830     0.728723     0.482040
    0.601978     0.271297     0.517741
    0.925830     0.480777     0.286284
    0.601979     0.480543     0.286264
    0.601979     0.519457     0.713736
    0.925830     0.271277     0.517960
    0.925830     0.519223     0.713716
    0.264724     0.755025     0.158126
    0.264724     0.169228     0.270043
    0.264724     0.244975     0.841874
    0.264724     0.830772     0.729957
    0.174505     0.564711     0.246784
    0.354722     0.564037     0.247034
    0.174505     0.435289     0.753216
    0.354722     0.227027     0.434495
    0.174505     0.227294     0.435125
    0.174505     0.772706     0.564875
    0.354722     0.435963     0.752966
    0.354722     0.772973     0.565505
EA90    8.425  8.425  8.411 90.00 90.00 90.00 Sym.group:    0
1.0000
    8.424769     0.000000     0.000000
    0.000000     8.425389     0.000000
    0.000000     0.000000     8.410556
   O  Cu
  18   24 
Direct
    0.500024     0.158503     0.711996
    0.288362     0.496050     0.156946
    0.841558     0.711623     0.503932
    0.499976     0.841497     0.288004
    0.288362     0.503950     0.842981
    0.843319     0.288377     0.503932
    0.500024     0.156669     0.288004
    0.711638     0.503950     0.843054
    0.156681     0.711623     0.496068
    0.499976     0.843331     0.711996
    0.711638     0.496050     0.157019
    0.158442     0.288377     0.496068
    0.160225     0.500000     0.483184
    0.839775     0.500000     0.516816
    0.511884     0.839750     0.500000
    0.488116     0.160250     0.500000
    0.500000     0.504903     0.840349
    0.500000     0.495097     0.159651
    0.395473     0.674027     0.775372
    0.604527     0.325973     0.224628
    0.666308     0.774950     0.398758
    0.333692     0.225050     0.601242
    0.774822     0.398466     0.670749
    0.225178     0.601534     0.329251
    0.774948     0.608445     0.670749
    0.225052     0.391555     0.329251
    0.605468     0.665723     0.224628
    0.394532     0.334277     0.775372
    0.673467     0.225220     0.398758
    0.326533     0.774780     0.601242
    0.774822     0.391555     0.330400
    0.225178     0.608445     0.669600
    0.395473     0.665723     0.224672
    0.604527     0.334277     0.775328
    0.333692     0.225220     0.390892
    0.666308     0.774780     0.609108
    0.394532     0.325973     0.224672
    0.605468     0.674027     0.775328
    0.326533     0.774950     0.390892
    0.673467     0.225050     0.609108
    0.225052     0.398466     0.669600
    0.774948     0.601534     0.330400
EA91    9.282  9.423  8.261 90.00 90.00 90.00 Sym.group:    0
1.0000
    9.282003     0.000000     0.000000
    0.000000     9.422703     0.000000
    0.000000     0.000000     8.261033
   O  Cu
  18   24 
Direct
    0.819836     0.344272     0.316766
    0.237084     0.258570     0.316766
    0.453116     0.798563     0.316766
    0.817529     0.320721     0.710001
    0.217533     0.272314     0.710001
    0.474974     0.808369     0.710000
    0.282740     0.744833     0.284122
    0.857789     0.516482     0.284122
    0.369507     0.140087     0.284122
    0.303404     0.750827     0.706416
    0.852727     0.495857     0.706416
    0.353906     0.154719     0.706416
    0.250902     0.346106     0.305338
    0.523165     0.743005     0.305338
    0.735967     0.312289     0.305338
    0.242272     0.358067     0.709502
    0.537995     0.744386     0.709502
    0.729767     0.298947     0.709502
    0.237706     0.568702     0.402656
    0.725459     0.642964     0.402656
    0.546871     0.189736     0.402656
    0.239401     0.573557     0.598312
    0.728879     0.639091     0.598312
    0.541756     0.188755     0.598312
    0.712270     0.501824     0.840214
    0.429382     0.271558     0.840214
    0.368385     0.628021     0.840214
    0.710892     0.506278     0.159786
    0.433986     0.270506     0.159786
    0.365158     0.624618     0.159786
    0.565169     0.335559     0.686002
    0.356760     0.480180     0.686002
    0.588107     0.585662     0.686002
    0.567999     0.336713     0.314770
    0.356359     0.477190     0.314770
    0.585678     0.587500     0.314770
    0.494449     0.275450     0.499426
    0.339274     0.570565     0.499426
    0.676313     0.555388     0.499426
    0.142211     0.297740     0.506559
    0.534990     0.859913     0.506558
    0.832836     0.243749     0.506559
EA92   13.715  7.885  7.678 90.00 90.00 90.00 Sym.group:    0
1.0000
   13.714997     0.000000     0.000000
    0.000000     7.885010     0.000000
    0.000000     0.000000     7.677804
   O  Cu
  18   24 
Direct
    0.524692     0.511358     0.522017
    0.455711     0.680294     0.263833
    0.339139     0.600553     0.824760
    0.096245     0.167406     0.473374
    0.433832     0.442994     0.761183
    0.115878     0.354867     0.392251
    0.292055     0.710039     0.498339
    0.198493     0.319425     0.633698
    0.179101     0.717019     0.587508
    0.464182     0.479269     0.256984
    0.489055     0.345467     0.593215
    0.485642     0.531355     0.340306
    0.484405     0.651687     0.632095
    0.487408     0.435187     0.688240
    0.483613     0.686853     0.504955
    0.488080     0.406453     0.372760
    0.872707     0.632203     0.635921
    0.878056     0.380655     0.558851
    0.873756     0.571440     0.373654
    0.877034     0.421226     0.412452
    0.875844     0.488467     0.673048
    0.871640     0.674603     0.482926
    0.784128     0.522180     0.522520
    0.288679     0.386052     0.828076
    0.292116     0.344160     0.273698
    0.284747     0.832594     0.513628
    0.292757     0.242348     0.677655
    0.286705     0.806682     0.670033
    0.286079     0.518087     0.171924
    0.823729     0.677105     0.567109
    0.829529     0.411410     0.635739
    0.827641     0.486409     0.365123
    0.903755     0.529986     0.522901
    0.525928     0.301297     0.287459
    0.517230     0.814049     0.452367
    0.522923     0.418624     0.825945
    0.519247     0.732820     0.745157
    0.519713     0.588648     0.213581
    0.527121     0.212476     0.607582
    0.754767     0.351149     0.473065
    0.748336     0.646097     0.396886
    0.750429     0.562838     0.697296
EA93   11.602  9.381  9.725 90.00 90.00 90.00 Sym.group:    0
1.0000
   11.601581     0.000000     0.000000
    0.000000     9.381240     0.000000
    0.000000     0.000000     9.725472
   O  Cu
  18   24 
Direct
    0.245572     0.346411     0.595272
    0.718526     0.141381     0.524716
    0.307816     0.268768     0.135726
    0.668409     0.762206     0.278003
    0.295687     0.634124     0.713425
    0.730655     0.345716     0.641703
    0.432127     0.635962     0.223152
    0.454960     0.859294     0.581979
    0.633200     0.668584     0.824075
    0.358218     0.457197     0.864274
    0.528873     0.194308     0.753205
    0.559288     0.182363     0.354179
    0.433474     0.140706     0.420672
    0.552389     0.537607     0.176265
    0.355700     0.816192     0.466579
    0.717010     0.691802     0.687613
    0.268854     0.573493     0.770102
    0.639238     0.300988     0.793477
    0.528240     0.782487     0.510763
    0.529714     0.703212     0.785815
    0.462443     0.423887     0.847682
    0.454113     0.233524     0.656055
    0.603842     0.298285     0.399871
    0.388313     0.567929     0.316446
    0.572032     0.693886     0.257873
    0.353841     0.756756     0.643851
    0.702135     0.509400     0.735242
    0.282680     0.408164     0.707952
    0.643195     0.209816     0.630207
    0.412782     0.248179     0.271521
    0.448241     0.307594     0.467049
    0.550437     0.520440     0.352649
    0.409842     0.666874     0.489884
    0.597861     0.633304     0.620135
    0.400817     0.545855     0.701284
    0.559463     0.366576     0.685429
    0.113778     0.489098     0.472088
    0.886222     0.376977     0.441714
    0.153685     0.347834     0.332390
    0.773071     0.432019     0.253327
    0.226928     0.544837     0.284652
    0.812979     0.572777     0.394084
EA94   14.779 11.761  9.343 90.00 90.00 90.00 Sym.group:    0
1.0000
   14.778788     0.000000     0.000000
    0.000000    11.760697     0.000000
    0.000000     0.000000     9.343063
   O  Cu
  18   24 
Direct
    0.190325     0.571767     0.833161
    0.890663     0.359527     0.783057
    0.273250     0.747890     0.680244
    0.809675     0.571767     0.833161
    0.910683     0.236588     0.561026
    0.109337     0.359527     0.783057
    0.309528     0.786080     0.412710
    0.726750     0.747890     0.680244
    0.878033     0.276030     0.295780
    0.089317     0.236588     0.561026
    0.277918     0.664896     0.188977
    0.690472     0.786080     0.412710
    0.803070     0.453971     0.141281
    0.121967     0.276030     0.295780
    0.196930     0.453971     0.141281
    0.722082     0.664896     0.188977
    0.288500     0.512859     0.487279
    0.711500     0.512859     0.487279
    0.345462     0.661559     0.858719
    0.731599     0.456505     0.819119
    0.424364     0.844340     0.700039
    0.654538     0.661559     0.858719
    0.761676     0.342403     0.591822
    0.268401     0.456505     0.819119
    0.458883     0.887762     0.444706
    0.575636     0.844340     0.700039
    0.727157     0.376069     0.318656
    0.238324     0.342403     0.591822
    0.428806     0.759490     0.229680
    0.541117     0.887762     0.444706
    0.648255     0.544685     0.172244
    0.272843     0.376069     0.318656
    0.351745     0.544685     0.172244
    0.571194     0.759490     0.229680
    0.500000     0.373059     0.684562
    0.500000     0.211235     0.636984
    0.500000     0.493899     0.579634
    0.500000     0.112238     0.481237
    0.500000     0.516078     0.372294
    0.500000     0.147144     0.297215
    0.500000     0.435595     0.200500
    0.500000     0.286515     0.176222
EA95   13.030 12.651  9.210 90.00 90.00 90.00 Sym.group:    0
1.0000
   13.029980     0.000000     0.000000
    0.000000    12.650910     0.000000
    0.000000     0.000000     9.210287
   O  Cu
  18   24 
Direct
    0.101305     0.420574     0.545471
    0.457395     0.298537     0.263250
    0.526839     0.350962     0.392851
    0.579751     0.451601     0.854490
    0.749373     0.508963     0.467172
    0.898695     0.604393     0.455083
    0.249784     0.525287     0.557031
    0.242437     0.453952     0.414766
    0.473181     0.673840     0.607792
    0.317311     0.548011     0.777775
    0.417907     0.573356     0.145189
    0.540313     0.726528     0.736395
    0.593921     0.895660     0.246237
    0.414343     0.104340     0.749158
    0.756195     0.570980     0.585169
    0.681393     0.476927     0.222235
    0.507186     0.783220     0.586466
    0.573134     0.442911     0.145176
    0.550231     0.238655     0.439323
    0.303613     0.428821     0.263522
    0.397365     0.690988     0.208160
    0.695038     0.596068     0.736335
    0.625109     0.332698     0.802315
    0.425516     0.582038     0.854770
    0.483608     0.781423     0.394069
    0.518729     0.243331     0.607563
    0.231458     0.473959     0.626973
    0.768154     0.550930     0.373416
    0.425728     0.420053     0.143318
    0.572849     0.604899     0.856682
    0.628161     0.420929     0.587836
    0.371499     0.603971     0.412647
    0.566520     0.398223     0.514433
    0.433097     0.626681     0.486030
    0.523004     0.541680     0.612993
    0.476521     0.483228     0.387431
    0.674508     0.338741     0.637616
    0.330171     0.685893     0.365058
    0.641477     0.375689     0.491230
    0.358151     0.649213     0.509136
    0.544508     0.569188     0.718924
    0.454159     0.455760     0.281122
EA96    9.260  9.871  9.882 90.00 90.00 90.00 Sym.group:    0
1.0000
    9.260104     0.000000     0.000000
    0.000000     9.870743     0.000000
    0.000000     0.000000     9.882329
   O  Cu
  18   24 
Direct
    0.283706     0.655511     0.798405
    0.284921     0.345765     0.201603
    0.706657     0.189454     0.363520
    0.704781     0.810319     0.636195
    0.162157     0.455556     0.720671
    0.381132     0.422979     0.866428
    0.844048     0.717189     0.441875
    0.622975     0.137411     0.598015
    0.162102     0.546868     0.282551
    0.626091     0.864524     0.399604
    0.843025     0.285830     0.560532
    0.377115     0.576400     0.133572
    0.293427     0.633611     0.193860
    0.294661     0.366244     0.810453
    0.714364     0.199281     0.652729
    0.716852     0.805056     0.346586
    0.156431     0.429294     0.280527
    0.375294     0.405087     0.140896
    0.837482     0.723329     0.559550
    0.620925     0.133729     0.426804
    0.156146     0.573224     0.719318
    0.620536     0.866271     0.570773
    0.837925     0.277234     0.442777
    0.376298     0.594482     0.857885
    0.356861     0.508381     0.788835
    0.355656     0.491939     0.210711
    0.643374     0.209404     0.509305
    0.644144     0.791662     0.489515
    0.277005     0.561009     0.737240
    0.281788     0.459133     0.740607
    0.717942     0.742539     0.545585
    0.722124     0.262673     0.556790
    0.277283     0.440538     0.263025
    0.723099     0.739837     0.443850
    0.718270     0.258159     0.454996
    0.281783     0.542333     0.261815
    0.142547     0.504138     0.500814
    0.857453     0.500816     0.503509
    0.488552     0.737589     0.719233
    0.492689     0.260391     0.277406
    0.507949     0.268056     0.744532
    0.509855     0.734542     0.254573
EA97    9.271  9.393  8.298 90.00 90.00 90.00 Sym.group:    0
1.0000
    9.271084     0.000000     0.000000
    0.000000     9.393042     0.000000
    0.000000     0.000000     8.297797
   O  Cu
  18   24 
Direct
    0.819085     0.327248     0.303318
    0.220365     0.266226     0.294629
    0.455226     0.797143     0.316679
    0.820208     0.333529     0.694811
    0.234788     0.260018     0.686121
    0.473957     0.808548     0.708171
    0.284326     0.744861     0.281092
    0.854909     0.501923     0.293121
    0.357361     0.148892     0.297017
    0.302508     0.749206     0.701515
    0.857622     0.507297     0.713544
    0.366904     0.140530     0.717440
    0.243552     0.352456     0.292345
    0.525026     0.740958     0.306617
    0.732789     0.301232     0.299344
    0.250204     0.347625     0.694718
    0.537383     0.744814     0.708990
    0.734671     0.305619     0.701716
    0.238841     0.569591     0.400756
    0.727324     0.640179     0.403399
    0.544195     0.186130     0.405525
    0.238828     0.569960     0.595545
    0.728727     0.639609     0.598188
    0.545714     0.187240     0.600314
    0.712744     0.503818     0.840570
    0.432301     0.271138     0.840922
    0.366478     0.626826     0.836491
    0.712094     0.501151     0.163158
    0.432083     0.266322     0.163509
    0.367929     0.623453     0.159078
    0.567844     0.334987     0.686825
    0.357110     0.477810     0.683523
    0.588100     0.585740     0.685896
    0.566659     0.333093     0.317239
    0.356849     0.476267     0.313936
    0.587068     0.584811     0.316309
    0.495031     0.273162     0.502759
    0.339674     0.569209     0.498154
    0.677110     0.553984     0.500951
    0.142378     0.295523     0.495068
    0.535620     0.859470     0.505955
    0.833817     0.241361     0.500841
EA98    9.334  9.941  9.842 90.00 90.00 90.00 Sym.group:    0
1.0000
    9.333968     0.000000     0.000000
    0.000000     9.941058     0.000000
    0.000000     0.000000     9.842469
   O  Cu
  18   24 
Direct
    0.288873     0.652675     0.792294
    0.295014     0.346565     0.196167
    0.710674     0.192744     0.364998
    0.712664     0.814426     0.634162
    0.159691     0.451392     0.722878
    0.377525     0.425057     0.865887
    0.839507     0.718967     0.428378
    0.620304     0.139361     0.596430
    0.158868     0.556069     0.279333
    0.625722     0.859592     0.401731
    0.838478     0.283802     0.567556
    0.373022     0.568923     0.134113
    0.285630     0.631987     0.195324
    0.290653     0.367175     0.809512
    0.708709     0.200796     0.654483
    0.708925     0.802928     0.341597
    0.161992     0.439301     0.278153
    0.381030     0.398974     0.136642
    0.842022     0.721883     0.546452
    0.619334     0.132783     0.424760
    0.159765     0.568460     0.713697
    0.626939     0.867217     0.573780
    0.840733     0.283957     0.449590
    0.374387     0.595002     0.857557
    0.355011     0.509475     0.788209
    0.355962     0.488283     0.209066
    0.642425     0.209402     0.508765
    0.646243     0.790461     0.488823
    0.279072     0.560299     0.733501
    0.279301     0.459066     0.739868
    0.722413     0.743020     0.540043
    0.719286     0.262887     0.558819
    0.281341     0.442767     0.260431
    0.720342     0.739701     0.437888
    0.720835     0.260812     0.456705
    0.278632     0.543798     0.260654
    0.141419     0.513269     0.498745
    0.858581     0.502232     0.495113
    0.500694     0.745487     0.721246
    0.506481     0.252367     0.269669
    0.500844     0.272175     0.742114
    0.494128     0.723198     0.261363
EA99   10.618  7.482  7.512 90.00 90.00 90.00 Sym.group:    0
1.0000
   10.618404     0.000000     0.000000
    0.000000     7.482189     0.000000
    0.000000     0.000000     7.511747
   O  Cu
  18   24 
Direct
    0.499139     0.321301     0.313575
    0.500198     0.277968     0.610575
    0.500525     0.546801     0.732498
    0.499558     0.756293     0.510888
    0.498822     0.616911     0.251974
    0.500414     0.655846     0.747429
    0.499195     0.808200     0.411582
    0.498549     0.539993     0.175725
    0.499301     0.221820     0.365743
    0.500549     0.293485     0.719107
    0.756774     0.482465     0.824173
    0.755188     0.818734     0.612672
    0.753304     0.720375     0.227880
    0.753691     0.323638     0.201776
    0.755811     0.176419     0.570461
    0.245027     0.499672     0.824275
    0.245698     0.823581     0.628130
    0.246313     0.705976     0.238313
    0.244874     0.318943     0.199287
    0.244095     0.177187     0.565348
    0.125067     0.398471     0.368704
    0.124865     0.362247     0.545807
    0.124312     0.522201     0.643177
    0.124677     0.657264     0.525995
    0.124758     0.580658     0.356298
    0.874175     0.401804     0.371627
    0.875323     0.361266     0.549757
    0.875688     0.518816     0.643143
    0.874757     0.656723     0.522733
    0.873827     0.584401     0.354922
    0.431398     0.685869     0.591236
    0.430615     0.669656     0.340256
    0.430529     0.424107     0.287305
    0.431329     0.288688     0.505347
    0.431947     0.450536     0.693373
    0.568329     0.686078     0.592094
    0.567524     0.669835     0.341070
    0.567441     0.424362     0.288151
    0.568255     0.288852     0.506407
    0.568878     0.450596     0.694334
    0.769081     0.504313     0.487121
    0.230396     0.504287     0.487495
EA100  13.116 11.233  7.377 90.00 90.00 90.00 Sym.group:    0
1.0000
   13.116332     0.000000     0.000000
    0.000000    11.232995     0.000000
    0.000000     0.000000     7.376737
   O  Cu
  18   24 
Direct
    0.644270     0.278225     0.343919
    0.818491     0.585066     0.178941
    0.568755     0.701504     0.317030
    0.355730     0.721775     0.343919
    0.181509     0.414934     0.178941
    0.431245     0.298496     0.317030
    0.337142     0.312057     0.781399
    0.247302     0.593402     0.737883
    0.448182     0.793160     0.821059
    0.662858     0.687943     0.781399
    0.752698     0.406598     0.737883
    0.551818     0.206840     0.821059
    0.449214     0.362202     0.772543
    0.612379     0.328908     0.799714
    0.665701     0.500637     0.763216
    0.550786     0.637798     0.772543
    0.387621     0.671092     0.799714
    0.334299     0.499363     0.763216
    0.558850     0.418795     0.282396
    0.392700     0.430654     0.274867
    0.227087     0.560741     0.287492
    0.441150     0.581205     0.282396
    0.607300     0.569346     0.274867
    0.772913     0.439259     0.287492
    0.355444     0.395784     0.401132
    0.542254     0.352960     0.426711
    0.763879     0.396500     0.395180
    0.644556     0.604216     0.401132
    0.457746     0.647040     0.426711
    0.236121     0.603500     0.395180
    0.666656     0.311427     0.658496
    0.460176     0.337392     0.664028
    0.299836     0.468316     0.634680
    0.333344     0.688573     0.658496
    0.539824     0.662608     0.664028
    0.700164     0.531684     0.634680
    0.607748     0.117511     0.623250
    0.899362     0.498183     0.412547
    0.651230     0.819756     0.554318
    0.392252     0.882489     0.623250
    0.100638     0.501817     0.412547
    0.348770     0.180244     0.554318
EA101   9.541  9.481  9.318 90.00 90.00 90.00 Sym.group:    0
1.0000
    9.541253     0.000000     0.000000
    0.000000     9.481249     0.000000
    0.000000     0.000000     9.318331
   O  Cu
  18   24 
Direct
    0.225164     0.305979     0.646945
    0.442984     0.214651     0.263084
    0.829981     0.336384     0.458528
    0.606185     0.413021     0.858344
    0.727571     0.213090     0.533603
    0.770610     0.703498     0.340063
    0.275849     0.788120     0.448505
    0.148203     0.422236     0.413447
    0.176765     0.672529     0.531963
    0.251545     0.547671     0.772553
    0.390431     0.579455     0.141656
    0.558212     0.773256     0.720918
    0.642739     0.807040     0.331361
    0.359640     0.194265     0.650405
    0.848858     0.578591     0.582072
    0.749054     0.452950     0.224012
    0.508063     0.860778     0.577177
    0.600477     0.407257     0.146501
    0.492399     0.139222     0.412561
    0.232361     0.388554     0.263651
    0.405715     0.733722     0.218449
    0.764949     0.598644     0.734848
    0.594496     0.263596     0.771685
    0.396880     0.579813     0.851708
    0.448128     0.859766     0.377226
    0.552682     0.140175     0.611416
    0.138347     0.485925     0.611167
    0.861653     0.522983     0.381696
    0.399328     0.375742     0.144582
    0.599397     0.618473     0.850862
    0.516775     0.386344     0.531928
    0.482789     0.615222     0.461126
    0.614156     0.506896     0.460377
    0.385418     0.495103     0.532718
    0.531497     0.538623     0.608410
    0.467981     0.462544     0.384783
    0.532109     0.279582     0.567437
    0.468243     0.720970     0.422769
    0.722023     0.517803     0.426133
    0.278268     0.494895     0.566389
    0.559742     0.564887     0.716566
    0.438045     0.425157     0.280137
EA102  12.758  9.833 11.764 90.00 90.00 90.00 Sym.group:    0
1.0000
   12.757943     0.000000     0.000000
    0.000000     9.833120     0.000000
    0.000000     0.000000    11.763889
   O  Cu
  18   24 
Direct
    0.198013     0.570281     0.775384
    0.896535     0.317055     0.735486
    0.162819     0.782018     0.652761
    0.893476     0.570562     0.774290
    0.882756     0.170902     0.558809
    0.202209     0.317839     0.736500
    0.117244     0.829098     0.441191
    0.865365     0.782364     0.652573
    0.837181     0.217982     0.347239
    0.172953     0.171698     0.558952
    0.103465     0.682945     0.264514
    0.827047     0.828302     0.441048
    0.801987     0.429719     0.224616
    0.134635     0.217636     0.347427
    0.106524     0.429438     0.225710
    0.797791     0.682161     0.263500
    0.254998     0.500000     0.500000
    0.745002     0.500000     0.500000
    0.372672     0.606576     0.887792
    0.727238     0.278893     0.619126
    0.340713     0.816424     0.763935
    0.723427     0.533209     0.657417
    0.700671     0.134240     0.446180
    0.376483     0.358728     0.849015
    0.299329     0.865760     0.553820
    0.691468     0.743641     0.538965
    0.659287     0.183576     0.236065
    0.349917     0.213495     0.670663
    0.272762     0.721107     0.380874
    0.650083     0.786505     0.329337
    0.627328     0.393424     0.112208
    0.308532     0.256359     0.461035
    0.276573     0.466791     0.342583
    0.623517     0.641272     0.150985
    0.583526     0.551755     0.701866
    0.590151     0.365829     0.673331
    0.527971     0.707365     0.612151
    0.543969     0.258498     0.543262
    0.456031     0.741502     0.456738
    0.472029     0.292635     0.387849
    0.409849     0.634171     0.326669
    0.416474     0.448245     0.298134
EA103   9.541  9.590  9.250 90.00 90.00 90.00 Sym.group:    0
1.0000
    9.541345     0.000000     0.000000
    0.000000     9.590104     0.000000
    0.000000     0.000000     9.249912
   O  Cu
  18   24 
Direct
    0.223903     0.303538     0.650930
    0.444384     0.210433     0.265578
    0.828253     0.334035     0.460818
    0.607195     0.416992     0.857296
    0.725618     0.213063     0.538368
    0.769335     0.696977     0.341615
    0.265639     0.787722     0.474651
    0.149657     0.418264     0.409344
    0.174359     0.666009     0.534722
    0.249712     0.542451     0.770086
    0.386032     0.574633     0.148842
    0.556559     0.775504     0.728053
    0.635603     0.806474     0.357376
    0.357640     0.193994     0.656188
    0.854678     0.572062     0.578761
    0.743675     0.448507     0.214774
    0.506077     0.862358     0.583473
    0.599270     0.405006     0.144270
    0.490448     0.137642     0.416324
    0.231364     0.381703     0.260752
    0.402066     0.727930     0.225593
    0.766071     0.603878     0.732580
    0.593368     0.266234     0.776321
    0.398188     0.585057     0.849785
    0.445042     0.854090     0.383992
    0.550674     0.141419     0.616777
    0.138345     0.479677     0.609074
    0.861655     0.516550     0.377563
    0.397043     0.370917     0.142704
    0.599752     0.618718     0.851603
    0.515749     0.383434     0.532790
    0.481877     0.609628     0.461297
    0.613483     0.502125     0.459352
    0.384480     0.490860     0.533601
    0.530045     0.534011     0.609016
    0.467812     0.458449     0.384588
    0.530854     0.278480     0.570375
    0.464580     0.717338     0.431607
    0.722924     0.510210     0.419156
    0.278303     0.488109     0.563811
    0.560164     0.567909     0.715567
    0.437196     0.417938     0.280311
EA104  11.669 11.745 11.474 90.00 90.00 90.00 Sym.group:    0
1.0000
   11.668881     0.000000     0.000000
    0.000000    11.744791     0.000000
    0.000000     0.000000    11.474445
   O  Cu
  18   24 
Direct
    0.469895     0.435944     0.207551
    0.423785     0.547145     0.787471
    0.504506     0.736585     0.282130
    0.667835     0.373575     0.712581
    0.532032     0.822924     0.494781
    0.266861     0.443274     0.650310
    0.303877     0.676015     0.639135
    0.795673     0.527834     0.609741
    0.750515     0.336245     0.502856
    0.708285     0.726774     0.387939
    0.482350     0.264716     0.360538
    0.294217     0.394793     0.341684
    0.465035     0.346728     0.168819
    0.350555     0.603080     0.827798
    0.508082     0.835876     0.293093
    0.744069     0.309301     0.703543
    0.601366     0.884633     0.457641
    0.246364     0.461300     0.751530
    0.222270     0.645074     0.688331
    0.838044     0.473807     0.684774
    0.840889     0.347151     0.540180
    0.696745     0.793620     0.313315
    0.401549     0.225729     0.311272
    0.287622     0.362195     0.244419
    0.664611     0.887610     0.683448
    0.886879     0.388384     0.314237
    0.401001     0.112390     0.507344
    0.113121     0.711088     0.492785
    0.302090     0.239431     0.742136
    0.679228     0.394587     0.115038
    0.811703     0.637735     0.194518
    0.281605     0.809344     0.270353
    0.158611     0.552356     0.260456
    0.571974     0.159414     0.727829
    0.796555     0.666771     0.804168
    0.532167     0.732763     0.884962
    0.775552     0.638304     0.498953
    0.257687     0.416276     0.494892
    0.628827     0.278816     0.420746
    0.404576     0.773163     0.577245
    0.548413     0.453957     0.774748
    0.487290     0.594432     0.226257
EA105   9.204  9.776  9.774 90.00 90.00 90.00 Sym.group:    0
1.0000
    9.203559     0.000000     0.000000
    0.000000     9.776094     0.000000
    0.000000     0.000000     9.773659
   O  Cu
  18   24 
Direct
    0.296657     0.657464     0.800338
    0.291972     0.344079     0.193986
    0.714888     0.185561     0.362513
    0.718986     0.809798     0.637984
    0.164897     0.447416     0.721928
    0.386876     0.425815     0.864943
    0.845686     0.721844     0.433006
    0.631088     0.141206     0.598934
    0.161357     0.553572     0.275877
    0.631461     0.860817     0.402561
    0.846694     0.283276     0.566532
    0.386905     0.575843     0.135057
    0.292481     0.638478     0.187140
    0.294845     0.363783     0.810254
    0.717307     0.198996     0.657176
    0.715623     0.805299     0.343904
    0.160810     0.434737     0.277934
    0.387872     0.402717     0.140227
    0.848823     0.720466     0.551857
    0.631679     0.135023     0.425195
    0.166486     0.566475     0.716784
    0.631609     0.864977     0.576271
    0.844555     0.274520     0.447402
    0.387912     0.599798     0.858989
    0.365679     0.510594     0.786995
    0.362693     0.491759     0.211396
    0.650368     0.212412     0.510340
    0.651366     0.788349     0.492084
    0.287620     0.560121     0.735269
    0.286516     0.457263     0.739317
    0.728044     0.739495     0.544965
    0.725931     0.263195     0.560173
    0.281961     0.442245     0.259653
    0.725751     0.739003     0.442194
    0.724452     0.257956     0.457236
    0.282399     0.545071     0.257454
    0.143423     0.503680     0.498644
    0.856577     0.499827     0.508738
    0.503795     0.740216     0.725974
    0.495355     0.262373     0.279508
    0.501888     0.277470     0.741778
    0.497483     0.725843     0.264462
EA106  20.018 20.018 19.195 90.00 90.00 90.00 Sym.group:    0
1.0000
   20.018442     0.000000     0.000000
    0.000000    20.018442     0.000000
    0.000000     0.000000    19.195082
   O  Cu
  18   24 
Direct
    0.402917     0.424114     0.654603
    0.402917     0.575886     0.345397
    0.597083     0.652625     0.430502
    0.597083     0.347375     0.569498
    0.343162     0.525704     0.613773
    0.443990     0.536718     0.688516
    0.656838     0.392690     0.466257
    0.556010     0.678166     0.549797
    0.343162     0.474296     0.386227
    0.556010     0.321834     0.450203
    0.656838     0.607310     0.533743
    0.443990     0.463282     0.311484
    0.402917     0.433361     0.340828
    0.402917     0.566639     0.659172
    0.597083     0.648245     0.579141
    0.597083     0.351755     0.420859
    0.343162     0.532355     0.388087
    0.443990     0.547749     0.314191
    0.656838     0.390906     0.526807
    0.556010     0.680763     0.461707
    0.343162     0.467645     0.611913
    0.556010     0.319237     0.538293
    0.656838     0.609094     0.473193
    0.443990     0.452251     0.685809
    0.434238     0.495599     0.649324
    0.434238     0.504401     0.350676
    0.565762     0.643182     0.504589
    0.565762     0.356818     0.495411
    0.398707     0.471258     0.622329
    0.398707     0.521484     0.623939
    0.601293     0.381158     0.522406
    0.601293     0.617298     0.529974
    0.398707     0.528742     0.377671
    0.601293     0.382702     0.470026
    0.601293     0.618842     0.477594
    0.398707     0.478516     0.376061
    0.336274     0.500000     0.500000
    0.663726     0.500000     0.500000
    0.500000     0.380726     0.616972
    0.500000     0.619274     0.383028
    0.500000     0.612161     0.624389
    0.500000     0.387839     0.375611
EA107  20.289 18.460 19.078 90.00 90.00 90.00 Sym.group:    0
1.0000
   20.288834     0.000000     0.000000
    0.000000    18.459643     0.000000
    0.000000     0.000000    19.078355
   O  Cu
  18   24 
Direct
    0.379106     0.394346     0.580866
    0.620894     0.374794     0.451902
    0.379106     0.480447     0.371035
    0.620894     0.605654     0.419134
    0.379106     0.625206     0.548098
    0.620894     0.519553     0.628965
    0.521132     0.545424     0.336589
    0.478868     0.668974     0.456358
    0.521132     0.623549     0.619768
    0.478868     0.454576     0.663411
    0.521132     0.331026     0.543642
    0.478868     0.376451     0.380232
    0.418934     0.359966     0.431962
    0.581066     0.490881     0.348641
    0.418934     0.630914     0.416680
    0.581066     0.640034     0.568038
    0.418934     0.509119     0.651359
    0.581066     0.369086     0.583320
    0.521194     0.639492     0.462968
    0.478806     0.602893     0.598371
    0.521194     0.463399     0.635403
    0.478806     0.360508     0.537032
    0.521194     0.397107     0.401629
    0.478806     0.536601     0.364597
    0.582729     0.572602     0.385283
    0.417271     0.638978     0.503478
    0.582729     0.566377     0.618194
    0.417271     0.427398     0.614717
    0.582729     0.361022     0.496522
    0.417271     0.433623     0.381806
    0.457222     0.417236     0.460981
    0.542778     0.493542     0.411139
    0.457222     0.576306     0.450159
    0.542778     0.582764     0.539019
    0.457222     0.506458     0.588861
    0.542778     0.423694     0.549841
    0.311501     0.514504     0.555758
    0.688499     0.457347     0.540032
    0.311501     0.442842     0.484275
    0.688499     0.485496     0.444242
    0.311501     0.542653     0.459968
    0.688499     0.557158     0.515725
EA108  19.362 19.391 16.060 90.00 90.00 90.00 Sym.group:    0
1.0000
   19.361620     0.000000     0.000000
    0.000000    19.390829     0.000000
    0.000000     0.000000    16.059898
   O  Cu
  18   24 
Direct
    0.481234     0.320346     0.546467
    0.665320     0.426663     0.546467
    0.620940     0.634330     0.546467
    0.409424     0.656357     0.546467
    0.323082     0.462304     0.546467
    0.481234     0.320346     0.453533
    0.665320     0.426663     0.453533
    0.620940     0.634330     0.453533
    0.409424     0.656357     0.453533
    0.323082     0.462304     0.453533
    0.630307     0.515363     0.605651
    0.525634     0.628490     0.605651
    0.385535     0.564048     0.605651
    0.403623     0.411094     0.605651
    0.554901     0.381005     0.605651
    0.630307     0.515363     0.394349
    0.525634     0.628490     0.394349
    0.385535     0.564048     0.394349
    0.403623     0.411094     0.394349
    0.554901     0.381005     0.394349
    0.453715     0.546859     0.606473
    0.441065     0.470527     0.606473
    0.509861     0.434926     0.606473
    0.565029     0.489255     0.606473
    0.530329     0.558434     0.606473
    0.453715     0.546859     0.393527
    0.441065     0.470527     0.393527
    0.509861     0.434926     0.393527
    0.565029     0.489255     0.393527
    0.530329     0.558434     0.393527
    0.447961     0.505895     0.500000
    0.478304     0.452404     0.500000
    0.538630     0.464688     0.500000
    0.545571     0.525772     0.500000
    0.489535     0.551239     0.500000
    0.638178     0.619611     0.500000
    0.428770     0.668179     0.500000
    0.317800     0.484329     0.500000
    0.458624     0.322136     0.500000
    0.656628     0.405746     0.500000
    0.500000     0.500000     0.586232
    0.500000     0.500000     0.413768
EA109  20.139 21.297 15.906 90.00 90.00 90.00 Sym.group:    0
1.0000
   20.138899     0.000000     0.000000
    0.000000    21.297185     0.000000
    0.000000     0.000000    15.906206
   O  Cu
  18   24 
Direct
    0.356309     0.542346     0.397329
    0.389372     0.403500     0.397329
    0.533064     0.361155     0.397329
    0.643691     0.457654     0.397329
    0.610628     0.596500     0.397329
    0.466936     0.638845     0.397329
    0.356309     0.542346     0.602671
    0.389372     0.403500     0.602671
    0.533064     0.361155     0.602671
    0.643691     0.457654     0.602671
    0.610628     0.596500     0.602671
    0.466936     0.638845     0.602671
    0.454239     0.633315     0.548712
    0.355026     0.529182     0.548712
    0.400786     0.395867     0.548712
    0.545761     0.366685     0.548712
    0.644974     0.470818     0.548712
    0.599214     0.604133     0.548712
    0.454239     0.633315     0.451288
    0.355026     0.529182     0.451288
    0.400786     0.395867     0.451288
    0.545761     0.366685     0.451288
    0.644974     0.470818     0.451288
    0.599214     0.604133     0.451288
    0.584073     0.466672     0.468246
    0.572559     0.552185     0.468246
    0.488486     0.585513     0.468246
    0.415927     0.533328     0.468246
    0.427441     0.447815     0.468246
    0.511514     0.414487     0.468246
    0.584073     0.466672     0.531754
    0.572559     0.552185     0.531754
    0.488486     0.585513     0.531754
    0.415927     0.533328     0.531754
    0.427441     0.447815     0.531754
    0.511514     0.414487     0.531754
    0.306317     0.588124     0.500000
    0.322451     0.385451     0.500000
    0.516135     0.297326     0.500000
    0.693683     0.411876     0.500000
    0.677549     0.614549     0.500000
    0.483865     0.702674     0.500000
EA110  19.873 19.556 19.556 90.00 90.00 90.00 Sym.group:    0
1.0000
   19.872984     0.000000     0.000000
    0.000000    19.555974     0.000000
    0.000000     0.000000    19.555974
   O  Cu
  18   24 
Direct
    0.630915     0.403627     0.573124
    0.527033     0.361534     0.388617
    0.343204     0.418520     0.482499
    0.447086     0.460613     0.667006
    0.390586     0.359763     0.517462
    0.369085     0.596373     0.426876
    0.609414     0.640237     0.482538
    0.668403     0.462131     0.459834
    0.656796     0.581480     0.517501
    0.619308     0.522975     0.630791
    0.552914     0.539387     0.332994
    0.472967     0.638466     0.611383
    0.432732     0.649383     0.426885
    0.567268     0.350617     0.573115
    0.331597     0.537869     0.540166
    0.380692     0.477025     0.369209
    0.496525     0.675231     0.540189
    0.451634     0.455033     0.332979
    0.503475     0.324769     0.459811
    0.628315     0.445887     0.388632
    0.545620     0.614388     0.369233
    0.371685     0.554113     0.611368
    0.454380     0.385612     0.630767
    0.548366     0.544967     0.667021
    0.525432     0.674768     0.445342
    0.474568     0.325232     0.554658
    0.673616     0.491013     0.554687
    0.326384     0.508987     0.445313
    0.548244     0.440212     0.332009
    0.451756     0.559788     0.667991
    0.491958     0.444734     0.517284
    0.508042     0.555266     0.482716
    0.445098     0.502842     0.482706
    0.554902     0.497158     0.517294
    0.484744     0.518906     0.553123
    0.515256     0.481094     0.446877
    0.484393     0.392748     0.533542
    0.515607     0.607252     0.466458
    0.393455     0.505515     0.466440
    0.606545     0.494485     0.533560
    0.470393     0.536691     0.603093
    0.529607     0.463309     0.396907
EA111  17.775 17.775 36.179 90.00 90.00 90.00 Sym.group:    0
1.0000
   17.775140     0.000000     0.000000
    0.000000    17.775140     0.000000
    0.000000     0.000000    36.178619
   O  Cu
  18   24 
Direct
    0.673639     0.444474     0.451068
    0.612075     0.444474     0.451068
    0.673639     0.555526     0.548932
    0.612075     0.599595     0.472719
    0.673639     0.599595     0.472719
    0.673639     0.400405     0.527281
    0.612075     0.555526     0.548932
    0.612075     0.400405     0.527281
    0.832965     0.508100     0.439527
    0.452749     0.508100     0.439527
    0.832965     0.491900     0.560473
    0.452749     0.623083     0.503979
    0.832965     0.623083     0.503979
    0.832965     0.376917     0.496021
    0.452749     0.491900     0.560473
    0.452749     0.376917     0.496021
    0.105672     0.500000     0.500000
    0.180042     0.500000     0.500000
    0.281119     0.500000     0.500000
    0.004595     0.500000     0.500000
    0.817547     0.500000     0.500000
    0.468167     0.500000     0.500000
    0.304979     0.399631     0.495856
   -0.019265     0.399631     0.495856
    0.304979     0.600369     0.504144
   -0.019265     0.508435     0.450687
    0.304979     0.508435     0.450687
    0.304979     0.491565     0.549313
   -0.019265     0.600369     0.504144
   -0.019265     0.491565     0.549313
    0.642857     0.390045     0.424898
    0.642857     0.652859     0.445977
    0.642857     0.609955     0.575102
    0.642857     0.347141     0.554023
    0.732844     0.470568     0.441389
    0.552870     0.470568     0.441389
    0.732844     0.529432     0.558611
    0.552870     0.619294     0.485540
    0.732844     0.619294     0.485540
    0.732844     0.380706     0.514460
    0.552870     0.529432     0.558611
    0.552870     0.380706     0.514460
EA112  19.970 19.970 19.970 90.00 90.00 90.00 Sym.group:    0
1.0000
   19.970044     0.000000     0.000000
    0.000000    19.970044     0.000000
    0.000000     0.000000    19.970044
   O  Cu
  18   24 
Direct
    0.321919     0.594778     0.537829
    0.340235     0.376830     0.462171
    0.678081     0.405222     0.537829
    0.659765     0.623170     0.462171
    0.605806     0.546855     0.330481
    0.551893     0.334244     0.609358
    0.387858     0.528538     0.669519
    0.448107     0.665756     0.609358
    0.612142     0.471462     0.669519
    0.476499     0.327909     0.390642
    0.394194     0.453145     0.330481
    0.523501     0.672091     0.390642
    0.334244     0.448107     0.390642
    0.327909     0.523501     0.609358
    0.672091     0.476499     0.609358
    0.665756     0.551893     0.390642
    0.594778     0.678081     0.462171
    0.546855     0.394194     0.669519
    0.405222     0.321919     0.462171
    0.471462     0.387858     0.330481
    0.623170     0.340235     0.537829
    0.453145     0.605806     0.669519
    0.376830     0.659765     0.537829
    0.528538     0.612142     0.330481
    0.687835     0.456417     0.440840
    0.677927     0.574321     0.559160
    0.312165     0.543583     0.440840
    0.322073     0.425679     0.559160
    0.446002     0.436094     0.683526
    0.425679     0.677927     0.440840
    0.563906     0.446002     0.316474
    0.574321     0.322073     0.440840
    0.436094     0.553998     0.316474
    0.543583     0.687835     0.559160
    0.553998     0.563906     0.683526
    0.456417     0.312165     0.559160
    0.661973     0.513612     0.500000
    0.338027     0.486388     0.500000
    0.486388     0.661973     0.500000
    0.513612     0.338027     0.500000
    0.500000     0.500000     0.662543
    0.500000     0.500000     0.337457
EA113  21.365 21.650 16.329 90.00 90.00 90.00 Sym.group:    0
1.0000
   21.364923     0.000000     0.000000
    0.000000    21.650159     0.000000
    0.000000     0.000000    16.329490
   O  Cu
  18   24 
Direct
    0.401429     0.616149     0.387030
    0.348784     0.473834     0.387030
    0.447355     0.357685     0.387030
    0.598571     0.383851     0.387030
    0.651216     0.526166     0.387030
    0.552645     0.642315     0.387030
    0.612552     0.603034     0.612970
    0.646698     0.455328     0.612970
    0.534146     0.352294     0.612970
    0.387448     0.396966     0.612970
    0.353302     0.544672     0.612970
    0.465854     0.647706     0.612970
    0.541720     0.587315     0.612237
    0.444234     0.579312     0.612237
    0.402514     0.491997     0.612237
    0.458280     0.412685     0.612237
    0.555766     0.420688     0.612237
    0.597486     0.508003     0.612237
    0.469705     0.591788     0.387763
    0.565405     0.571784     0.387763
    0.595699     0.479996     0.387763
    0.530295     0.408212     0.387763
    0.434595     0.428216     0.387763
    0.404301     0.520004     0.387763
    0.590285     0.575328     0.444723
    0.479035     0.614822     0.444723
    0.388751     0.539494     0.444723
    0.409715     0.424672     0.444723
    0.520965     0.385178     0.444723
    0.611249     0.460506     0.444723
    0.420001     0.585906     0.555277
    0.535391     0.611321     0.555277
    0.615390     0.525416     0.555277
    0.579999     0.414094     0.555277
    0.464609     0.388679     0.555277
    0.384610     0.474584     0.555277
    0.404306     0.690250     0.500000
    0.285192     0.513343     0.500000
    0.380886     0.323094     0.500000
    0.595694     0.309750     0.500000
    0.714808     0.486657     0.500000
    0.619114     0.676906     0.500000
EA114   9.395  9.830 10.335 90.00 90.00 90.00 Sym.group:    0
1.0000
    9.395310     0.000000     0.000000
    0.000000     9.829633     0.000000
    0.000000     0.000000    10.334875
   O  Cu
  18   24 
Direct
    0.448193     0.810441     0.309797
    0.540398     0.538945     0.162108
    0.744271     0.312997     0.295123
    0.320442     0.221875     0.316915
    0.144061     0.506397     0.311149
    0.193679     0.570614     0.486665
    0.241689     0.404334     0.379177
    0.370413     0.250403     0.449329
    0.516167     0.154118     0.595163
    0.714406     0.268311     0.734312
    0.470495     0.644953     0.863825
    0.596028     0.231942     0.737500
    0.588872     0.681320     0.860638
    0.398164     0.786362     0.722528
    0.555112     0.819289     0.676332
    0.736291     0.622687     0.689997
    0.249514     0.350623     0.255798
    0.751873     0.189907     0.489499
    0.768848     0.406858     0.463025
    0.662197     0.448202     0.299092
    0.544342     0.625291     0.279251
    0.533138     0.761036     0.423342
    0.435571     0.762511     0.477529
    0.427652     0.620734     0.287540
    0.559696     0.399726     0.282028
    0.699657     0.320498     0.466506
    0.325934     0.413913     0.311740
    0.248547     0.626461     0.416893
    0.212521     0.868384     0.399933
    0.278363     0.532554     0.120197
    0.552541     0.164484     0.220263
    0.341636     0.728335     0.770798
    0.806768     0.243398     0.587337
    0.695181     0.274199     0.617218
    0.455793     0.693414     0.757824
    0.647695     0.227924     0.532583
    0.592775     0.242736     0.619977
    0.594552     0.453260     0.812902
    0.214572     0.777685     0.539790
    0.721253     0.786250     0.571138
    0.551823     0.613114     0.506927
    0.625528     0.688432     0.534860
EA115  12.573  9.541  7.815 90.00 90.00 90.00 Sym.group:    0
1.0000
   12.573350     0.000000     0.000000
    0.000000     9.541234     0.000000
    0.000000     0.000000     7.815245
   O  Cu
  18   24 
Direct
    0.356744     0.859645     0.513900
    0.428452     0.168764     0.329212
    0.140176     0.480869     0.468181
    0.381868     0.831236     0.718504
    0.453576     0.140355     0.533816
    0.165301     0.452459     0.672784
    0.308511     0.347003     0.260675
    0.247668     0.651570     0.348437
    0.365635     0.282408     0.725878
    0.589204     0.509599     0.430537
    0.791883     0.346865     0.442249
    0.678121     0.277185     0.450133
    0.727336     0.844699     0.224717
    0.770337     0.666199     0.622423
    0.547166     0.774650     0.744298
    0.543896     0.419745     0.787897
    0.646137     0.861502     0.590691
    0.778864     0.781638     0.403188
    0.304793     0.586976     0.813639
    0.429209     0.426452     0.252008
    0.356978     0.563709     0.301285
    0.467559     0.678506     0.305387
    0.486777     0.361355     0.720830
    0.414547     0.498613     0.770107
    0.421229     0.468266     0.512602
    0.446339     0.591107     0.537223
    0.485781     0.145122     0.419488
    0.156328     0.420988     0.558522
    0.326756     0.826649     0.620837
    0.494734     0.541269     0.313158
    0.591445     0.266082     0.323172
    0.525289     0.239341     0.452039
    0.667248     0.466502     0.420749
    0.535533     0.817957     0.422509
    0.615250     0.475097     0.695917
    0.671674     0.753167     0.170604
    0.681762     0.721424     0.657363
    0.600613     0.724342     0.534566
    0.915038     0.616340     0.343853
    0.900108     0.677049     0.156638
    0.872207     0.804325     0.343338
    0.084962     0.371246     0.499171
EA116   9.719  9.713  9.399 90.00 90.00 90.00 Sym.group:    0
1.0000
    9.719239     0.000000     0.000000
    0.000000     9.713362     0.000000
    0.000000     0.000000     9.398586
   O  Cu
  18   24 
Direct
    0.722821     0.665927     0.139327
    0.245605     0.802356     0.379961
    0.867009     0.687372     0.354189
    0.459900     0.139402     0.399586
    0.132991     0.587527     0.477147
    0.681256     0.862702     0.307579
    0.344236     0.269361     0.206752
    0.327360     0.217517     0.312194
    0.814403     0.788346     0.397257
    0.567450     0.137298     0.351208
    0.226203     0.778813     0.603400
    0.631176     0.379786     0.858428
    0.318099     0.172585     0.611894
    0.751149     0.341710     0.713182
    0.533129     0.627906     0.853476
    0.408960     0.339357     0.825362
    0.177809     0.345924     0.589482
    0.805911     0.541337     0.523235
    0.282549     0.843498     0.489083
    0.810420     0.617060     0.201525
    0.648490     0.811265     0.201329
    0.452105     0.283935     0.247593
    0.766624     0.667619     0.298303
    0.721453     0.754765     0.335695
    0.530652     0.237056     0.299353
    0.246018     0.695211     0.432060
    0.690374     0.710699     0.244862
    0.436560     0.237328     0.338750
    0.462529     0.845811     0.340813
    0.663822     0.439490     0.164759
    0.220141     0.430496     0.334305
    0.175695     0.449741     0.537161
    0.331309     0.650024     0.764113
    0.410211     0.502944     0.509746
    0.475903     0.587494     0.605551
    0.274629     0.431408     0.660968
    0.393915     0.470880     0.768226
    0.544574     0.498730     0.591045
    0.467539     0.408117     0.543763
    0.712789     0.401150     0.794028
    0.410884     0.147321     0.574529
    0.425545     0.624174     0.748453
EA117   8.187 10.374 16.516 90.00 90.00 90.00 Sym.group:    0
1.0000
    8.186900     0.000000     0.000000
    0.000000    10.373539     0.000000
    0.000000     0.000000    16.516084
   O  Cu
  18   24 
Direct
    0.485997     0.484116     0.395785
    0.436176     0.544046     0.557311
    0.326486     0.485104     0.408077
    0.237195     0.319821     0.113782
    0.456242     0.811082     0.540158
    0.375045     0.425701     0.309782
    0.319221     0.401902     0.254037
    0.267688     0.159220     0.149351
    0.334645     0.414444     0.823611
    0.464991     0.150942     0.559019
    0.342801     0.157252     0.447424
    0.586731     0.253229     0.266418
    0.603593     0.543944     0.274524
    0.606674     0.282972     0.323839
    0.615136     0.344298     0.078085
    0.554399     0.304106     0.492102
    0.620376     0.662689     0.783821
    0.595932     0.626814     0.714462
    0.427485     0.344943     0.212777
    0.329560     0.696760     0.297486
    0.181970     0.268045     0.169493
    0.270773     0.739314     0.485058
    0.378702     0.695710     0.402484
    0.454060     0.652204     0.605832
    0.247642     0.173133     0.088770
    0.322435     0.361841     0.145197
    0.232109     0.435765     0.191593
    0.247364     0.211496     0.275838
    0.460192     0.250556     0.629295
    0.230255     0.434381     0.752893
    0.383079     0.301575     0.494544
    0.308537     0.711386     0.911230
    0.562710     0.578055     0.620196
    0.653598     0.711447     0.878087
    0.621910     0.878556     0.874285
    0.853432     0.746616     0.878777
    0.700970     0.567356     0.926391
    0.741193     0.200326     0.295232
    0.532688     0.189678     0.220628
    0.680147     0.537412     0.331534
    0.620784     0.449880     0.163354
    0.591377     0.276789     0.388948
EA118   9.748  9.573  9.633 90.00 90.00 90.00 Sym.group:    0
1.0000
    9.748057     0.000000     0.000000
    0.000000     9.572517     0.000000
    0.000000     0.000000     9.633331
   O  Cu
  18   24 
Direct
    0.481330     0.846315     0.380143
    0.523497     0.383603     0.156145
    0.676604     0.717518     0.263368
    0.502350     0.552241     0.137586
    0.303490     0.691178     0.257141
    0.819602     0.377683     0.383762
    0.219631     0.341145     0.379464
    0.535052     0.137405     0.448571
    0.336494     0.251125     0.296225
    0.403312     0.843668     0.620051
    0.199014     0.691664     0.706152
    0.461776     0.335683     0.863535
    0.307542     0.742949     0.737105
    0.353248     0.284401     0.832583
    0.581533     0.216564     0.733035
    0.444222     0.167591     0.651919
    0.238016     0.339175     0.637406
    0.863109     0.535483     0.495938
    0.797339     0.647843     0.358431
    0.709445     0.278313     0.304165
    0.191015     0.617970     0.352492
    0.527537     0.214492     0.258467
    0.488376     0.741964     0.208925
    0.133962     0.482454     0.494538
    0.506603     0.411915     0.421843
    0.496664     0.579039     0.407861
    0.384213     0.495567     0.497498
    0.517383     0.325599     0.351659
    0.492431     0.646696     0.319450
    0.275412     0.497928     0.499862
    0.617745     0.277439     0.795831
    0.360610     0.861614     0.508640
    0.136891     0.717774     0.544065
    0.242921     0.698760     0.595672
    0.505105     0.298717     0.760411
    0.299867     0.758649     0.526070
    0.336806     0.743126     0.622451
    0.324987     0.515528     0.798088
    0.795938     0.265288     0.595027
    0.300887     0.188544     0.515070
    0.386947     0.301761     0.506170
    0.476537     0.789729     0.741940
EA119   8.863 10.548 10.329 90.00 90.00 90.00 Sym.group:    0
1.0000
    8.862822     0.000000     0.000000
    0.000000    10.547999     0.000000
    0.000000     0.000000    10.328888
   O  Cu
  18   24 
Direct
    0.764535     0.317972     0.224439
    0.799772     0.205133     0.669524
    0.662368     0.306987     0.864408
    0.202656     0.395378     0.334872
    0.541345     0.134354     0.710364
    0.152145     0.384907     0.586289
    0.180001     0.320557     0.493887
    0.523359     0.201985     0.805433
    0.388618     0.736269     0.724182
    0.154597     0.512049     0.296017
    0.230855     0.754295     0.451131
    0.572235     0.678725     0.213348
    0.845403     0.622073     0.683793
    0.711305     0.794820     0.466209
    0.645547     0.663640     0.342293
    0.745484     0.668923     0.516800
    0.804993     0.511222     0.605888
    0.605118     0.500656     0.256873
    0.774322     0.304090     0.808141
    0.626333     0.383127     0.142105
    0.856388     0.391149     0.271950
    0.773622     0.472505     0.277304
    0.210552     0.469319     0.526425
    0.629974     0.212038     0.679801
    0.694117     0.409389     0.236457
    0.711547     0.271133     0.713850
    0.233081     0.412552     0.445771
    0.402470     0.443142     0.219116
    0.782013     0.256322     0.441716
    0.339817     0.246108     0.661934
    0.325883     0.675467     0.606660
    0.233336     0.617156     0.440135
    0.406185     0.552372     0.735144
    0.306853     0.621684     0.360516
    0.411196     0.720438     0.551310
    0.517303     0.595827     0.724589
    0.669292     0.683589     0.593530
    0.547820     0.707736     0.384235
    0.484261     0.527072     0.256910
    0.567916     0.882938     0.637280
    0.723375     0.570711     0.879203
    0.353888     0.812225     0.258076
EA120   8.145 10.082 10.081 90.00 90.00 90.00 Sym.group:    0
1.0000
    8.144659     0.000000     0.000000
    0.000000    10.082483     0.000000
    0.000000     0.000000    10.080751
   O  Cu
  18   24 
Direct
    0.405674     0.259215     0.786917
    0.308761     0.465984     0.167468
    0.401243     0.143829     0.395134
    0.451807     0.787455     0.729493
    0.241487     0.314007     0.679624
    0.254152     0.639226     0.266136
    0.691385     0.407522     0.775055
    0.756860     0.234884     0.563056
    0.804536     0.336543     0.308449
    0.786737     0.610837     0.265845
    0.721261     0.783475     0.477844
    0.673585     0.681816     0.732451
    0.547648     0.653929     0.733182
    0.571037     0.381228     0.750490
    0.636811     0.231652     0.527011
    0.679195     0.354781     0.286222
    0.655806     0.627483     0.268915
    0.590033     0.777058     0.492394
    0.156954     0.608468     0.471530
    0.390928     0.162777     0.602841
    0.495949     0.394531     0.141897
    0.336179     0.279581     0.252911
    0.415468     0.794463     0.291904
    0.190792     0.536278     0.687799
    0.258202     0.744694     0.624240
    0.445253     0.616805     0.150069
    0.238984     0.248823     0.458305
    0.186739     0.430810     0.329694
    0.342735     0.450232     0.832335
    0.417971     0.859644     0.513225
    0.605442     0.549334     0.347194
    0.566951     0.665880     0.465182
    0.535446     0.619385     0.624312
    0.542431     0.456344     0.665455
    0.580922     0.339798     0.547468
    0.612427     0.386293     0.388337
    0.511542     0.121007     0.616298
    0.588912     0.210892     0.236218
    0.577370     0.589887     0.119922
    0.464554     0.380615     0.375688
    0.554747     0.383195     0.849931
    0.504051     0.605469     0.858103
EA121   8.968  9.022 10.340 90.00 90.00 90.00 Sym.group:    0
1.0000
    8.967607     0.000000     0.000000
    0.000000     9.021948     0.000000
    0.000000     0.000000    10.339697
   O  Cu
  18   24 
Direct
    0.479551     0.431371     0.854937
    0.602441     0.159257     0.294615
    0.147040     0.291885     0.321801
    0.628812     0.311041     0.177123
    0.173411     0.443669     0.204309
    0.690800     0.207202     0.552257
    0.391804     0.142461     0.406275
    0.147092     0.331103     0.547542
    0.451766     0.487567     0.139136
    0.525210     0.849855     0.636577
    0.307916     0.626348     0.746804
    0.420946     0.616394     0.213581
    0.581725     0.844878     0.369968
    0.796348     0.607113     0.676193
    0.852863     0.602136     0.409583
    0.782872     0.673836     0.423493
    0.707623     0.655011     0.682516
    0.418275     0.155122     0.630032
    0.576768     0.484280     0.860864
    0.199995     0.406423     0.626683
    0.727947     0.375636     0.708409
    0.521837     0.263465     0.695841
    0.411353     0.486797     0.513095
    0.547217     0.426449     0.542290
    0.300919     0.299876     0.555553
    0.451790     0.226899     0.515211
    0.537199     0.430868     0.427107
    0.402412     0.440967     0.403692
    0.662050     0.240821     0.253809
    0.191911     0.337999     0.238988
    0.573724     0.288759     0.613007
    0.654232     0.789004     0.404698
    0.578982     0.770179     0.663720
    0.360431     0.538760     0.749627
    0.510928     0.576409     0.231578
    0.585641     0.664575     0.413403
    0.564085     0.682545     0.575689
    0.436516     0.555508     0.656161
    0.669498     0.589500     0.425655
    0.647943     0.607470     0.587942
    0.760073     0.849081     0.675634
    0.794461     0.787704     0.293412
EA122  10.058  9.565  9.859 90.00 90.00 90.00 Sym.group:    0
1.0000
   10.058266     0.000000     0.000000
    0.000000     9.565008     0.000000
    0.000000     0.000000     9.858704
   O  Cu
  18   24 
Direct
    0.140624     0.488808     0.538143
    0.666278     0.157120     0.404817
    0.323374     0.259227     0.260038
    0.694726     0.319673     0.771485
    0.632047     0.475601     0.147411
    0.360253     0.162999     0.648358
    0.688504     0.247044     0.584084
    0.484061     0.359279     0.209130
    0.252445     0.327640     0.593376
    0.154191     0.689515     0.539556
    0.782431     0.591709     0.748061
    0.394075     0.862659     0.611820
    0.333359     0.801157     0.320675
    0.794300     0.743307     0.485010
    0.268357     0.777753     0.663997
    0.847433     0.615112     0.404738
    0.758993     0.730595     0.671491
    0.264667     0.221528     0.646616
    0.364993     0.345936     0.749914
    0.494649     0.213658     0.331929
    0.773526     0.415180     0.614705
    0.759929     0.333767     0.433055
    0.343379     0.213638     0.456195
    0.534128     0.421038     0.809440
    0.526099     0.243597     0.709820
    0.234476     0.375319     0.401495
    0.647859     0.321424     0.276988
    0.743910     0.492382     0.304787
    0.312663     0.471196     0.245502
    0.512505     0.162183     0.528171
    0.429381     0.875371     0.425339
    0.183886     0.700206     0.382714
    0.741678     0.573298     0.231508
    0.313548     0.641757     0.813786
    0.573435     0.817277     0.705919
    0.186088     0.517899     0.283708
    0.433340     0.684886     0.181087
    0.631839     0.838304     0.397452
    0.621886     0.530169     0.864206
    0.250313     0.561229     0.687765
    0.330546     0.590115     0.264002
    0.589979     0.790628     0.546786
EA123  10.719 12.527  9.456 90.00 90.00 90.00 Sym.group:    0
1.0000
   10.718911     0.000000     0.000000
    0.000000    12.527375     0.000000
    0.000000     0.000000     9.455671
   O  Cu
  18   24 
Direct
    0.189787     0.375551     0.500175
    0.407949     0.182304     0.454719
    0.654969     0.262330     0.283716
    0.316174     0.464393     0.841833
    0.534336     0.271146     0.796378
    0.781356     0.351172     0.625374
    0.297677     0.418131     0.752941
    0.526080     0.247158     0.692813
    0.758386     0.350101     0.520922
    0.272241     0.646132     0.836393
    0.658557     0.683223     0.750258
    0.221212     0.762711     0.709769
    0.636074     0.802543     0.617267
    0.286894     0.577570     0.824936
    0.683945     0.615692     0.736406
    0.416749     0.786311     0.368493
    0.436496     0.722937     0.413104
    0.667759     0.511617     0.557394
    0.237713     0.375980     0.590842
    0.698422     0.307950     0.358823
    0.447648     0.325233     0.530038
    0.602864     0.358038     0.429579
    0.325240     0.453457     0.547624
    0.486737     0.352710     0.635706
    0.641953     0.385515     0.535247
    0.364329     0.480934     0.653292
    0.128245     0.443029     0.731967
    0.403298     0.127525     0.703403
    0.331979     0.767774     0.520230
    0.524191     0.786229     0.477372
    0.788931     0.724301     0.532072
    0.120476     0.660120     0.681117
    0.644993     0.677511     0.446221
    0.692195     0.527572     0.646656
    0.452079     0.698449     0.549404
    0.478308     0.624809     0.873070
    0.463333     0.636803     0.473733
    0.389910     0.872443     0.307865
    0.351299     0.830898     0.126930
    0.254426     0.876691     0.312326
    0.340521     0.600386     0.506820
    0.512723     0.908862     0.274779
EA124  10.330  9.547  8.185 90.00 90.00 90.00 Sym.group:    0
1.0000
   10.329530     0.000000     0.000000
    0.000000     9.546503     0.000000
    0.000000     0.000000     8.184990
   O  Cu
  18   24 
Direct
    0.445446     0.168433     0.329722
    0.169442     0.641797     0.379369
    0.236261     0.217823     0.487315
    0.504696     0.144434     0.402510
    0.866159     0.571857     0.385801
    0.779563     0.710144     0.278421
    0.783092     0.351754     0.389586
    0.599985     0.855566     0.429852
    0.586200     0.666177     0.145440
    0.170057     0.354576     0.351133
    0.693671     0.673078     0.197279
    0.746965     0.557217     0.784612
    0.288934     0.677426     0.731899
    0.513889     0.401196     0.744366
    0.600225     0.285311     0.584782
    0.478301     0.447209     0.820072
    0.341304     0.171493     0.743374
    0.184463     0.427545     0.775874
    0.271862     0.215888     0.384561
    0.133841     0.643732     0.482123
    0.555870     0.345901     0.228906
    0.247007     0.430344     0.326481
    0.530192     0.473517     0.455364
    0.399806     0.509162     0.496555
    0.511027     0.700018     0.273288
    0.479028     0.774562     0.424136
    0.593555     0.575169     0.466633
    0.829649     0.670738     0.371963
    0.318532     0.492818     0.150229
    0.279889     0.659590     0.602427
    0.738847     0.585798     0.660972
    0.527910     0.763240     0.651677
    0.653460     0.516027     0.600252
    0.544836     0.648679     0.600529
    0.383471     0.616352     0.572795
    0.878339     0.541869     0.562423
    0.253703     0.812779     0.503665
    0.126179     0.313783     0.601167
    0.196456     0.194303     0.613449
    0.597860     0.413674     0.665002
    0.483942     0.329173     0.650543
    0.383943     0.485490     0.710467
EA125  10.095  9.284  9.998 90.00 90.00 90.00 Sym.group:    0
1.0000
   10.095477     0.000000     0.000000
    0.000000     9.284446     0.000000
    0.000000     0.000000     9.998391
   O  Cu
  18   24 
Direct
    0.165981     0.348236     0.351389
    0.722149     0.450376     0.190217
    0.598306     0.182702     0.364752
    0.430942     0.409010     0.134982
    0.429622     0.162951     0.352007
    0.562275     0.444055     0.770583
    0.400455     0.316195     0.684420
    0.781124     0.407757     0.558280
    0.320938     0.457518     0.799442
    0.858688     0.534918     0.359196
    0.767602     0.596434     0.782285
    0.797398     0.708489     0.329264
    0.706312     0.770004     0.752353
    0.300828     0.581502     0.824185
    0.688728     0.830158     0.493007
    0.485042     0.787757     0.733978
    0.218804     0.623563     0.622744
    0.141312     0.403486     0.445492
    0.378227     0.377554     0.230924
    0.638548     0.283325     0.351924
    0.508357     0.165991     0.523383
    0.184396     0.472704     0.356882
    0.598014     0.450265     0.168259
    0.458809     0.304895     0.405506
    0.201307     0.183820     0.564480
    0.504707     0.455393     0.851371
    0.860023     0.384856     0.501391
    0.538199     0.123756     0.683158
    0.687940     0.417102     0.682626
    0.257948     0.564486     0.313025
    0.548377     0.692169     0.232843
    0.349264     0.680838     0.579050
    0.327310     0.630913     0.427310
    0.460036     0.678069     0.346803
    0.564019     0.757138     0.448788
    0.495559     0.758849     0.592324
    0.584438     0.521158     0.437154
    0.487911     0.517940     0.617477
    0.770386     0.692149     0.735496
    0.368150     0.518844     0.860386
    0.812025     0.603095     0.303330
    0.452587     0.663358     0.485374
EA126   9.055  9.575  9.529 90.00 90.00 90.00 Sym.group:    0
1.0000
    9.054855     0.000000     0.000000
    0.000000     9.575095     0.000000
    0.000000     0.000000     9.529038
   O  Cu
  18   24 
Direct
    0.746693     0.754032     0.333479
    0.395420     0.520700     0.133470
    0.196294     0.647543     0.241167
    0.207986     0.385589     0.253017
    0.861414     0.546557     0.441851
    0.138586     0.548069     0.280994
    0.752850     0.823023     0.485345
    0.791277     0.641240     0.314703
    0.620964     0.150845     0.508045
    0.389513     0.160253     0.650688
    0.596599     0.158196     0.604425
    0.315097     0.778278     0.770335
    0.798583     0.668008     0.747162
    0.341673     0.860559     0.593488
    0.825160     0.750289     0.570316
    0.186713     0.528757     0.758295
    0.503994     0.649203     0.855724
    0.763918     0.440860     0.756187
    0.348257     0.628169     0.154518
    0.311527     0.378496     0.190170
    0.768520     0.619657     0.423300
    0.295198     0.580453     0.244835
    0.245153     0.494806     0.279287
    0.730170     0.717404     0.439455
    0.335558     0.486659     0.226985
    0.334373     0.250573     0.384339
    0.574036     0.643054     0.226563
    0.155133     0.689420     0.457479
    0.300727     0.154023     0.579588
    0.710793     0.353514     0.688318
    0.154084     0.343964     0.619900
    0.342321     0.357173     0.770635
    0.534558     0.470115     0.540937
    0.379008     0.471658     0.575684
    0.600136     0.458404     0.754473
    0.439932     0.531821     0.783695
    0.411826     0.580835     0.549654
    0.554895     0.585230     0.564427
    0.279119     0.806280     0.670034
    0.778211     0.742923     0.675598
    0.310577     0.437662     0.717654
    0.458472     0.139441     0.377926
EA127   9.276  9.301  9.855 90.00 90.00 90.00 Sym.group:    0
1.0000
    9.276435     0.000000     0.000000
    0.000000     9.301125     0.000000
    0.000000     0.000000     9.855230
   O  Cu
  18   24 
Direct
    0.450297     0.485616     0.861982
    0.208252     0.289165     0.368860
    0.327964     0.827176     0.580024
    0.364782     0.718389     0.265608
    0.270840     0.279024     0.655051
    0.147860     0.588941     0.520844
    0.197452     0.595015     0.680994
    0.277988     0.573030     0.229706
    0.372522     0.170866     0.566962
    0.500368     0.856189     0.592981
    0.551306     0.541053     0.166051
    0.652054     0.785650     0.339063
    0.701129     0.633003     0.753039
    0.752068     0.317868     0.326110
    0.852816     0.562465     0.499122
    0.792497     0.634268     0.481020
    0.625227     0.681482     0.725187
    0.714896     0.399840     0.293801
    0.319550     0.372055     0.690055
    0.200983     0.516273     0.457415
    0.393708     0.736017     0.367838
    0.459488     0.587476     0.193178
    0.249158     0.275221     0.485232
    0.256553     0.721019     0.570620
    0.321704     0.547188     0.600042
    0.368757     0.548954     0.349871
    0.428172     0.312952     0.547364
    0.443459     0.141955     0.278443
    0.421727     0.747456     0.831412
    0.369111     0.289061     0.159312
    0.697247     0.740157     0.405081
    0.529976     0.787372     0.649248
    0.619646     0.505729     0.217861
    0.548720     0.478115     0.319093
    0.622853     0.629029     0.412324
    0.543087     0.685427     0.568480
    0.610811     0.409089     0.368596
    0.684944     0.560002     0.461827
    0.605179     0.616400     0.617983
    0.690929     0.858016     0.704174
    0.671839     0.350003     0.130186
    0.862769     0.708020     0.334359
EA128  10.708 10.293 10.131 90.00 90.00 90.00 Sym.group:    0
1.0000
   10.707617     0.000000     0.000000
    0.000000    10.292584     0.000000
    0.000000     0.000000    10.131189
   O  Cu
  18   24 
Direct
    0.500400     0.282340     0.184112
    0.588679     0.296561     0.799022
    0.610955     0.133269     0.535243
    0.876883     0.356542     0.538029
    0.329784     0.457951     0.277584
    0.460569     0.146356     0.571990
    0.827595     0.358655     0.379349
    0.608177     0.344822     0.866846
    0.838984     0.663826     0.407986
    0.495579     0.644924     0.137187
    0.801976     0.634197     0.715873
    0.324145     0.696690     0.796679
    0.187869     0.724764     0.520048
    0.657158     0.853220     0.561900
    0.270001     0.548535     0.818355
    0.719843     0.810426     0.417565
    0.341231     0.620070     0.166921
    0.701770     0.757499     0.723929
    0.592872     0.224342     0.441133
    0.790365     0.296547     0.607320
    0.339923     0.384581     0.503666
    0.420089     0.319022     0.275786
    0.585236     0.199808     0.683265
    0.458489     0.472451     0.380669
    0.493523     0.298569     0.561731
    0.699404     0.380280     0.464213
    0.632481     0.406632     0.710041
    0.283339     0.381497     0.861930
    0.217149     0.361898     0.641424
    0.652193     0.495791     0.148122
    0.876505     0.583318     0.544263
    0.279534     0.792411     0.634649
    0.123495     0.548612     0.545822
    0.779420     0.545391     0.245337
    0.582344     0.787891     0.261183
    0.526554     0.718015     0.827579
    0.263269     0.736511     0.322651
    0.452761     0.876353     0.559557
    0.660509     0.648267     0.282210
    0.243486     0.581115     0.362548
    0.491147     0.763884     0.672178
    0.686352     0.782657     0.505342
EA129   9.356  9.522  9.916 90.00 90.00 90.00 Sym.group:    0
1.0000
    9.356068     0.000000     0.000000
    0.000000     9.522379     0.000000
    0.000000     0.000000     9.915747
   O  Cu
  18   24 
Direct
    0.344502     0.139952     0.594232
    0.223590     0.322236     0.720292
    0.173949     0.294968     0.488191
    0.146328     0.358946     0.579080
    0.382635     0.750976     0.266213
    0.275182     0.480916     0.262709
    0.190571     0.387454     0.655209
    0.551943     0.571666     0.856027
    0.614722     0.465231     0.863903
    0.716484     0.248933     0.450508
    0.679436     0.532776     0.140299
    0.691845     0.674248     0.733823
    0.863853     0.472103     0.457193
    0.767005     0.528972     0.700583
    0.619637     0.305803     0.693899
    0.729956     0.812815     0.390372
    0.609578     0.218226     0.326593
    0.559836     0.763950     0.193189
    0.304318     0.233028     0.726463
    0.291393     0.165184     0.497170
    0.279921     0.272011     0.534457
    0.325861     0.250184     0.618423
    0.256027     0.327356     0.613084
    0.421576     0.412153     0.807574
    0.209884     0.512728     0.420661
    0.385957     0.794516     0.492996
    0.306862     0.657242     0.305300
    0.372907     0.494727     0.380897
    0.395349     0.729958     0.374693
    0.615841     0.715875     0.770244
    0.611167     0.596335     0.757786
    0.586827     0.392531     0.136097
    0.849556     0.581640     0.337480
    0.669094     0.848552     0.543326
    0.790546     0.358246     0.599851
    0.745833     0.700808     0.225465
    0.595878     0.480741     0.502901
    0.581740     0.589070     0.384509
    0.680563     0.427454     0.545076
    0.653123     0.637677     0.315323
    0.639334     0.157260     0.242717
    0.540304     0.550270     0.130217
EA130   9.437  9.584  9.496 90.00 90.00 90.00 Sym.group:    0
1.0000
    9.437019     0.000000     0.000000
    0.000000     9.583768     0.000000
    0.000000     0.000000     9.495880
   O  Cu
  18   24 
Direct
    0.691027     0.155873     0.707005
    0.559138     0.326252     0.861292
    0.825470     0.369882     0.784596
    0.143925     0.380864     0.599118
    0.725237     0.414560     0.850475
    0.157858     0.486242     0.657561
    0.752151     0.374089     0.275551
    0.312626     0.347979     0.216142
    0.668138     0.235172     0.324210
    0.146639     0.496814     0.370910
    0.339264     0.689606     0.213105
    0.136025     0.573598     0.535825
    0.706576     0.766881     0.329477
    0.406059     0.861301     0.568947
    0.377728     0.579177     0.851646
    0.746822     0.762971     0.530275
    0.478272     0.562382     0.139286
    0.241321     0.745677     0.559185
    0.545205     0.220874     0.802849
    0.805199     0.216572     0.699571
    0.735383     0.313052     0.723118
    0.636619     0.260543     0.729550
    0.648673     0.351703     0.780109
    0.342580     0.348615     0.740935
    0.742133     0.170515     0.478331
    0.398231     0.219139     0.287728
    0.523743     0.136758     0.427286
    0.502041     0.385294     0.479248
    0.511479     0.277175     0.456643
    0.663352     0.149328     0.257724
    0.225315     0.586303     0.718885
    0.720926     0.505099     0.788671
    0.563629     0.854864     0.442620
    0.577058     0.816309     0.665553
    0.203587     0.648686     0.358169
    0.685768     0.606036     0.205024
    0.822308     0.609188     0.383432
    0.356132     0.811211     0.376880
    0.561054     0.656935     0.825251
    0.377860     0.748829     0.737596
    0.525895     0.757873     0.241604
    0.835737     0.570633     0.606366
EA131   9.589  9.371 10.120 90.00 90.00 90.00 Sym.group:    0
1.0000
    9.589304     0.000000     0.000000
    0.000000     9.371088     0.000000
    0.000000     0.000000    10.119674
   O  Cu
  18   24 
Direct
    0.690156     0.223398     0.399075
    0.233654     0.264896     0.424508
    0.298920     0.316026     0.191237
    0.503745     0.479191     0.125817
    0.268129     0.591602     0.214596
    0.813036     0.703328     0.375979
    0.401848     0.309139     0.154359
    0.525713     0.179845     0.677358
    0.764533     0.714386     0.637191
    0.262413     0.736125     0.639487
    0.191150     0.357761     0.628052
    0.165493     0.622106     0.558985
    0.456197     0.505015     0.864681
    0.632261     0.793151     0.686460
    0.796406     0.451264     0.702707
    0.675572     0.372130     0.792089
    0.479646     0.807709     0.335772
    0.204422     0.550415     0.301237
    0.742579     0.343519     0.407586
    0.860284     0.603523     0.354694
    0.456497     0.578998     0.147101
    0.523544     0.180098     0.284436
    0.269519     0.716698     0.398872
    0.704855     0.482677     0.233654
    0.151478     0.519703     0.431934
    0.604686     0.694273     0.278778
    0.547223     0.505779     0.414117
    0.405734     0.515246     0.464813
    0.552457     0.137831     0.517089
    0.304530     0.315124     0.745365
    0.437443     0.668163     0.819064
    0.431825     0.820962     0.687919
    0.864440     0.560715     0.550084
    0.488240     0.310226     0.823539
    0.477394     0.603286     0.560139
    0.615407     0.518985     0.518111
    0.496323     0.441815     0.605545
    0.458515     0.697163     0.617232
    0.723471     0.540939     0.532707
    0.492726     0.384896     0.700599
    0.655897     0.464940     0.646469
    0.468230     0.302289     0.565017
EA132  12.520 10.207 13.418 90.00 90.00 90.00 Sym.group:    0
1.0000
   12.520306     0.000000     0.000000
    0.000000    10.206872     0.000000
    0.000000     0.000000    13.418356
   O  Cu
  18   24 
Direct
    0.498248     0.424391     0.138844
    0.668916     0.638683     0.173971
    0.191665     0.343295     0.380201
    0.291368     0.229739     0.647354
    0.336302     0.258517     0.598132
    0.340033     0.557064     0.763531
    0.466390     0.342578     0.714602
    0.421456     0.313799     0.763825
    0.209945     0.473004     0.647061
    0.384967     0.585843     0.714309
    0.254879     0.501782     0.597839
    0.239462     0.123505     0.814382
    0.516974     0.301239     0.510388
    0.159361     0.514343     0.851275
    0.587270     0.520541     0.615993
    0.309758     0.342807     0.919987
    0.089065     0.295040     0.745670
    0.436873     0.692077     0.547281
    0.517238     0.731648     0.174978
    0.662207     0.530115     0.161203
    0.456091     0.271130     0.306918
    0.280382     0.378822     0.308083
    0.492171     0.854830     0.375564
    0.747829     0.459244     0.346707
    0.454800     0.627206     0.476963
    0.234202     0.486895     0.418152
    0.347735     0.735759     0.437909
    0.740054     0.261799     0.387965
    0.210665     0.326131     0.820502
    0.465670     0.489451     0.541162
    0.278217     0.154393     0.574481
    0.507043     0.246201     0.765598
    0.398118     0.661189     0.787182
    0.169292     0.569381     0.596065
    0.277230     0.172998     0.708979
    0.408590     0.257128     0.565085
    0.267745     0.558454     0.796578
    0.520686     0.413593     0.686067
    0.389327     0.329463     0.829961
    0.155649     0.401989     0.675596
    0.399105     0.642584     0.652684
    0.287009     0.486119     0.531702
EA133  10.203  9.387 10.013 90.00 90.00 90.00 Sym.group:    0
1.0000
   10.202569     0.000000     0.000000
    0.000000     9.386713     0.000000
    0.000000     0.000000    10.013318
   O  Cu
  18   24 
Direct
    0.155446     0.349878     0.439116
    0.644685     0.705034     0.217146
    0.426026     0.386564     0.144331
    0.250579     0.702288     0.299490
    0.793123     0.354322     0.305881
    0.539945     0.551744     0.139295
    0.300139     0.208906     0.433444
    0.193514     0.696567     0.496390
    0.121906     0.576965     0.504870
    0.582813     0.466081     0.874999
    0.701216     0.671167     0.760359
    0.200818     0.561926     0.739836
    0.150350     0.645270     0.581071
    0.544685     0.182271     0.665714
    0.821538     0.789502     0.542896
    0.827900     0.547545     0.667549
    0.806451     0.736520     0.644131
    0.444449     0.146799     0.550946
    0.660366     0.211414     0.358178
    0.317313     0.550193     0.185811
    0.440835     0.730099     0.226945
    0.860228     0.502510     0.424734
    0.452990     0.229629     0.266918
    0.623798     0.353624     0.189421
    0.164459     0.529469     0.352337
    0.586955     0.822115     0.372377
    0.364321     0.820565     0.418893
    0.263571     0.351116     0.264687
    0.747320     0.533531     0.230555
    0.199951     0.448084     0.750388
    0.120318     0.368621     0.524184
    0.583681     0.579924     0.864445
    0.304709     0.782062     0.507143
    0.603638     0.796114     0.604436
    0.300044     0.169992     0.563880
    0.394509     0.633767     0.789640
    0.514853     0.259179     0.750853
    0.857732     0.470637     0.582410
    0.787629     0.626850     0.593783
    0.471842     0.245654     0.611030
    0.813436     0.560319     0.520131
    0.693306     0.356060     0.674595
EA134   8.741  9.529  9.541 90.00 90.00 90.00 Sym.group:    0
1.0000
    8.741480     0.000000     0.000000
    0.000000     9.529155     0.000000
    0.000000     0.000000     9.541402
   O  Cu
  18   24 
Direct
    0.733059     0.193533     0.600599
    0.282713     0.396676     0.136382
    0.492968     0.481357     0.863618
    0.867027     0.379962     0.477001
    0.300311     0.191166     0.274672
    0.261100     0.411244     0.789530
    0.132973     0.367854     0.344929
    0.176884     0.265797     0.375088
    0.338900     0.243269     0.174350
    0.696302     0.845719     0.368133
    0.500004     0.806659     0.777036
    0.511010     0.856823     0.311811
    0.314712     0.817762     0.720714
    0.824362     0.597329     0.336506
    0.726037     0.788575     0.581647
    0.596931     0.599906     0.819409
    0.403069     0.622574     0.208448
    0.304743     0.813820     0.453590
    0.698458     0.134767     0.446777
    0.420330     0.390610     0.848428
    0.801171     0.294150     0.613329
    0.767853     0.325676     0.509207
    0.235361     0.383938     0.292474
    0.368014     0.453259     0.769150
    0.746200     0.291636     0.417412
    0.308324     0.339276     0.232633
    0.272191     0.294090     0.318267
    0.519720     0.176198     0.306983
    0.180349     0.390655     0.578403
    0.175638     0.625152     0.691351
    0.732838     0.646041     0.543951
    0.661962     0.591614     0.683879
    0.765801     0.517394     0.449426
    0.308267     0.671483     0.414896
    0.237390     0.617056     0.554825
    0.341229     0.542836     0.320372
    0.482824     0.627658     0.553501
    0.444816     0.517658     0.613080
    0.535057     0.597568     0.436953
    0.425152     0.844285     0.717266
    0.665047     0.515986     0.564538
    0.321188     0.536592     0.460018
EA135   9.716  9.733 10.221 90.00 90.00 90.00 Sym.group:    0
1.0000
    9.715568     0.000000     0.000000
    0.000000     9.733267     0.000000
    0.000000     0.000000    10.220690
   O  Cu
  18   24 
Direct
    0.282503     0.583227     0.685618
    0.494974     0.129473     0.412534
    0.287328     0.780923     0.478563
    0.459446     0.286201     0.269972
    0.353250     0.605614     0.140863
    0.133853     0.614339     0.430911
    0.228987     0.300067     0.445059
    0.456717     0.298871     0.691174
    0.208848     0.753874     0.499365
    0.274896     0.316580     0.295042
    0.538856     0.560382     0.135408
    0.535393     0.181606     0.287317
    0.797211     0.592007     0.712933
    0.700669     0.814023     0.398454
    0.843099     0.432548     0.356158
    0.778089     0.383155     0.701773
    0.593365     0.857255     0.562781
    0.715769     0.496005     0.212783
    0.349966     0.693989     0.228427
    0.185042     0.523448     0.366493
    0.290564     0.370964     0.533451
    0.409032     0.835770     0.413386
    0.414025     0.435317     0.187015
    0.220209     0.614311     0.581062
    0.390496     0.234639     0.400161
    0.472175     0.421119     0.592532
    0.319037     0.647323     0.433199
    0.351307     0.410304     0.381899
    0.371176     0.767655     0.791040
    0.467955     0.626224     0.876263
    0.807179     0.639290     0.361378
    0.630188     0.151318     0.461339
    0.645946     0.517864     0.826247
    0.588244     0.297068     0.787446
    0.713813     0.282033     0.298596
    0.781255     0.729369     0.562924
    0.861715     0.513872     0.539031
    0.541944     0.354248     0.173893
    0.503165     0.846214     0.361151
    0.635310     0.711504     0.236675
    0.647902     0.731837     0.740434
    0.804012     0.293076     0.500229
EA136  10.450  8.826  9.229 90.00 90.00 90.00 Sym.group:    0
1.0000
   10.450032     0.000000     0.000000
    0.000000     8.825527     0.000000
    0.000000     0.000000     9.228503
   O  Cu
  18   24 
Direct
    0.320700     0.637308     0.166200
    0.848856     0.645246     0.380899
    0.735792     0.171346     0.434158
    0.615952     0.740876     0.234809
    0.757838     0.424687     0.266543
    0.530001     0.173933     0.297660
    0.138371     0.594705     0.398792
    0.625717     0.152191     0.379002
    0.512647     0.832306     0.159755
    0.166926     0.438599     0.509817
    0.326947     0.257379     0.729699
    0.600354     0.147942     0.657701
    0.815332     0.524144     0.632659
    0.600415     0.536671     0.853617
    0.384232     0.764802     0.590435
    0.472905     0.651058     0.742076
    0.647953     0.573193     0.713418
    0.734328     0.609072     0.533120
    0.335764     0.749244     0.186948
    0.258548     0.766980     0.414363
    0.226614     0.529671     0.370378
    0.439652     0.586948     0.468546
    0.546786     0.334478     0.278052
    0.517243     0.620636     0.247603
    0.625583     0.490511     0.259790
    0.840571     0.709600     0.483853
    0.493442     0.478476     0.311219
    0.247301     0.335151     0.285158
    0.482237     0.228360     0.618152
    0.314203     0.327781     0.590480
    0.299408     0.436904     0.632152
    0.492526     0.307932     0.696852
    0.663922     0.291845     0.534272
    0.660209     0.456267     0.692135
    0.450834     0.535281     0.757990
    0.319820     0.675461     0.596281
    0.118518     0.705759     0.501097
    0.263280     0.465905     0.869777
    0.644763     0.268776     0.868682
    0.736720     0.551358     0.130223
    0.607557     0.657614     0.302861
    0.881482     0.311504     0.498903
EA137   7.794  7.340 10.899 90.00 90.00 90.00 Sym.group:    0
1.0000
    7.794100     0.000000     0.000000
    0.000000     7.340067     0.000000
    0.000000     0.000000    10.898863
   O  Cu
  18   24 
Direct
    0.432067     0.829222     0.289185
    0.576777     0.407028     0.135634
    0.251698     0.741632     0.320935
    0.396409     0.319438     0.167384
    0.620217     0.688017     0.230720
    0.756573     0.374539     0.284140
    0.210116     0.488870     0.302911
    0.346470     0.175390     0.356328
    0.387932     0.230708     0.255332
    0.804869     0.539520     0.609745
    0.358963     0.362516     0.675719
    0.787577     0.334035     0.597076
    0.376255     0.568001     0.688388
    0.747761     0.230163     0.790884
    0.614041     0.553497     0.839527
    0.774077     0.542863     0.810164
    0.587725     0.240798     0.820248
    0.667876     0.263889     0.587870
    0.653393     0.208004     0.491476
    0.771421     0.356941     0.398282
    0.553105     0.453127     0.491127
    0.716693     0.507084     0.353158
    0.654255     0.668381     0.370397
    0.303401     0.306386     0.425909
    0.240962     0.467684     0.443147
    0.453109     0.585151     0.478829
    0.481385     0.481706     0.399618
    0.336713     0.814303     0.342940
    0.466266     0.407772     0.138394
    0.470348     0.653460     0.652974
    0.699379     0.638241     0.610950
    0.438844     0.279108     0.629893
    0.747575     0.420543     0.682879
    0.489513     0.437690     0.730228
    0.662995     0.567491     0.531412
    0.393257     0.398874     0.566602
    0.647384     0.381987     0.519975
    0.408868     0.584377     0.578040
    0.479567     0.464305     0.638011
    0.659860     0.452324     0.604930
    0.724521     0.365747     0.891211
    0.332124     0.736111     0.412130
EA138   9.742 12.484 10.823 90.00 90.00 90.00 Sym.group:    0
1.0000
    9.741920     0.000000     0.000000
    0.000000    12.484349     0.000000
    0.000000     0.000000    10.822709
   O  Cu
  18   24 
Direct
    0.270672     0.482334     0.230183
    0.761171     0.515969     0.245652
    0.316043     0.206550     0.404706
    0.686476     0.247616     0.316370
    0.568005     0.314671     0.208961
    0.186581     0.520195     0.457903
    0.534993     0.732049     0.354232
    0.131091     0.538725     0.373529
    0.598982     0.806143     0.371990
    0.614516     0.726318     0.513539
    0.637187     0.207034     0.694459
    0.190330     0.350178     0.879177
    0.824286     0.474891     0.636514
    0.479952     0.522066     0.856601
    0.530074     0.389413     0.880431
    0.725018     0.295004     0.394766
    0.814421     0.292047     0.615234
    0.868909     0.438052     0.561616
    0.345688     0.296704     0.357663
    0.652166     0.241206     0.423832
    0.804807     0.485733     0.485648
    0.713482     0.405920     0.267725
    0.537016     0.372516     0.352023
    0.501097     0.588191     0.124293
    0.605711     0.729727     0.224396
    0.758525     0.752190     0.477788
    0.394720     0.882690     0.452154
    0.141235     0.737237     0.457636
    0.413473     0.649876     0.291672
    0.251688     0.351131     0.553187
    0.507524     0.570510     0.752912
    0.724662     0.406560     0.665709
    0.757032     0.604393     0.589711
    0.324059     0.411697     0.868600
    0.655467     0.237231     0.565839
    0.497206     0.419226     0.731591
    0.140017     0.163411     0.777033
    0.323459     0.096119     0.680504
    0.357287     0.162492     0.853896
    0.687254     0.719423     0.616777
    0.356645     0.776577     0.333900
    0.431937     0.160464     0.531648
EA139   9.579  9.711  9.786 90.00 90.00 90.00 Sym.group:    0
1.0000
    9.578736     0.000000     0.000000
    0.000000     9.711149     0.000000
    0.000000     0.000000     9.785976
   O  Cu
  18   24 
Direct
    0.242247     0.232700     0.428016
    0.140530     0.660999     0.565255
    0.477757     0.142582     0.397567
    0.390760     0.170947     0.637325
    0.312806     0.850780     0.606625
    0.240730     0.790498     0.366555
    0.484550     0.135617     0.575696
    0.309664     0.864383     0.430054
    0.507476     0.302591     0.136756
    0.666086     0.177555     0.297800
    0.774697     0.315256     0.725147
    0.575957     0.136227     0.369528
    0.864825     0.356581     0.653418
    0.740988     0.675950     0.323661
    0.716341     0.799362     0.556729
    0.803588     0.578806     0.680661
    0.828237     0.455393     0.447594
    0.614277     0.662808     0.218133
    0.240851     0.768415     0.658559
    0.377381     0.178672     0.338209
    0.141720     0.670839     0.448185
    0.364770     0.236784     0.541882
    0.249671     0.716478     0.458102
    0.360271     0.238872     0.436351
    0.445978     0.205865     0.488559
    0.249433     0.708666     0.560080
    0.309455     0.780410     0.513614
    0.463080     0.745574     0.747210
    0.187045     0.443479     0.491515
    0.453455     0.772806     0.273428
    0.680561     0.423600     0.830355
    0.625503     0.276148     0.159847
    0.588328     0.262784     0.271204
    0.727225     0.422386     0.721306
    0.510360     0.227030     0.333255
    0.616955     0.504620     0.135381
    0.728155     0.234477     0.513361
    0.574140     0.863773     0.597665
    0.829671     0.650787     0.498601
    0.600772     0.557405     0.512808
    0.700347     0.598029     0.506628
    0.602237     0.734217     0.138942
EA140  12.264 13.309  8.784 90.00 90.00 90.00 Sym.group:    0
1.0000
   12.264178     0.000000     0.000000
    0.000000    13.308980     0.000000
    0.000000     0.000000     8.784238
   O  Cu
  18   24 
Direct
    0.599734     0.232452     0.325542
    0.555817     0.283931     0.324602
    0.712809     0.382667     0.315686
    0.756726     0.331189     0.316625
    0.765953     0.131934     0.235990
    0.494725     0.449862     0.230189
    0.639134     0.541520     0.432930
    0.910362     0.223592     0.438732
    0.274626     0.758430     0.491804
    0.327678     0.696244     0.492938
    0.863228     0.589261     0.533799
    0.734027     0.204983     0.570238
    0.276429     0.609056     0.787071
    0.580417     0.838991     0.667809
    0.371365     0.217217     0.726768
    0.645552     0.481892     0.851369
    0.222144     0.289830     0.609010
    0.714426     0.323115     0.738168
    0.399782     0.611726     0.494481
    0.202523     0.842949     0.490261
    0.533213     0.455321     0.497335
    0.512667     0.651896     0.446406
    0.164791     0.849003     0.271034
    0.281367     0.923022     0.441459
    0.511931     0.216460     0.247870
    0.768876     0.377790     0.165273
    0.660660     0.194473     0.267330
    0.532276     0.344963     0.264584
    0.696346     0.448555     0.357208
    0.824730     0.298065     0.359954
    0.455927     0.551377     0.860660
    0.837392     0.383768     0.558770
    0.381904     0.148756     0.533306
    0.750618     0.741922     0.613890
    0.241500     0.728263     0.622491
    0.509557     0.330025     0.826593
    0.301037     0.401860     0.790271
    0.413225     0.858156     0.555119
    0.787413     0.540195     0.717583
    0.627652     0.681270     0.793288
    0.559536     0.173598     0.667779
    0.168514     0.511181     0.643076
EA141  11.097  9.328  7.920 90.00 90.00 90.00 Sym.group:    0
1.0000
   11.096783     0.000000     0.000000
    0.000000     9.327730     0.000000
    0.000000     0.000000     7.920438
   O  Cu
  18   24 
Direct
    0.433529     0.216803     0.649903
    0.286821     0.548203     0.434211
    0.421989     0.207525     0.432895
    0.298362     0.557480     0.651219
    0.207668     0.169862     0.427515
    0.174762     0.311182     0.758240
    0.225231     0.183980     0.757749
    0.157200     0.297064     0.428006
    0.407632     0.301397     0.337460
    0.875977     0.520304     0.530997
    0.626508     0.847763     0.389592
    0.584109     0.659213     0.146759
    0.753794     0.296312     0.700351
    0.734544     0.581262     0.803064
    0.593362     0.191387     0.294124
    0.814127     0.638264     0.671652
    0.688358     0.729802     0.248937
    0.701773     0.395526     0.818652
    0.356430     0.500341     0.733507
    0.428657     0.318299     0.732804
    0.335405     0.483439     0.338163
    0.338345     0.227406     0.560467
    0.256963     0.432523     0.561259
    0.497271     0.362851     0.612003
    0.406711     0.556464     0.416877
    0.486852     0.354475     0.416097
    0.417130     0.564839     0.612783
    0.352575     0.471657     0.536069
    0.409432     0.328353     0.535516
    0.116758     0.177955     0.615273
    0.516677     0.277016     0.178835
    0.848415     0.364087     0.544108
    0.823798     0.601323     0.340559
    0.721489     0.796449     0.573224
    0.502763     0.371374     0.870666
    0.608292     0.455401     0.129334
    0.766820     0.278386     0.367662
    0.556972     0.678609     0.844880
    0.610302     0.166276     0.626112
    0.740586     0.676636     0.461989
    0.666117     0.254565     0.497412
    0.525566     0.522623     0.817037
EA142   8.745  9.544  9.554 90.00 90.00 90.00 Sym.group:    0
1.0000
    8.744854     0.000000     0.000000
    0.000000     9.543631     0.000000
    0.000000     0.000000     9.553742
   O  Cu
  18   24 
Direct
    0.678686     0.132594     0.377992
    0.559910     0.280753     0.802475
    0.668773     0.263401     0.168545
    0.862892     0.312791     0.334967
    0.235583     0.406881     0.205311
    0.306231     0.320334     0.760355
    0.147572     0.443207     0.357299
    0.817979     0.343521     0.231895
    0.304861     0.428956     0.801462
    0.283717     0.491520     0.137420
    0.675900     0.528670     0.157576
    0.809465     0.777261     0.503926
    0.649840     0.557449     0.860546
    0.508159     0.606285     0.150387
    0.826280     0.566308     0.334924
    0.831394     0.605907     0.648110
    0.444891     0.742780     0.318581
    0.450005     0.782379     0.631766
    0.558712     0.439180     0.862580
    0.614949     0.175219     0.226797
    0.457921     0.234427     0.761519
    0.779423     0.189132     0.422911
    0.750578     0.276897     0.358750
    0.422750     0.338413     0.738546
    0.663435     0.228282     0.319999
    0.711911     0.303393     0.269281
    0.511027     0.379668     0.774330
    0.422009     0.432754     0.774269
    0.245746     0.472369     0.300591
    0.445802     0.324837     0.172395
    0.617723     0.199838     0.588126
    0.206595     0.434512     0.590987
    0.279251     0.522073     0.762291
    0.394827     0.686970     0.530755
    0.320920     0.578969     0.633782
    0.367070     0.627867     0.384574
    0.546803     0.539043     0.592471
    0.572941     0.568784     0.471740
    0.567515     0.526769     0.139454
    0.727971     0.815226     0.453987
    0.591954     0.636445     0.842837
    0.357796     0.549148     0.501094
EA143  10.083  8.729  9.937 90.00 90.00 90.00 Sym.group:    0
1.0000
   10.082968     0.000000     0.000000
    0.000000     8.729425     0.000000
    0.000000     0.000000     9.937177
   O  Cu
  18   24 
Direct
    0.451995     0.432252     0.182951
    0.283697     0.248739     0.362754
    0.722038     0.520877     0.260055
    0.344511     0.757525     0.303234
    0.176213     0.574011     0.483036
    0.614555     0.846150     0.380337
    0.620039     0.757448     0.334697
    0.351738     0.655940     0.281991
    0.206200     0.475654     0.475827
    0.799338     0.373461     0.727815
    0.769290     0.640661     0.756078
    0.606276     0.466238     0.857819
    0.632371     0.589429     0.844559
    0.429862     0.148723     0.548409
    0.150471     0.554452     0.576072
    0.317978     0.396220     0.756393
    0.674737     0.650769     0.779845
    0.665189     0.504514     0.142181
    0.671034     0.603124     0.277629
    0.402733     0.501615     0.224923
    0.257195     0.321329     0.418759
    0.630413     0.560146     0.384044
    0.469788     0.515929     0.323089
    0.355997     0.405482     0.420445
    0.597170     0.660746     0.421245
    0.436546     0.616529     0.360290
    0.322754     0.506082     0.457645
    0.408955     0.666781     0.124688
    0.126480     0.408265     0.338556
    0.782476     0.758518     0.286131
    0.837305     0.552685     0.708521
    0.705226     0.338247     0.788634
    0.663191     0.446625     0.758864
    0.744605     0.477088     0.706254
    0.685767     0.553195     0.747393
    0.789365     0.699890     0.530719
    0.414217     0.559510     0.773151
    0.295946     0.752995     0.512583
    0.237152     0.543100     0.665220
    0.405440     0.459332     0.638785
    0.187194     0.253643     0.522073
    0.248118     0.615475     0.548295
EA144   9.681  9.947  9.206 90.00 90.00 90.00 Sym.group:    0
1.0000
    9.681448     0.000000     0.000000
    0.000000     9.946828     0.000000
    0.000000     0.000000     9.205675
   O  Cu
  18   24 
Direct
    0.308264     0.607241     0.239027
    0.295859     0.230585     0.648288
    0.368018     0.689613     0.236912
    0.367192     0.872713     0.515213
    0.253827     0.585819     0.826162
    0.125987     0.445109     0.666154
    0.300782     0.347915     0.812689
    0.179164     0.348135     0.693921
    0.399824     0.843775     0.347337
    0.450786     0.872563     0.596850
    0.565243     0.140054     0.457428
    0.741469     0.453111     0.170487
    0.673599     0.181103     0.585810
    0.605004     0.859946     0.377356
    0.516513     0.615226     0.156617
    0.571180     0.309212     0.228788
    0.502685     0.807137     0.647954
    0.762880     0.708557     0.448516
    0.437257     0.127287     0.602885
    0.437177     0.442361     0.195607
    0.255587     0.365710     0.473844
    0.170232     0.585969     0.744527
    0.331195     0.444737     0.866559
    0.218016     0.493862     0.701239
    0.264021     0.409973     0.725259
    0.432938     0.806758     0.451015
    0.290331     0.493732     0.771861
    0.304171     0.739065     0.678035
    0.817547     0.402543     0.520687
    0.591137     0.311995     0.764730
    0.663783     0.660939     0.560685
    0.725867     0.512676     0.562973
    0.634898     0.428181     0.680264
    0.516592     0.524224     0.750465
    0.534444     0.668076     0.676561
    0.571297     0.534133     0.416437
    0.551855     0.422179     0.479047
    0.513297     0.858812     0.339863
    0.792074     0.518250     0.220120
    0.654743     0.168761     0.485923
    0.591517     0.549879     0.618228
    0.695963     0.273205     0.686871
EA145   8.910  8.339  9.749 90.00 90.00 90.00 Sym.group:    0
1.0000
    8.909949     0.000000     0.000000
    0.000000     8.338634     0.000000
    0.000000     0.000000     9.749088
   O  Cu
  18   24 
Direct
    0.374059     0.483844     0.147256
    0.633593     0.170250     0.414373
    0.512211     0.334540     0.837374
    0.214286     0.435569     0.710065
    0.335101     0.212299     0.427107
    0.809783     0.482888     0.360415
    0.396559     0.162139     0.572965
    0.161563     0.523811     0.735707
    0.577169     0.818396     0.247374
    0.357255     0.799064     0.262297
    0.730486     0.814496     0.481623
    0.721067     0.604771     0.224424
    0.230474     0.770543     0.515553
    0.221054     0.560818     0.258354
    0.169463     0.802653     0.648864
    0.778258     0.243365     0.657586
    0.620708     0.422026     0.864804
    0.559222     0.732450     0.185080
    0.487432     0.458874     0.135460
    0.420233     0.261093     0.278109
    0.318425     0.395807     0.710019
    0.510772     0.481582     0.844832
    0.508999     0.186906     0.436653
    0.431713     0.333547     0.555325
    0.676528     0.161061     0.687138
    0.827846     0.254961     0.576448
    0.789481     0.343986     0.761892
    0.782767     0.502278     0.788919
    0.194448     0.630792     0.767462
    0.428073     0.587844     0.827080
    0.716433     0.730641     0.692059
    0.834455     0.596805     0.536830
    0.576748     0.579995     0.533408
    0.455021     0.519713     0.590406
    0.730852     0.593467     0.367615
    0.233687     0.608515     0.551311
    0.226948     0.549171     0.401807
    0.482120     0.596653     0.454993
    0.468317     0.844526     0.289259
    0.737590     0.652812     0.517118
    0.230827     0.365333     0.404953
    0.531546     0.432934     0.489754
EA146  27.506 16.390 12.919 90.00 90.00 90.00 Sym.group:    0
1.0000
   27.505582     0.000000     0.000000
    0.000000    16.390188     0.000000
    0.000000     0.000000    12.918929
   O  Cu
  18   24 
Direct
    0.286827     0.512402     0.447436
    0.713173     0.512402     0.552564
    0.343006     0.532771     0.584968
    0.656994     0.532771     0.415032
    0.569955     0.454018     0.424156
    0.430045     0.454018     0.575844
    0.788548     0.500101     0.517989
    0.211452     0.500101     0.482011
    0.758429     0.491606     0.527055
    0.241571     0.491606     0.472945
    0.457055     0.641416     0.423131
    0.542945     0.641416     0.576869
    0.540189     0.447283     0.387803
    0.459811     0.447283     0.612197
    0.607971     0.374261     0.433683
    0.392029     0.374261     0.566317
    0.619974     0.434665     0.610506
    0.380026     0.434665     0.389494
    0.603911     0.379355     0.502207
    0.396089     0.379355     0.497793
    0.338452     0.318596     0.475228
    0.661548     0.318596     0.524772
    0.437877     0.578515     0.396233
    0.562123     0.578515     0.603767
    0.555010     0.520237     0.399816
    0.444990     0.520237     0.600184
    0.214676     0.574033     0.455852
    0.785324     0.574033     0.544148
    0.388327     0.485365     0.581737
    0.611673     0.485365     0.418263
    0.244818     0.605256     0.491274
    0.755182     0.605256     0.508726
    0.736538     0.530205     0.463942
    0.263462     0.530205     0.536058
    0.182145     0.561881     0.501604
    0.817855     0.561881     0.498396
    0.569868     0.694329     0.533338
    0.430132     0.694329     0.466662
    0.269171     0.453840     0.577499
    0.730829     0.453840     0.422501
    0.752823     0.409864     0.516235
    0.247177     0.409864     0.483765
EA147  16.996 17.464 13.899 90.00 90.00 90.00 Sym.group:    0
1.0000
   16.995783     0.000000     0.000000
    0.000000    17.463765     0.000000
    0.000000     0.000000    13.899361
   O  Cu
  18   24 
Direct
    0.632405     0.398248     0.575129
    0.475656     0.337531     0.575129
    0.343252     0.439283     0.575129
    0.367595     0.601752     0.575129
    0.524344     0.662469     0.575129
    0.656748     0.560717     0.575129
    0.632405     0.398248     0.424871
    0.475656     0.337531     0.424871
    0.343252     0.439283     0.424871
    0.367595     0.601752     0.424871
    0.524344     0.662469     0.424871
    0.656748     0.560717     0.424871
    0.504444     0.664252     0.360448
    0.648385     0.578380     0.360448
    0.643941     0.414128     0.360448
    0.495556     0.335748     0.360448
    0.351615     0.421620     0.360448
    0.356059     0.585872     0.360448
    0.504444     0.664252     0.639552
    0.648385     0.578380     0.639552
    0.643941     0.414128     0.639552
    0.495556     0.335748     0.639552
    0.351615     0.421620     0.639552
    0.356059     0.585872     0.639552
    0.378106     0.662129     0.437760
    0.583327     0.683799     0.437760
    0.705221     0.521670     0.437760
    0.621894     0.337871     0.437760
    0.416673     0.316201     0.437760
    0.294779     0.478330     0.437760
    0.378106     0.662129     0.562240
    0.583327     0.683799     0.562240
    0.705221     0.521670     0.562240
    0.621894     0.337871     0.562240
    0.416673     0.316201     0.562240
    0.294779     0.478330     0.562240
    0.700679     0.412031     0.500000
    0.522058     0.286880     0.500000
    0.321379     0.374849     0.500000
    0.299321     0.587969     0.500000
    0.477942     0.713120     0.500000
    0.678621     0.625151     0.500000
EA148  16.722 19.442 19.442 90.00 90.00 90.00 Sym.group:    0
1.0000
   16.721637     0.000000     0.000000
    0.000000    19.441986     0.000000
    0.000000     0.000000    19.441986
   O  Cu
  18   24 
Direct
    0.595096     0.522808     0.404853
    0.595096     0.404853     0.477192
    0.595096     0.477192     0.595147
    0.595096     0.595147     0.522808
    0.404904     0.595147     0.477192
    0.404904     0.522808     0.595147
    0.404904     0.404853     0.522808
    0.404904     0.477192     0.404853
    0.404904     0.522808     0.404853
    0.404904     0.404853     0.477192
    0.404904     0.477192     0.595147
    0.404904     0.595147     0.522808
    0.595096     0.595147     0.477192
    0.595096     0.522808     0.595147
    0.595096     0.404853     0.522808
    0.595096     0.477192     0.404853
    0.299612     0.500000     0.500000
    0.700388     0.500000     0.500000
    0.343392     0.535734     0.408525
    0.343392     0.408525     0.464266
    0.343392     0.464266     0.591475
    0.343392     0.591475     0.535734
    0.656608     0.591475     0.464266
    0.656608     0.535734     0.591475
    0.656608     0.408525     0.535734
    0.656608     0.464266     0.408525
    0.656608     0.535734     0.408525
    0.656608     0.408525     0.464266
    0.656608     0.464266     0.591475
    0.656608     0.591475     0.535734
    0.343392     0.591475     0.464266
    0.343392     0.535734     0.591475
    0.343392     0.408525     0.535734
    0.343392     0.464266     0.408525
    0.500000     0.500000     0.663889
    0.500000     0.663889     0.500000
    0.500000     0.500000     0.336111
    0.500000     0.336111     0.500000
    0.500000     0.500000     0.742310
    0.500000     0.742310     0.500000
    0.500000     0.500000     0.257690
    0.500000     0.257690     0.500000
EA149  21.220 14.829 14.829 90.00 90.00 90.00 Sym.group:    0
1.0000
   21.219629     0.000000     0.000000
    0.000000    14.828714     0.000000
    0.000000     0.000000    14.828714
   O  Cu
  18   24 
Direct
    0.263448     0.620414     0.510859
    0.737754     0.510859     0.379586
    0.263448     0.379586     0.489141
    0.737754     0.489141     0.620414
    0.539733     0.337858     0.531096
    0.461469     0.531096     0.662142
    0.539733     0.662142     0.468904
    0.461469     0.468904     0.337858
    0.454017     0.415402     0.419261
    0.547184     0.419261     0.584598
    0.454017     0.584598     0.580739
    0.547184     0.580739     0.415402
    0.763898     0.552808     0.456840
    0.237303     0.456840     0.447192
    0.763898     0.447192     0.543160
    0.237303     0.543160     0.552808
    0.357565     0.521688     0.338747
    0.643636     0.338747     0.478312
    0.357565     0.478312     0.661253
    0.643636     0.661253     0.521688
    0.696007     0.499517     0.395123
    0.305195     0.395123     0.500483
    0.696007     0.500483     0.604877
    0.305195     0.604877     0.499517
    0.318886     0.474059     0.478963
    0.682315     0.478963     0.525941
    0.318886     0.525941     0.521037
    0.682315     0.521037     0.474059
    0.397245     0.347377     0.590610
    0.603957     0.590610     0.652623
    0.397245     0.652623     0.409390
    0.603957     0.409390     0.347377
    0.704329     0.400008     0.458328
    0.296872     0.458328     0.599992
    0.704329     0.599992     0.541672
    0.296872     0.541672     0.400008
    0.515018     0.542358     0.654966
    0.486183     0.654966     0.457642
    0.515018     0.457642     0.345034
    0.486183     0.345034     0.542358
    0.420048     0.500000     0.500000
    0.555927     0.500000     0.500000
EA150  17.735 17.817 13.588 90.00 90.00 90.00 Sym.group:    0
1.0000
   17.734920     0.000000     0.000000
    0.000000    17.817055     0.000000
    0.000000     0.000000    13.588230
   O  Cu
  18   24 
Direct
    0.664345     0.642428     0.533218
    0.686870     0.388431     0.533218
    0.451146     0.288619     0.533218
    0.282937     0.480928     0.533218
    0.414701     0.699594     0.533218
    0.717506     0.513140     0.533218
    0.554658     0.709968     0.533218
    0.316274     0.616627     0.533218
    0.331793     0.362111     0.533218
    0.579768     0.298153     0.533218
    0.587721     0.583394     0.587623
    0.606787     0.442727     0.587623
    0.478277     0.381209     0.587623
    0.379787     0.483856     0.587623
    0.447428     0.608813     0.587623
    0.621289     0.501758     0.587623
    0.535801     0.615364     0.587623
    0.400837     0.569541     0.587623
    0.402913     0.427615     0.587623
    0.539160     0.385722     0.587623
    0.399909     0.524363     0.443913
    0.492348     0.602282     0.443913
    0.595362     0.538851     0.443913
    0.566589     0.421729     0.443913
    0.445793     0.412775     0.443913
    0.541388     0.566597     0.478784
    0.576420     0.481399     0.478784
    0.505842     0.421907     0.478784
    0.427191     0.470337     0.478784
    0.449159     0.559760     0.478784
    0.429991     0.582290     0.384380
    0.556991     0.591704     0.384380
    0.605231     0.474386     0.384380
    0.508045     0.392465     0.384380
    0.399741     0.459154     0.384380
    0.285878     0.552119     0.484226
    0.483630     0.718809     0.484226
    0.704005     0.583112     0.484226
    0.642452     0.332558     0.484226
    0.384035     0.313402     0.484226
    0.500000     0.500000     0.466365
    0.500000     0.500000     0.368701
EA151   9.609 10.022  8.485 90.00 90.00 90.00 Sym.group:    0
1.0000
    9.609042     0.000000     0.000000
    0.000000    10.021644     0.000000
    0.000000     0.000000     8.484701
   O  Cu
  18   24 
Direct
    0.678651     0.230831     0.725702
    0.137371     0.472019     0.395876
    0.166319     0.384415     0.657811
    0.160545     0.620690     0.607114
    0.516243     0.131715     0.554681
    0.649336     0.159854     0.419303
    0.175104     0.541642     0.701833
    0.478566     0.759571     0.280435
    0.663653     0.785233     0.752511
    0.862629     0.525736     0.377389
    0.841457     0.369830     0.658944
    0.686517     0.257138     0.319238
    0.436081     0.481118     0.155574
    0.407179     0.816389     0.624990
    0.854690     0.531013     0.699568
    0.596361     0.521590     0.160520
    0.207111     0.456515     0.714458
    0.402094     0.206024     0.352917
    0.148449     0.356646     0.532137
    0.140207     0.580123     0.425141
    0.529884     0.158336     0.679369
    0.201368     0.548466     0.526391
    0.197359     0.454858     0.500147
    0.599324     0.209419     0.520791
    0.211647     0.479364     0.608925
    0.609897     0.233635     0.628912
    0.332129     0.246731     0.614237
    0.298756     0.570618     0.226805
    0.353509     0.684350     0.738406
    0.744244     0.329405     0.669956
    0.702951     0.360574     0.333085
    0.644587     0.567022     0.844426
    0.851385     0.474899     0.505892
    0.478748     0.639527     0.226243
    0.541694     0.768596     0.747881
    0.450831     0.675087     0.594585
    0.715097     0.508869     0.644052
    0.570080     0.504814     0.323478
    0.754475     0.749873     0.298301
    0.651336     0.868285     0.447507
    0.820969     0.775499     0.516220
    0.632154     0.677355     0.756458
EA152  11.571 10.001  9.278 90.00 90.00 90.00 Sym.group:    0
1.0000
   11.571022     0.000000     0.000000
    0.000000    10.000912     0.000000
    0.000000     0.000000     9.277665
   O  Cu
  18   24 
Direct
    0.284443     0.415236     0.754987
    0.775572     0.551877     0.784510
    0.322984     0.868012     0.682309
    0.588075     0.622241     0.142277
    0.291672     0.229950     0.497927
    0.760270     0.390041     0.625100
    0.379296     0.692863     0.324616
    0.397481     0.299525     0.202139
    0.624240     0.131988     0.397328
    0.395141     0.139601     0.690150
    0.598398     0.318581     0.857723
    0.600655     0.694135     0.746035
    0.491413     0.639745     0.842925
    0.510208     0.767924     0.366140
    0.297961     0.413779     0.239203
    0.690283     0.257290     0.313836
    0.280382     0.192858     0.579293
    0.690694     0.256939     0.736025
    0.475744     0.389811     0.233922
    0.514129     0.154096     0.385009
    0.501253     0.167384     0.686320
    0.510928     0.396060     0.815148
    0.625536     0.622164     0.635779
    0.358462     0.619961     0.426857
    0.506927     0.652507     0.234214
    0.321510     0.264144     0.345445
    0.711195     0.259361     0.504039
    0.317538     0.295714     0.713665
    0.697241     0.433516     0.775439
    0.439679     0.750081     0.706486
    0.477833     0.552894     0.694153
    0.527964     0.607513     0.430018
    0.378037     0.434065     0.371575
    0.578504     0.330077     0.385337
    0.408356     0.269024     0.547546
    0.592876     0.337357     0.666971
    0.114078     0.489312     0.640392
    0.885922     0.569492     0.480079
    0.174724     0.658688     0.714218
    0.752067     0.730885     0.416430
    0.203288     0.643955     0.492447
    0.775289     0.567456     0.303699
EA153   9.565 10.007  8.458 90.00 90.00 90.00 Sym.group:    0
1.0000
    9.565034     0.000000     0.000000
    0.000000    10.007137     0.000000
    0.000000     0.000000     8.458205
   O  Cu
  18   24 
Direct
    0.675039     0.238890     0.718139
    0.138003     0.471117     0.399008
    0.162702     0.383671     0.663690
    0.166240     0.621011     0.612986
    0.516285     0.131906     0.550515
    0.650423     0.158523     0.414716
    0.173625     0.541082     0.708067
    0.472319     0.757065     0.269043
    0.666976     0.785111     0.752390
    0.861508     0.525063     0.382038
    0.846321     0.368027     0.664480
    0.678150     0.255651     0.319359
    0.441368     0.481554     0.161390
    0.407135     0.811328     0.619129
    0.861997     0.529328     0.705394
    0.600982     0.527329     0.156061
    0.203570     0.455227     0.719271
    0.402947     0.209961     0.347765
    0.150185     0.354767     0.537959
    0.144159     0.579379     0.429497
    0.531151     0.158457     0.675545
    0.205237     0.546893     0.531094
    0.199796     0.453197     0.504554
    0.600312     0.208861     0.516950
    0.211718     0.477775     0.613297
    0.610760     0.234293     0.625762
    0.331259     0.244943     0.609048
    0.297718     0.563820     0.235315
    0.357950     0.676364     0.734507
    0.748557     0.328550     0.672266
    0.701096     0.358258     0.333215
    0.654878     0.566307     0.843939
    0.853643     0.473502     0.511000
    0.476203     0.639143     0.222886
    0.544738     0.765631     0.744819
    0.454697     0.671336     0.591377
    0.720179     0.508414     0.645539
    0.568880     0.503827     0.322276
    0.752306     0.750717     0.298406
    0.650800     0.868094     0.444868
    0.822787     0.775266     0.518347
    0.638103     0.676393     0.755495
EA154  10.441 11.273  6.071 90.00 90.00 90.00 Sym.group:    0
1.0000
   10.441134     0.000000     0.000000
    0.000000    11.272770     0.000000
    0.000000     0.000000     6.071328
   O  Cu
  18   24 
Direct
    0.786529     0.419620     0.217415
    0.711484     0.678941     0.244472
    0.437167     0.769481     0.217415
    0.232225     0.579624     0.244472
    0.284725     0.314315     0.217415
    0.564716     0.244852     0.244472
    0.770853     0.420850     0.755250
    0.720473     0.690899     0.782585
    0.443854     0.756291     0.755250
    0.216550     0.580855     0.782585
    0.293714     0.326273     0.755250
    0.571402     0.231663     0.782585
    0.593919     0.245976     0.641242
    0.777929     0.445371     0.613860
    0.695832     0.701804     0.641242
    0.417390     0.749707     0.613860
    0.218674     0.555637     0.641242
    0.313103     0.308337     0.613860
    0.590849     0.251994     0.385809
    0.785091     0.444825     0.358812
    0.691740     0.696332     0.385809
    0.414319     0.755725     0.358812
    0.225837     0.555091     0.385809
    0.309011     0.302865     0.358812
    0.341958     0.563783     0.420417
    0.361900     0.401656     0.413060
    0.524661     0.340794     0.420417
    0.666279     0.437853     0.413060
    0.641804     0.598839     0.420417
    0.480244     0.663907     0.413060
    0.337342     0.565252     0.586801
    0.365582     0.404624     0.579444
    0.525596     0.336356     0.586801
    0.661663     0.439321     0.579444
    0.645486     0.601808     0.586801
    0.481178     0.659470     0.579444
    0.873577     0.332423     0.477520
    0.844586     0.720918     0.522341
    0.475173     0.882904     0.477520
    0.126423     0.665400     0.522341
    0.159672     0.288091     0.477521
    0.537415     0.117096     0.522341
EA155  11.019  9.646  8.417 90.00 90.00 90.00 Sym.group:    0
1.0000
   11.019195     0.000000     0.000000
    0.000000     9.645508     0.000000
    0.000000     0.000000     8.417432
   O  Cu
  18   24 
Direct
    0.359762     0.356123     0.755082
    0.819405     0.583746     0.664326
    0.339161     0.789747     0.622237
    0.574875     0.743168     0.777753
    0.562123     0.855566     0.385586
    0.653673     0.405398     0.805524
    0.733344     0.326152     0.668685
    0.469897     0.644165     0.843183
    0.698119     0.814649     0.459983
    0.735059     0.654636     0.191493
    0.692694     0.217661     0.357110
    0.153225     0.674872     0.497047
    0.159801     0.450262     0.344651
    0.598594     0.863149     0.265601
    0.239275     0.673961     0.232300
    0.475954     0.176205     0.287346
    0.643402     0.219925     0.263049
    0.119791     0.574684     0.506036
    0.566095     0.247053     0.490539
    0.562259     0.428354     0.772098
    0.636101     0.699428     0.696162
    0.432441     0.757133     0.695078
    0.404269     0.292183     0.647771
    0.753252     0.497118     0.708452
    0.638831     0.407007     0.584003
    0.502276     0.592325     0.681765
    0.619408     0.695330     0.465482
    0.826649     0.479064     0.196024
    0.880209     0.413192     0.410183
    0.878570     0.608544     0.374048
    0.436550     0.136851     0.395144
    0.195908     0.486394     0.240241
    0.615407     0.793460     0.177282
    0.226965     0.498092     0.720472
    0.652770     0.442171     0.179412
    0.438882     0.686683     0.156817
    0.278203     0.274150     0.436301
    0.403415     0.834320     0.343965
    0.356977     0.352444     0.212701
    0.552020     0.497851     0.425056
    0.428662     0.457105     0.438443
    0.460617     0.600272     0.415800
EA156  10.551  9.884 10.900 90.00 90.00 90.00 Sym.group:    0
1.0000
   10.550702     0.000000     0.000000
    0.000000     9.883758     0.000000
    0.000000     0.000000    10.900300
   O  Cu
  18   24 
Direct
    0.693172     0.299438     0.777562
    0.698902     0.610939     0.202278
    0.337010     0.744801     0.419646
    0.319934     0.157688     0.649132
    0.721027     0.525558     0.619902
    0.648425     0.522391     0.868501
    0.255903     0.375097     0.470582
    0.439523     0.785879     0.631749
    0.874890     0.434303     0.211557
    0.378455     0.159256     0.446435
    0.125110     0.791590     0.567776
    0.633782     0.360965     0.123595
    0.766776     0.326198     0.121098
    0.611730     0.615122     0.698744
    0.246026     0.866448     0.657203
    0.368342     0.308552     0.381930
    0.830146     0.556524     0.284862
    0.634216     0.538746     0.136923
    0.208091     0.231986     0.572585
    0.433633     0.769201     0.474042
    0.774308     0.410171     0.694288
    0.410270     0.133552     0.585425
    0.201770     0.657326     0.452430
    0.637927     0.359942     0.865664
    0.606927     0.435799     0.780383
    0.678232     0.445573     0.180687
    0.372449     0.718349     0.560194
    0.404815     0.239402     0.533662
    0.664225     0.388265     0.710975
    0.620211     0.490056     0.669981
    0.326419     0.263620     0.589269
    0.242825     0.753148     0.602163
    0.735286     0.506282     0.235880
    0.364189     0.338695     0.496017
    0.301513     0.683177     0.507366
    0.773212     0.403340     0.192880
    0.774814     0.347715     0.460487
    0.135011     0.502965     0.727602
    0.485156     0.186383     0.811630
    0.488238     0.589440     0.337444
    0.294651     0.574016     0.878902
    0.627061     0.197832     0.354455
EA157   9.748 10.946 10.674 90.00 90.00 90.00 Sym.group:    0
1.0000
    9.747935     0.000000     0.000000
    0.000000    10.946109     0.000000
    0.000000     0.000000    10.674105
   O  Cu
  18   24 
Direct
    0.864587     0.529260     0.437105
    0.294163     0.362361     0.348169
    0.296287     0.682734     0.543845
    0.135413     0.470740     0.562895
    0.719927     0.290216     0.773766
    0.584313     0.879409     0.303540
    0.601449     0.565342     0.174072
    0.705837     0.637639     0.651831
    0.415687     0.120591     0.696460
    0.398551     0.434658     0.825928
    0.280073     0.709784     0.226234
    0.703713     0.317266     0.456155
    0.455454     0.817558     0.433142
    0.544546     0.182442     0.566858
    0.763265     0.553005     0.280352
    0.236735     0.446995     0.719648
    0.259483     0.529547     0.259578
    0.740517     0.470453     0.740422
    0.424145     0.689210     0.123664
    0.575855     0.310790     0.876336
    0.806691     0.387940     0.442117
    0.193309     0.612060     0.557883
    0.374883     0.164334     0.493935
    0.625117     0.835666     0.506065
    0.481486     0.357917     0.417115
    0.518514     0.642083     0.582885
    0.821319     0.427077     0.627803
    0.178681     0.572923     0.372197
    0.380583     0.261837     0.803848
    0.619417     0.738163     0.196152
    0.559293     0.128263     0.793287
    0.440707     0.871737     0.206713
    0.831113     0.623339     0.541561
    0.168887     0.376661     0.458439
    0.342091     0.579394     0.700138
    0.657909     0.420606     0.299862
    0.550044     0.507052     0.732325
    0.449956     0.492948     0.267675
    0.767929     0.705498     0.351077
    0.232071     0.294502     0.648923
    0.221895     0.678155     0.401391
    0.778105     0.321845     0.598609
EA158  10.519  8.792  8.823 90.00 90.00 90.00 Sym.group:    0
1.0000
   10.518545     0.000000     0.000000
    0.000000     8.791739     0.000000
    0.000000     0.000000     8.822744
   O  Cu
  18   24 
Direct
    0.267490     0.281859     0.659287
    0.732510     0.252498     0.391392
    0.267490     0.470638     0.232106
    0.732510     0.718141     0.340713
    0.267490     0.747502     0.608608
    0.732510     0.529362     0.767894
    0.548310     0.590690     0.149613
    0.451689     0.849859     0.403070
    0.548311     0.759170     0.753457
    0.451690     0.409310     0.850387
    0.548311     0.150141     0.596930
    0.451689     0.240830     0.246543
    0.336076     0.211903     0.360343
    0.663924     0.477325     0.181550
    0.336075     0.765419     0.321207
    0.663924     0.788097     0.639657
    0.336076     0.522675     0.818450
    0.663925     0.234581     0.678793
    0.535893     0.792601     0.418215
    0.464107     0.717380     0.711618
    0.535894     0.424776     0.793403
    0.464107     0.207399     0.581785
    0.535893     0.282620     0.288382
    0.464106     0.575224     0.206597
    0.663333     0.649356     0.260444
    0.336667     0.782870     0.509114
    0.663333     0.633515     0.748668
    0.336667     0.350644     0.739556
    0.663333     0.217130     0.490886
    0.336667     0.366485     0.251332
    0.415886     0.327803     0.420361
    0.584114     0.483114     0.311576
    0.415886     0.655311     0.391217
    0.584114     0.672197     0.579639
    0.415886     0.516886     0.688424
    0.584114     0.344689     0.608783
    0.125493     0.526029     0.621682
    0.874507     0.407267     0.583303
    0.125493     0.381234     0.461624
    0.874507     0.473971     0.378318
    0.125493     0.592733     0.416697
    0.874507     0.618766     0.538376
EA159  11.501  9.959  9.244 90.00 90.00 90.00 Sym.group:    0
1.0000
   11.501272     0.000000     0.000000
    0.000000     9.959435     0.000000
    0.000000     0.000000     9.243744
   O  Cu
  18   24 
Direct
    0.277014     0.411827     0.760860
    0.771069     0.555807     0.784354
    0.310527     0.867462     0.683306
    0.587881     0.617783     0.142799
    0.283831     0.230216     0.500820
    0.755322     0.393030     0.622144
    0.375697     0.695468     0.319018
    0.386572     0.301056     0.202364
    0.616906     0.132538     0.397023
    0.391062     0.137416     0.689956
    0.594219     0.320759     0.857201
    0.593052     0.698088     0.747074
    0.482692     0.642559     0.842917
    0.507533     0.770016     0.361839
    0.287703     0.416613     0.241616
    0.682913     0.257236     0.310752
    0.273894     0.191100     0.581743
    0.686704     0.259171     0.734422
    0.466278     0.390904     0.232956
    0.506142     0.154671     0.384060
    0.497304     0.167810     0.686097
    0.505835     0.398247     0.815089
    0.619375     0.626351     0.636478
    0.353207     0.624869     0.423182
    0.504822     0.652431     0.231245
    0.312038     0.266274     0.347805
    0.705766     0.261228     0.501254
    0.311719     0.292818     0.717820
    0.693050     0.436386     0.773948
    0.431145     0.752914     0.705323
    0.470899     0.555191     0.693483
    0.523385     0.609534     0.428726
    0.370022     0.436613     0.372893
    0.571214     0.331192     0.383338
    0.401529     0.269871     0.549084
    0.587745     0.339620     0.665810
    0.114770     0.488069     0.626902
    0.885230     0.575681     0.487237
    0.167279     0.653130     0.721443
    0.749049     0.733691     0.417422
    0.201615     0.660676     0.499572
    0.774055     0.566477     0.310550
EA160  11.769 11.016  6.457 90.00 90.00 90.00 Sym.group:    0
1.0000
   11.769271     0.000000     0.000000
    0.000000    11.015807     0.000000
    0.000000     0.000000     6.456879
   O  Cu
  18   24 
Direct
    0.679299     0.271767     0.217065
    0.771127     0.550642     0.220777
    0.596837     0.782905     0.204433
    0.320701     0.728233     0.217065
    0.228873     0.449358     0.220777
    0.403163     0.217095     0.204433
    0.303047     0.303484     0.773916
    0.231055     0.587836     0.787005
    0.438137     0.797638     0.795567
    0.696953     0.696516     0.773916
    0.768945     0.412164     0.787005
    0.561863     0.202362     0.795567
    0.431682     0.334083     0.783303
    0.608701     0.334066     0.783789
    0.673400     0.509829     0.783834
    0.568318     0.665917     0.783303
    0.391299     0.665934     0.783789
    0.326600     0.490171     0.783834
    0.554495     0.316864     0.218329
    0.380963     0.356127     0.214642
    0.330662     0.538595     0.214865
    0.445505     0.683136     0.218329
    0.619037     0.643873     0.214642
    0.669338     0.461405     0.214865
    0.336411     0.351816     0.357685
    0.538927     0.272935     0.360633
    0.700427     0.421922     0.361676
    0.663589     0.648184     0.357685
    0.461073     0.727065     0.360633
    0.299573     0.578078     0.361676
    0.651262     0.323780     0.641914
    0.439225     0.285181     0.638646
    0.294583     0.453169     0.638209
    0.348738     0.676220     0.641914
    0.560775     0.714819     0.638646
    0.705417     0.546831     0.638209
    0.672911     0.119828     0.511601
    0.887844     0.479243     0.504208
    0.716236     0.844510     0.483573
    0.327089     0.880172     0.511601
    0.112156     0.520757     0.504208
    0.283764     0.155490     0.483573
EA161  10.889 11.086 11.274 90.00 90.00 90.00 Sym.group:    0
1.0000
   10.889038     0.000000     0.000000
    0.000000    11.086269     0.000000
    0.000000     0.000000    11.274413
   O  Cu
  18   24 
Direct
    0.606682     0.324781     0.737564
    0.688940     0.608232     0.246948
    0.299425     0.785945     0.422604
    0.317997     0.119066     0.635617
    0.732815     0.408960     0.688758
    0.535582     0.538677     0.735210
    0.219390     0.210852     0.562249
    0.306467     0.880934     0.633130
    0.832082     0.390475     0.314523
    0.513561     0.212081     0.436205
    0.186782     0.629087     0.644710
    0.750882     0.377061     0.117079
    0.685681     0.283797     0.308443
    0.627829     0.557599     0.682096
    0.271680     0.783684     0.699050
    0.314851     0.147797     0.451459
    0.878777     0.490770     0.160534
    0.628495     0.538971     0.184877
    0.315845     0.390382     0.666764
    0.402216     0.811203     0.465316
    0.646113     0.307465     0.546221
    0.425316     0.120597     0.581061
    0.121223     0.803995     0.548860
    0.567530     0.411134     0.801544
    0.525680     0.443997     0.671853
    0.699286     0.447828     0.203208
    0.318789     0.794822     0.567103
    0.440458     0.233419     0.540710
    0.556353     0.371093     0.602142
    0.603935     0.463720     0.624091
    0.391754     0.277695     0.604275
    0.266600     0.732836     0.613019
    0.763070     0.500297     0.245342
    0.331256     0.235988     0.517194
    0.233342     0.776134     0.525479
    0.729464     0.410388     0.299895
    0.872563     0.666361     0.461680
    0.253211     0.502474     0.297472
    0.440577     0.121933     0.882921
    0.477989     0.530414     0.440991
    0.507221     0.773176     0.708310
    0.331162     0.431102     0.213439
EA162  19.254 19.671  9.623 90.00 90.00 90.00 Sym.group:    0
1.0000
   19.254030     0.000000     0.000000
    0.000000    19.670672     0.000000
    0.000000     0.000000     9.622832
   O  Cu
  18   24 
Direct
    0.435581     0.455570     0.703517
    0.676968     0.607707     0.137185
    0.511745     0.564934     0.703517
    0.256445     0.693487     0.137174
    0.376898     0.574815     0.703499
    0.390812     0.294125     0.137174
    0.243577     0.448612     0.794447
    0.296908     0.436142     0.651801
    0.466744     0.741054     0.794447
    0.429051     0.702078     0.651819
    0.613904     0.405655     0.794457
    0.598266     0.457098     0.651819
    0.334847     0.281577     0.862826
    0.357602     0.620247     0.580310
    0.716055     0.566542     0.862814
    0.405031     0.416496     0.580310
    0.273323     0.747200     0.862826
    0.561593     0.558576     0.580326
    0.373834     0.683588     0.219740
    0.195726     0.240565     0.505840
    0.609517     0.513147     0.219748
    0.306602     0.885637     0.505834
    0.340876     0.398580     0.219733
    0.821899     0.469113     0.505825
    0.277592     0.369675     0.455695
    0.426427     0.498932     0.463204
    0.666740     0.473956     0.455685
    0.477957     0.535491     0.463195
    0.379900     0.751686     0.455686
    0.419849     0.560893     0.463205
    0.286742     0.708805     0.616396
    0.283568     0.067105     0.677709
    0.675362     0.574363     0.616403
    0.109202     0.897905     0.677705
    0.362109     0.312153     0.616391
    0.931443     0.630310     0.677697
    0.814967     0.683144     0.569855
    0.778352     0.300792     0.544421
    0.120703     0.772745     0.569857
    0.477316     0.932895     0.544422
    0.388556     0.139460     0.569857
    0.068557     0.361651     0.544421
EA163  11.244 10.854 10.618 90.00 90.00 90.00 Sym.group:    0
1.0000
   11.243779     0.000000     0.000000
    0.000000    10.854397     0.000000
    0.000000     0.000000    10.618096
   O  Cu
  18   24 
Direct
    0.625044     0.398287     0.154920
    0.153016     0.308022     0.455824
    0.691978     0.176239     0.552265
    0.477418     0.290108     0.779787
    0.308439     0.344794     0.210206
    0.424185     0.121610     0.466898
    0.523097     0.145534     0.334067
    0.322635     0.276755     0.730443
    0.225981     0.490517     0.245915
    0.533315     0.609257     0.206543
    0.368092     0.714057     0.439793
    0.797032     0.479632     0.484669
    0.483808     0.681102     0.503572
    0.336270     0.618900     0.639408
    0.655925     0.395406     0.640171
    0.586687     0.591723     0.124316
    0.307098     0.756922     0.503610
    0.855962     0.500317     0.561013
    0.410718     0.345833     0.230218
    0.361003     0.206287     0.493125
    0.549532     0.297424     0.701462
    0.382988     0.437002     0.790201
    0.217116     0.346420     0.355906
    0.584059     0.158441     0.499881
    0.496012     0.285443     0.395865
    0.395894     0.354642     0.622793
    0.340579     0.483655     0.338993
    0.790969     0.273251     0.308142
    0.117398     0.485587     0.662685
    0.882602     0.367394     0.463323
    0.465200     0.803795     0.584885
    0.345242     0.703851     0.684225
    0.781596     0.439211     0.727951
    0.842619     0.699367     0.464603
    0.352410     0.575536     0.875684
    0.238727     0.503854     0.144499
    0.162396     0.663644     0.361852
    0.637207     0.878390     0.462341
    0.708770     0.747751     0.220658
    0.567754     0.480021     0.422673
    0.744608     0.458525     0.338912
    0.443469     0.680117     0.308133
EA164  19.260 19.871 19.882 90.00 90.00 90.00 Sym.group:    0
1.0000
   19.260104     0.000000     0.000000
    0.000000    19.870743     0.000000
    0.000000     0.000000    19.882329
   O  Cu
  18   24 
Direct
    0.606781     0.422338     0.645947
    0.600503     0.576400     0.349476
    0.400123     0.655249     0.434283
    0.402052     0.346748     0.569601
    0.664989     0.521326     0.606131
    0.561480     0.538113     0.680805
    0.333231     0.393488     0.474486
    0.443154     0.680775     0.549967
    0.659787     0.476112     0.388395
    0.437036     0.319665     0.451217
    0.336474     0.607718     0.533550
    0.554666     0.462132     0.316552
    0.595382     0.433444     0.345641
    0.602601     0.566056     0.652121
    0.399638     0.650296     0.578073
    0.393010     0.349493     0.425813
    0.662877     0.534499     0.387362
    0.556186     0.547221     0.320217
    0.337691     0.390379     0.532893
    0.442226     0.682654     0.464869
    0.667476     0.462859     0.605366
    0.441626     0.318724     0.536217
    0.337629     0.612011     0.474985
    0.563145     0.452910     0.676466
    0.571994     0.495644     0.641977
    0.566125     0.503998     0.354687
    0.432115     0.645104     0.506075
    0.429609     0.355883     0.496099
    0.609625     0.469281     0.615510
    0.607698     0.519900     0.617257
    0.394929     0.380485     0.524727
    0.394621     0.618861     0.530462
    0.604554     0.529280     0.379895
    0.391315     0.381876     0.474226
    0.395344     0.621126     0.479840
    0.602042     0.478728     0.379314
    0.671782     0.497207     0.496667
    0.328192     0.500987     0.505306
    0.507158     0.382204     0.608676
    0.501769     0.619403     0.389287
    0.499663     0.615488     0.621566
    0.491703     0.383933     0.377995
EA165  20.289 18.460 19.078 90.00 90.00 90.00 Sym.group:    0
1.0000
   20.288834     0.000000     0.000000
    0.000000    18.459643     0.000000
    0.000000     0.000000    19.078355
   O  Cu
  18   24 
Direct
    0.379106     0.394346     0.580866
    0.620894     0.374794     0.451902
    0.379106     0.480447     0.371035
    0.620894     0.605654     0.419134
    0.379106     0.625206     0.548098
    0.620894     0.519553     0.628965
    0.521132     0.545424     0.336589
    0.478868     0.668974     0.456358
    0.521132     0.623549     0.619768
    0.478868     0.454576     0.663411
    0.521132     0.331026     0.543642
    0.478868     0.376451     0.380232
    0.418934     0.359966     0.431962
    0.581066     0.490881     0.348641
    0.418934     0.630914     0.416680
    0.581066     0.640034     0.568038
    0.418934     0.509119     0.651359
    0.581066     0.369086     0.583320
    0.521194     0.639492     0.462968
    0.478806     0.602893     0.598371
    0.521194     0.463399     0.635403
    0.478806     0.360508     0.537032
    0.521194     0.397107     0.401629
    0.478806     0.536601     0.364597
    0.582729     0.572602     0.385283
    0.417271     0.638978     0.503478
    0.582729     0.566377     0.618194
    0.417271     0.427398     0.614717
    0.582729     0.361022     0.496522
    0.417271     0.433623     0.381806
    0.457222     0.417236     0.460981
    0.542778     0.493542     0.411139
    0.457222     0.576306     0.450159
    0.542778     0.582764     0.539019
    0.457222     0.506458     0.588861
    0.542778     0.423694     0.549841
    0.311501     0.514504     0.555758
    0.688499     0.457347     0.540032
    0.311501     0.442842     0.484275
    0.688499     0.485496     0.444242
    0.311501     0.542653     0.459968
    0.688499     0.557158     0.515725
EA166  19.554 19.554 19.592 90.00 90.00 90.00 Sym.group:    0
1.0000
   19.554390     0.000000     0.000000
    0.000000    19.554390     0.000000
    0.000000     0.000000    19.592055
   O  Cu
  18   24 
Direct
    0.318252     0.500000     0.465734
    0.606122     0.402760     0.384064
    0.571791     0.657337     0.565461
    0.681748     0.500000     0.534266
    0.393878     0.402760     0.615936
    0.428209     0.657337     0.434539
    0.449427     0.500000     0.322429
    0.393878     0.597240     0.615936
    0.571791     0.342663     0.565461
    0.550573     0.500000     0.677571
    0.606122     0.597240     0.384064
    0.428209     0.342663     0.434539
    0.500000     0.677762     0.500000
    0.500000     0.322238     0.500000
    0.368762     0.500000     0.380332
    0.631238     0.500000     0.619668
    0.619899     0.500000     0.369014
    0.380101     0.500000     0.630986
    0.531381     0.554932     0.334195
    0.468619     0.445068     0.665805
    0.356775     0.411119     0.443664
    0.643225     0.588881     0.556336
    0.600504     0.356188     0.471486
    0.399496     0.643812     0.528514
    0.519394     0.356188     0.397527
    0.480606     0.643812     0.602473
    0.337380     0.445068     0.546136
    0.662620     0.554932     0.453864
    0.569124     0.411119     0.637290
    0.430876     0.588881     0.362710
    0.480606     0.356188     0.602473
    0.519394     0.643812     0.397527
    0.337380     0.554932     0.546136
    0.662620     0.445068     0.453864
    0.569124     0.588881     0.637290
    0.430876     0.411119     0.362710
    0.468619     0.554932     0.665805
    0.531381     0.445068     0.334195
    0.356775     0.588881     0.443664
    0.643225     0.411119     0.556336
    0.600504     0.643812     0.471486
    0.399496     0.356188     0.528514
EA167  19.362 19.391 16.060 90.00 90.00 90.00 Sym.group:    0
1.0000
   19.361620     0.000000     0.000000
    0.000000    19.390829     0.000000
    0.000000     0.000000    16.059898
   O  Cu
  18   24 
Direct
    0.481234     0.320346     0.546467
    0.665320     0.426663     0.546467
    0.620940     0.634330     0.546467
    0.409424     0.656357     0.546467
    0.323082     0.462304     0.546467
    0.481234     0.320346     0.453533
    0.665320     0.426663     0.453533
    0.620940     0.634330     0.453533
    0.409424     0.656357     0.453533
    0.323082     0.462304     0.453533
    0.630307     0.515363     0.605651
    0.525634     0.628490     0.605651
    0.385535     0.564048     0.605651
    0.403623     0.411094     0.605651
    0.554901     0.381005     0.605651
    0.630307     0.515363     0.394349
    0.525634     0.628490     0.394349
    0.385535     0.564048     0.394349
    0.403623     0.411094     0.394349
    0.554901     0.381005     0.394349
    0.453715     0.546859     0.606473
    0.441065     0.470527     0.606473
    0.509861     0.434926     0.606473
    0.565029     0.489255     0.606473
    0.530329     0.558434     0.606473
    0.453715     0.546859     0.393527
    0.441065     0.470527     0.393527
    0.509861     0.434926     0.393527
    0.565029     0.489255     0.393527
    0.530329     0.558434     0.393527
    0.447961     0.505895     0.500000
    0.478304     0.452404     0.500000
    0.538630     0.464688     0.500000
    0.545571     0.525772     0.500000
    0.489535     0.551239     0.500000
    0.638178     0.619611     0.500000
    0.428770     0.668179     0.500000
    0.317800     0.484329     0.500000
    0.458624     0.322136     0.500000
    0.656628     0.405746     0.500000
    0.500000     0.500000     0.586232
    0.500000     0.500000     0.413768
EA168  20.139 21.297 15.906 90.00 90.00 90.00 Sym.group:    0
1.0000
   20.138899     0.000000     0.000000
    0.000000    21.297185     0.000000
    0.000000     0.000000    15.906206
   O  Cu
  18   24 
Direct
    0.356309     0.542346     0.397329
    0.389372     0.403500     0.397329
    0.533064     0.361155     0.397329
    0.643691     0.457654     0.397329
    0.610628     0.596500     0.397329
    0.466936     0.638845     0.397329
    0.356309     0.542346     0.602671
    0.389372     0.403500     0.602671
    0.533064     0.361155     0.602671
    0.643691     0.457654     0.602671
    0.610628     0.596500     0.602671
    0.466936     0.638845     0.602671
    0.454239     0.633315     0.548712
    0.355026     0.529182     0.548712
    0.400786     0.395867     0.548712
    0.545761     0.366685     0.548712
    0.644974     0.470818     0.548712
    0.599214     0.604133     0.548712
    0.454239     0.633315     0.451288
    0.355026     0.529182     0.451288
    0.400786     0.395867     0.451288
    0.545761     0.366685     0.451288
    0.644974     0.470818     0.451288
    0.599214     0.604133     0.451288
    0.584073     0.466672     0.468246
    0.572559     0.552185     0.468246
    0.488486     0.585513     0.468246
    0.415927     0.533328     0.468246
    0.427441     0.447815     0.468246
    0.511514     0.414487     0.468246
    0.584073     0.466672     0.531754
    0.572559     0.552185     0.531754
    0.488486     0.585513     0.531754
    0.415927     0.533328     0.531754
    0.427441     0.447815     0.531754
    0.511514     0.414487     0.531754
    0.306317     0.588124     0.500000
    0.322451     0.385451     0.500000
    0.516135     0.297326     0.500000
    0.693683     0.411876     0.500000
    0.677549     0.614549     0.500000
    0.483865     0.702674     0.500000
EA169  19.541 19.481 19.318 90.00 90.00 90.00 Sym.group:    0
1.0000
   19.541253     0.000000     0.000000
    0.000000    19.481249     0.000000
    0.000000     0.000000    19.318331
   O  Cu
  18   24 
Direct
    0.607623     0.366014     0.551421
    0.464398     0.472013     0.675723
    0.519431     0.661797     0.579477
    0.672692     0.552923     0.458082
    0.578830     0.611958     0.616829
    0.388064     0.631992     0.445212
    0.416586     0.389794     0.384492
    0.483000     0.327683     0.552033
    0.477830     0.341592     0.416635
    0.607371     0.378881     0.418218
    0.332268     0.445545     0.543118
    0.534772     0.528671     0.330991
    0.361774     0.569213     0.401929
    0.633479     0.432028     0.599425
    0.518209     0.670983     0.446504
    0.394318     0.621521     0.580179
    0.454531     0.503696     0.324401
    0.371909     0.548652     0.617219
    0.544399     0.496625     0.675770
    0.426678     0.368632     0.599686
    0.330677     0.452988     0.458841
    0.578811     0.630180     0.404149
    0.669016     0.547214     0.542414
    0.633485     0.450183     0.386736
    0.370053     0.473928     0.368848
    0.628423     0.526562     0.631590
    0.552832     0.323185     0.480717
    0.445453     0.676905     0.514876
    0.378570     0.450175     0.631445
    0.624066     0.549315     0.369997
    0.540303     0.508488     0.541568
    0.459690     0.491398     0.457188
    0.483018     0.555875     0.504639
    0.516896     0.444015     0.493920
    0.539021     0.515659     0.458229
    0.461119     0.484185     0.540672
    0.578960     0.516213     0.580382
    0.420047     0.484055     0.419444
    0.465804     0.608618     0.507389
    0.531498     0.391607     0.486623
    0.579035     0.529683     0.422956
    0.425061     0.469355     0.580032
EA170  17.775 17.775 36.179 90.00 90.00 90.00 Sym.group:    0
1.0000
   17.775140     0.000000     0.000000
    0.000000    17.775140     0.000000
    0.000000     0.000000    36.178619
   O  Cu
  18   24 
Direct
    0.673639     0.444474     0.451068
    0.612075     0.444474     0.451068
    0.673639     0.555526     0.548932
    0.612075     0.599595     0.472719
    0.673639     0.599595     0.472719
    0.673639     0.400405     0.527281
    0.612075     0.555526     0.548932
    0.612075     0.400405     0.527281
    0.832965     0.508100     0.439527
    0.452749     0.508100     0.439527
    0.832965     0.491900     0.560473
    0.452749     0.623083     0.503979
    0.832965     0.623083     0.503979
    0.832965     0.376917     0.496021
    0.452749     0.491900     0.560473
    0.452749     0.376917     0.496021
    0.105672     0.500000     0.500000
    0.180042     0.500000     0.500000
    0.281119     0.500000     0.500000
    0.004595     0.500000     0.500000
    0.817547     0.500000     0.500000
    0.468167     0.500000     0.500000
    0.304979     0.399631     0.495856
   -0.019265     0.399631     0.495856
    0.304979     0.600369     0.504144
   -0.019265     0.508435     0.450687
    0.304979     0.508435     0.450687
    0.304979     0.491565     0.549313
   -0.019265     0.600369     0.504144
   -0.019265     0.491565     0.549313
    0.642857     0.390045     0.424898
    0.642857     0.652859     0.445977
    0.642857     0.609955     0.575102
    0.642857     0.347141     0.554023
    0.732844     0.470568     0.441389
    0.552870     0.470568     0.441389
    0.732844     0.529432     0.558611
    0.552870     0.619294     0.485540
    0.732844     0.619294     0.485540
    0.732844     0.380706     0.514460
    0.552870     0.529432     0.558611
    0.552870     0.380706     0.514460
EA171  19.970 19.970 19.970 90.00 90.00 90.00 Sym.group:    0
1.0000
   19.970044     0.000000     0.000000
    0.000000    19.970044     0.000000
    0.000000     0.000000    19.970044
   O  Cu
  18   24 
Direct
    0.321919     0.594778     0.537829
    0.340235     0.376830     0.462171
    0.678081     0.405222     0.537829
    0.659765     0.623170     0.462171
    0.605806     0.546855     0.330481
    0.551893     0.334244     0.609358
    0.387858     0.528538     0.669519
    0.448107     0.665756     0.609358
    0.612142     0.471462     0.669519
    0.476499     0.327909     0.390642
    0.394194     0.453145     0.330481
    0.523501     0.672091     0.390642
    0.334244     0.448107     0.390642
    0.327909     0.523501     0.609358
    0.672091     0.476499     0.609358
    0.665756     0.551893     0.390642
    0.594778     0.678081     0.462171
    0.546855     0.394194     0.669519
    0.405222     0.321919     0.462171
    0.471462     0.387858     0.330481
    0.623170     0.340235     0.537829
    0.453145     0.605806     0.669519
    0.376830     0.659765     0.537829
    0.528538     0.612142     0.330481
    0.687835     0.456417     0.440840
    0.677927     0.574321     0.559160
    0.312165     0.543583     0.440840
    0.322073     0.425679     0.559160
    0.446002     0.436094     0.683526
    0.425679     0.677927     0.440840
    0.563906     0.446002     0.316474
    0.574321     0.322073     0.440840
    0.436094     0.553998     0.316474
    0.543583     0.687835     0.559160
    0.553998     0.563906     0.683526
    0.456417     0.312165     0.559160
    0.661973     0.513612     0.500000
    0.338027     0.486388     0.500000
    0.486388     0.661973     0.500000
    0.513612     0.338027     0.500000
    0.500000     0.500000     0.662543
    0.500000     0.500000     0.337457
