EA96   19.260 19.871 19.882 90.00 90.00 90.00 Sym.group:    0
1.0000
   19.260104     0.000000     0.000000
    0.000000    19.870743     0.000000
    0.000000     0.000000    19.882329
   O  Cu
  18   24 
Direct
    0.606781     0.422338     0.645947
    0.600503     0.576400     0.349476
    0.400123     0.655249     0.434283
    0.402052     0.346748     0.569601
    0.664989     0.521326     0.606131
    0.561480     0.538113     0.680805
    0.333231     0.393488     0.474486
    0.443154     0.680775     0.549967
    0.659787     0.476112     0.388395
    0.437036     0.319665     0.451217
    0.336474     0.607718     0.533550
    0.554666     0.462132     0.316552
    0.595382     0.433444     0.345641
    0.602601     0.566056     0.652121
    0.399638     0.650296     0.578073
    0.393010     0.349493     0.425813
    0.662877     0.534499     0.387362
    0.556186     0.547221     0.320217
    0.337691     0.390379     0.532893
    0.442226     0.682654     0.464869
    0.667476     0.462859     0.605366
    0.441626     0.318724     0.536217
    0.337629     0.612011     0.474985
    0.563145     0.452910     0.676466
    0.571994     0.495644     0.641977
    0.566125     0.503998     0.354687
    0.432115     0.645104     0.506075
    0.429609     0.355883     0.496099
    0.609625     0.469281     0.615510
    0.607698     0.519900     0.617257
    0.394929     0.380485     0.524727
    0.394621     0.618861     0.530462
    0.604554     0.529280     0.379895
    0.391315     0.381876     0.474226
    0.395344     0.621126     0.479840
    0.602042     0.478728     0.379314
    0.671782     0.497207     0.496667
    0.328192     0.500987     0.505306
    0.507158     0.382204     0.608676
    0.501769     0.619403     0.389287
    0.499663     0.615488     0.621566
    0.491703     0.383933     0.377995
EA142  18.895 19.155 19.568 90.00 90.00 90.00 Sym.group:    0
1.0000
   18.895375     0.000000     0.000000
    0.000000    19.154794     0.000000
    0.000000     0.000000    19.567990
   O  Cu
  18   24 
Direct
    0.402979     0.643784     0.555633
    0.634098     0.621603     0.528951
    0.315454     0.560679     0.527607
    0.375192     0.620668     0.438545
    0.399870     0.395405     0.626996
    0.649149     0.531520     0.604188
    0.486841     0.381276     0.638091
    0.334168     0.581322     0.448900
    0.678558     0.497262     0.568428
    0.368793     0.366813     0.587227
    0.332651     0.462835     0.442003
    0.503632     0.460201     0.302036
    0.674995     0.552617     0.408491
    0.357022     0.387404     0.474541
    0.402058     0.516945     0.370916
    0.554842     0.551589     0.341883
    0.457470     0.345438     0.444897
    0.610254     0.380084     0.415863
    0.676963     0.571879     0.476517
    0.342317     0.587559     0.570873
    0.623172     0.604730     0.579976
    0.416858     0.657147     0.501621
    0.397470     0.607030     0.486707
    0.625723     0.553192     0.560133
    0.385542     0.595378     0.533334
    0.361804     0.573029     0.495644
    0.635441     0.567421     0.515587
    0.651219     0.523564     0.528922
    0.449977     0.388523     0.598389
    0.350595     0.477895     0.583395
    0.517125     0.634471     0.545082
    0.590573     0.436287     0.609837
    0.671201     0.449868     0.549549
    0.560402     0.384911     0.469398
    0.609470     0.420506     0.523588
    0.488689     0.376861     0.504342
    0.557922     0.490397     0.461798
    0.499468     0.468043     0.449288
    0.337366     0.431285     0.480091
    0.493259     0.416355     0.319958
    0.680709     0.504948     0.403963
    0.538708     0.421272     0.526809
EA151  19.609 20.022 18.485 90.00 90.00 90.00 Sym.group:    0
1.0000
   19.609042     0.000000     0.000000
    0.000000    20.021644     0.000000
    0.000000     0.000000    18.484701
   O  Cu
  18   24 
Direct
    0.413930     0.631029     0.591924
    0.678909     0.509717     0.440558
    0.664811     0.553590     0.560791
    0.667366     0.435320     0.537511
    0.493642     0.680466     0.513439
    0.428396     0.666533     0.451288
    0.660319     0.474900     0.580990
    0.511381     0.366167     0.387534
    0.420626     0.353511     0.604208
    0.323448     0.483631     0.432019
    0.333990     0.561636     0.561265
    0.410067     0.617883     0.405351
    0.532535     0.505501     0.330235
    0.546276     0.337638     0.545691
    0.327314     0.480971     0.579904
    0.453945     0.485420     0.332493
    0.644734     0.517545     0.586786
    0.549502     0.643152     0.420832
    0.673607     0.567473     0.503107
    0.677390     0.455609     0.453986
    0.486918     0.667153     0.570670
    0.647451     0.471519     0.500458
    0.649527     0.518371     0.488416
    0.452839     0.641665     0.497874
    0.642490     0.506117     0.538344
    0.447624     0.629553     0.547501
    0.583724     0.622691     0.540784
    0.599719     0.460549     0.362937
    0.572725     0.403665     0.597759
    0.381674     0.581763     0.566328
    0.401892     0.566127     0.411701
    0.430220     0.462711     0.646408
    0.329011     0.509061     0.491007
    0.511436     0.426256     0.362664
    0.480409     0.361704     0.602092
    0.525054     0.408414     0.531737
    0.395748     0.491902     0.554432
    0.466834     0.493783     0.407295
    0.376188     0.371325     0.395715
    0.426581     0.311937     0.464205
    0.343561     0.358565     0.495737
    0.436188     0.407474     0.606026
EA116  19.774 19.686 19.399 90.00 90.00 90.00 Sym.group:    0
1.0000
   19.774097     0.000000     0.000000
    0.000000    19.686120     0.000000
    0.000000     0.000000    19.398532
   O  Cu
  18   24 
Direct
    0.307650     0.575186     0.542615
    0.454293     0.366915     0.634323
    0.307103     0.542801     0.419770
    0.612355     0.648420     0.514981
    0.578146     0.397967     0.628001
    0.293205     0.452328     0.510592
    0.560427     0.625716     0.628950
    0.605632     0.614682     0.595686
    0.299043     0.484240     0.429105
    0.571307     0.683406     0.493938
    0.517341     0.315307     0.563052
    0.587295     0.480074     0.311428
    0.689712     0.553781     0.493478
    0.532760     0.555149     0.317248
    0.533806     0.370458     0.361498
    0.656992     0.457653     0.398013
    0.668776     0.467261     0.560016
    0.409809     0.541154     0.374731
    0.454629     0.331965     0.586321
    0.312187     0.595357     0.487909
    0.295652     0.491177     0.555563
    0.533762     0.632207     0.578122
    0.329943     0.543525     0.472856
    0.322969     0.492975     0.480756
    0.537930     0.652423     0.530271
    0.500594     0.393082     0.610182
    0.325973     0.525593     0.520266
    0.573698     0.623126     0.549596
    0.369035     0.405322     0.574545
    0.403849     0.639534     0.541553
    0.572230     0.509230     0.637663
    0.623996     0.442018     0.584638
    0.564766     0.343506     0.463860
    0.533126     0.477511     0.515249
    0.508121     0.435924     0.464264
    0.629089     0.437833     0.506570
    0.605860     0.420837     0.430380
    0.513961     0.486120     0.440216
    0.555017     0.515387     0.478158
    0.542515     0.505193     0.306274
    0.662891     0.591442     0.472486
    0.542557     0.376215     0.434877
EA134  19.057 19.521 19.579 90.00 90.00 90.00 Sym.group:    0
1.0000
   19.056721     0.000000     0.000000
    0.000000    19.520579     0.000000
    0.000000     0.000000    19.578858
   O  Cu
  18   24 
Direct
    0.457418     0.327109     0.582144
    0.321516     0.569626     0.422706
    0.613956     0.473561     0.636995
    0.500746     0.317083     0.465695
    0.295598     0.514003     0.527091
    0.535367     0.555275     0.663388
    0.359609     0.615591     0.530039
    0.338777     0.575337     0.562377
    0.286559     0.513368     0.470061
    0.608934     0.487687     0.324307
    0.702290     0.542260     0.515447
    0.570893     0.566919     0.328202
    0.664249     0.621492     0.519342
    0.526945     0.385375     0.361021
    0.661586     0.455213     0.414319
    0.655046     0.458248     0.572845
    0.440452     0.565523     0.369877
    0.575093     0.635362     0.423174
    0.382327     0.334901     0.546455
    0.567519     0.484446     0.666938
    0.505982     0.320211     0.549283
    0.479193     0.344395     0.507209
    0.361459     0.579800     0.490951
    0.557385     0.521804     0.628424
    0.434618     0.349665     0.485782
    0.335585     0.543448     0.470063
    0.342639     0.545128     0.519414
    0.328866     0.421175     0.510267
    0.449359     0.591941     0.603040
    0.568553     0.638396     0.581701
    0.599663     0.424153     0.438142
    0.616561     0.435728     0.515274
    0.527625     0.387730     0.433267
    0.512497     0.605703     0.447066
    0.529395     0.617278     0.524199
    0.440459     0.569280     0.442192
    0.564186     0.520660     0.484092
    0.539560     0.510574     0.541725
    0.522469     0.497976     0.441383
    0.686701     0.582682     0.494323
    0.551478     0.423429     0.491277
    0.480883     0.570466     0.498505
EA8    20.289 18.460 19.078 90.00 90.00 90.00 Sym.group:    0
1.0000
   20.288834     0.000000     0.000000
    0.000000    18.459643     0.000000
    0.000000     0.000000    19.078355
   O  Cu
  18   24 
Direct
    0.379106     0.394346     0.580866
    0.620894     0.374794     0.451902
    0.379106     0.480447     0.371035
    0.620894     0.605654     0.419134
    0.379106     0.625206     0.548098
    0.620894     0.519553     0.628965
    0.521132     0.545424     0.336589
    0.478868     0.668974     0.456358
    0.521132     0.623549     0.619768
    0.478868     0.454576     0.663411
    0.521132     0.331026     0.543642
    0.478868     0.376451     0.380232
    0.418934     0.359966     0.431962
    0.581066     0.490881     0.348641
    0.418934     0.630914     0.416680
    0.581066     0.640034     0.568038
    0.418934     0.509119     0.651359
    0.581066     0.369086     0.583320
    0.521194     0.639492     0.462968
    0.478806     0.602893     0.598371
    0.521194     0.463399     0.635403
    0.478806     0.360508     0.537032
    0.521194     0.397107     0.401629
    0.478806     0.536601     0.364597
    0.582729     0.572602     0.385283
    0.417271     0.638978     0.503478
    0.582729     0.566377     0.618194
    0.417271     0.427398     0.614717
    0.582729     0.361022     0.496522
    0.417271     0.433623     0.381806
    0.457222     0.417236     0.460981
    0.542778     0.493542     0.411139
    0.457222     0.576306     0.450159
    0.542778     0.582764     0.539019
    0.457222     0.506458     0.588861
    0.542778     0.423694     0.549841
    0.311501     0.514504     0.555758
    0.688499     0.457347     0.540032
    0.311501     0.442842     0.484275
    0.688499     0.485496     0.444242
    0.311501     0.542653     0.459968
    0.688499     0.557158     0.515725
EA82   19.554 19.554 19.592 90.00 90.00 90.00 Sym.group:    0
1.0000
   19.554390     0.000000     0.000000
    0.000000    19.554390     0.000000
    0.000000     0.000000    19.592055
   O  Cu
  18   24 
Direct
    0.318252     0.500000     0.465734
    0.606122     0.402760     0.384064
    0.571791     0.657337     0.565461
    0.681748     0.500000     0.534266
    0.393878     0.402760     0.615936
    0.428209     0.657337     0.434539
    0.449427     0.500000     0.322429
    0.393878     0.597240     0.615936
    0.571791     0.342663     0.565461
    0.550573     0.500000     0.677571
    0.606122     0.597240     0.384064
    0.428209     0.342663     0.434539
    0.500000     0.677762     0.500000
    0.500000     0.322238     0.500000
    0.368762     0.500000     0.380332
    0.631238     0.500000     0.619668
    0.619899     0.500000     0.369014
    0.380101     0.500000     0.630986
    0.531381     0.554932     0.334195
    0.468619     0.445068     0.665805
    0.356775     0.411119     0.443664
    0.643225     0.588881     0.556336
    0.600504     0.356188     0.471486
    0.399496     0.643812     0.528514
    0.519394     0.356188     0.397527
    0.480606     0.643812     0.602473
    0.337380     0.445068     0.546136
    0.662620     0.554932     0.453864
    0.569124     0.411119     0.637290
    0.430876     0.588881     0.362710
    0.480606     0.356188     0.602473
    0.519394     0.643812     0.397527
    0.337380     0.554932     0.546136
    0.662620     0.445068     0.453864
    0.569124     0.588881     0.637290
    0.430876     0.411119     0.362710
    0.468619     0.554932     0.665805
    0.531381     0.445068     0.334195
    0.356775     0.588881     0.443664
    0.643225     0.411119     0.556336
    0.600504     0.643812     0.471486
    0.399496     0.356188     0.528514
EA158  20.519 18.792 18.823 90.00 90.00 90.00 Sym.group:    0
1.0000
   20.518545     0.000000     0.000000
    0.000000    18.791739     0.000000
    0.000000     0.000000    18.822744
   O  Cu
  18   24 
Direct
    0.619193     0.446171     0.614314
    0.380807     0.572248     0.603698
    0.619193     0.626077     0.489382
    0.380807     0.553829     0.385686
    0.619193     0.427752     0.396302
    0.380807     0.373923     0.510618
    0.475234     0.653319     0.426935
    0.524765     0.513279     0.330908
    0.475234     0.359960     0.403974
    0.524766     0.346681     0.573065
    0.475235     0.486721     0.669092
    0.524766     0.640040     0.596026
    0.584034     0.590198     0.619515
    0.415966     0.648772     0.481774
    0.584033     0.558575     0.362259
    0.415966     0.409802     0.380485
    0.584034     0.351228     0.518226
    0.415967     0.441425     0.637741
    0.481599     0.511437     0.358517
    0.518400     0.382987     0.419370
    0.481600     0.371552     0.560854
    0.518401     0.488563     0.641483
    0.481600     0.617013     0.580630
    0.518400     0.628448     0.439146
    0.416269     0.596986     0.410003
    0.583730     0.470425     0.371147
    0.416269     0.373439     0.461145
    0.583731     0.403014     0.589997
    0.416270     0.529575     0.628853
    0.583731     0.626561     0.538855
    0.543120     0.552144     0.571779
    0.456880     0.588338     0.490806
    0.543120     0.536193     0.419026
    0.456880     0.447856     0.428221
    0.543120     0.411662     0.509194
    0.456880     0.463807     0.580974
    0.691986     0.441596     0.499003
    0.308014     0.469933     0.549998
    0.691986     0.528338     0.550994
    0.308014     0.558404     0.500997
    0.691986     0.530067     0.450002
    0.308014     0.471662     0.449006
EA126  19.185 19.545 19.522 90.00 90.00 90.00 Sym.group:    0
1.0000
   19.185104     0.000000     0.000000
    0.000000    19.544764     0.000000
    0.000000     0.000000    19.522383
   O  Cu
  18   24 
Direct
    0.606032     0.651760     0.548000
    0.381720     0.630407     0.559128
    0.363502     0.621013     0.437659
    0.315153     0.533280     0.518885
    0.629784     0.552037     0.621973
    0.331497     0.571438     0.442360
    0.660003     0.618980     0.495485
    0.593556     0.624840     0.599916
    0.475992     0.387790     0.657604
    0.429876     0.326224     0.554937
    0.492393     0.353745     0.627068
    0.563267     0.476938     0.317168
    0.707663     0.476479     0.499390
    0.546939     0.569144     0.338446
    0.691335     0.568686     0.520667
    0.461465     0.394211     0.358273
    0.624592     0.414800     0.394105
    0.649363     0.398404     0.556814
    0.392701     0.654651     0.507583
    0.335409     0.559545     0.565487
    0.607399     0.577153     0.576064
    0.385672     0.603569     0.486757
    0.358027     0.560806     0.490664
    0.618286     0.600541     0.531183
    0.375929     0.582177     0.531391
    0.364041     0.449098     0.569077
    0.494457     0.645587     0.554212
    0.410533     0.553490     0.365352
    0.379316     0.345229     0.546059
    0.595216     0.392157     0.582684
    0.376786     0.383478     0.435517
    0.483979     0.343187     0.454339
    0.520623     0.473541     0.526871
    0.473663     0.452869     0.472691
    0.593916     0.395682     0.503252
    0.559147     0.399829     0.426854
    0.502171     0.499174     0.454620
    0.558029     0.503050     0.492459
    0.531746     0.520447     0.319826
    0.698700     0.525442     0.486006
    0.476664     0.386553     0.431815
    0.383460     0.422569     0.641356
EA139  19.578 19.717 19.441 90.00 90.00 90.00 Sym.group:    0
1.0000
   19.577834     0.000000     0.000000
    0.000000    19.717147     0.000000
    0.000000     0.000000    19.441002
   O  Cu
  18   24 
Direct
    0.426187     0.660579     0.542288
    0.649335     0.620028     0.571708
    0.341819     0.575521     0.509644
    0.385341     0.573040     0.630788
    0.709090     0.509757     0.549415
    0.678617     0.586789     0.450797
    0.348832     0.546586     0.594213
    0.704588     0.535858     0.464403
    0.393419     0.578003     0.364276
    0.318671     0.502860     0.435728
    0.390302     0.369801     0.610238
    0.319993     0.537691     0.485247
    0.388979     0.334971     0.560719
    0.536096     0.391265     0.383191
    0.611962     0.348201     0.483025
    0.503422     0.324303     0.556118
    0.427556     0.367367     0.456284
    0.545395     0.464766     0.349754
    0.687137     0.545787     0.591947
    0.372085     0.623087     0.489460
    0.646157     0.635775     0.514859
    0.413992     0.589010     0.581202
    0.648931     0.580110     0.501496
    0.408984     0.606666     0.531385
    0.382232     0.566149     0.549588
    0.651910     0.565928     0.550835
    0.671416     0.535894     0.513523
    0.643591     0.438391     0.609930
    0.536643     0.643489     0.555465
    0.627463     0.510341     0.383005
    0.463181     0.378834     0.659374
    0.362185     0.526751     0.364034
    0.369652     0.528168     0.422885
    0.447516     0.375098     0.602113
    0.370795     0.558300     0.465724
    0.467007     0.499894     0.327848
    0.347777     0.434434     0.524284
    0.668937     0.394639     0.512326
    0.520279     0.329661     0.458451
    0.518207     0.441843     0.503142
    0.519108     0.393041     0.483701
    0.575213     0.471322     0.305588
EA156  20.551 19.884 20.900 90.00 90.00 90.00 Sym.group:    0
1.0000
   20.550702     0.000000     0.000000
    0.000000    19.883758     0.000000
    0.000000     0.000000    20.900300
   O  Cu
  18   24 
Direct
    0.527461     0.319849     0.433819
    0.324987     0.600963     0.457634
    0.541854     0.665815     0.488549
    0.588166     0.386612     0.625869
    0.475244     0.442938     0.388607
    0.597108     0.385126     0.360815
    0.557354     0.532643     0.617641
    0.595156     0.596703     0.397873
    0.255425     0.494858     0.452587
    0.488940     0.433524     0.649060
    0.674382     0.686084     0.511947
    0.294218     0.546151     0.572108
    0.246289     0.505060     0.540011
    0.550126     0.476755     0.380088
    0.676051     0.661156     0.430774
    0.479518     0.509470     0.620143
    0.309547     0.528215     0.414202
    0.314448     0.607579     0.514614
    0.601261     0.460681     0.655613
    0.533441     0.637841     0.438146
    0.477172     0.367164     0.390987
    0.531091     0.376592     0.617296
    0.592087     0.653589     0.552498
    0.585649     0.328477     0.414670
    0.568691     0.388020     0.419462
    0.309243     0.550929     0.519649
    0.583358     0.607363     0.455506
    0.521463     0.431822     0.597506
    0.518305     0.378266     0.430023
    0.525336     0.437277     0.421760
    0.571399     0.441627     0.603874
    0.645753     0.636220     0.478177
    0.317318     0.544718     0.470818
    0.528484     0.488198     0.588201
    0.582978     0.625310     0.500521
    0.279051     0.511105     0.499119
    0.379415     0.412253     0.459261
    0.709653     0.531125     0.563590
    0.600096     0.313722     0.529035
    0.446184     0.599618     0.504314
    0.722610     0.478302     0.457939
    0.373691     0.420278     0.575689
EA121  18.970 19.022 20.102 90.00 90.00 90.00 Sym.group:    0
1.0000
   18.969545     0.000000     0.000000
    0.000000    19.022067     0.000000
    0.000000     0.000000    20.102449
   O  Cu
  18   24 
Direct
    0.578449     0.680550     0.497968
    0.356055     0.461732     0.379371
    0.295088     0.518632     0.576350
    0.375255     0.372985     0.411780
    0.314289     0.429884     0.608758
    0.469277     0.555350     0.361619
    0.332757     0.549182     0.449040
    0.374594     0.613408     0.587286
    0.376413     0.347399     0.522725
    0.656217     0.488209     0.596926
    0.565857     0.618386     0.612037
    0.431583     0.359774     0.569098
    0.589081     0.358903     0.575457
    0.657604     0.513287     0.434604
    0.590468     0.383981     0.413135
    0.600134     0.386650     0.457541
    0.652969     0.520322     0.479053
    0.409746     0.644334     0.443356
    0.620500     0.657113     0.478285
    0.434698     0.625701     0.589436
    0.577745     0.586130     0.395006
    0.488591     0.635819     0.436738
    0.477594     0.524240     0.537014
    0.500346     0.528511     0.472553
    0.404573     0.599239     0.524498
    0.406314     0.572063     0.451225
    0.465032     0.476722     0.477218
    0.428458     0.485204     0.527471
    0.384068     0.417061     0.380794
    0.295870     0.464408     0.573177
    0.484525     0.584745     0.425362
    0.599476     0.374751     0.534555
    0.652311     0.508424     0.556067
    0.551921     0.629343     0.569425
    0.446248     0.361996     0.526401
    0.546245     0.414994     0.524475
    0.594935     0.488622     0.537130
    0.547889     0.571368     0.547163
    0.546674     0.422750     0.474272
    0.595364     0.496378     0.486927
    0.724720     0.469189     0.513992
    0.600068     0.302260     0.484711
EA157  19.748 20.946 20.674 90.00 90.00 90.00 Sym.group:    0
1.0000
   19.747935     0.000000     0.000000
    0.000000    20.946109     0.000000
    0.000000     0.000000    20.674105
   O  Cu
  18   24 
Direct
    0.528737     0.330121     0.478347
    0.505559     0.601033     0.398172
    0.560173     0.588409     0.588159
    0.471263     0.669879     0.521653
    0.309820     0.402910     0.519800
    0.723542     0.449793     0.563568
    0.646314     0.452844     0.400066
    0.494441     0.398967     0.601828
    0.276458     0.550207     0.436432
    0.353686     0.547156     0.599934
    0.690180     0.597090     0.480200
    0.439827     0.411591     0.411841
    0.652617     0.510820     0.592357
    0.347383     0.489180     0.407643
    0.598713     0.377411     0.431155
    0.401287     0.622589     0.568845
    0.606099     0.612284     0.427192
    0.393901     0.387716     0.572808
    0.717803     0.531499     0.430953
    0.282197     0.468501     0.569047
    0.471467     0.361561     0.429940
    0.528533     0.638439     0.570060
    0.370478     0.569033     0.378030
    0.629522     0.430967     0.621970
    0.474634     0.513735     0.417623
    0.525366     0.486265     0.582377
    0.417309     0.352313     0.513031
    0.582691     0.647687     0.486969
    0.293271     0.561246     0.528940
    0.706729     0.438754     0.471060
    0.240709     0.482641     0.471767
    0.759291     0.517359     0.528233
    0.527786     0.341951     0.552470
    0.472214     0.658049     0.447530
    0.459578     0.569489     0.607427
    0.540422     0.430511     0.392573
    0.414938     0.475045     0.587851
    0.585062     0.524955     0.412149
    0.633035     0.369848     0.513152
    0.366965     0.630152     0.486848
    0.613006     0.624019     0.535271
    0.386994     0.375981     0.464729
EA72   19.736 19.722 19.235 90.00 90.00 90.00 Sym.group:    0
1.0000
   19.735517     0.000000     0.000000
    0.000000    19.721634     0.000000
    0.000000     0.000000    19.235294
   O  Cu
  18   24 
Direct
    0.686053     0.444568     0.488358
    0.378583     0.440720     0.649241
    0.651061     0.468487     0.611646
    0.681693     0.566151     0.527797
    0.491451     0.687055     0.564004
    0.454918     0.344236     0.618061
    0.663856     0.552399     0.585375
    0.509289     0.700807     0.506427
    0.445875     0.388161     0.657582
    0.510875     0.523864     0.348756
    0.391959     0.371454     0.423920
    0.397666     0.650342     0.537098
    0.385166     0.547920     0.375868
    0.421023     0.646935     0.457065
    0.546732     0.622880     0.429953
    0.302107     0.494524     0.532229
    0.543982     0.449930     0.360724
    0.354791     0.376874     0.551274
    0.411364     0.655703     0.581934
    0.660104     0.424562     0.572125
    0.694849     0.502246     0.470300
    0.657243     0.514809     0.514266
    0.453685     0.649850     0.540756
    0.649635     0.464914     0.529887
    0.641813     0.502913     0.564076
    0.417914     0.415262     0.614201
    0.555372     0.402179     0.620162
    0.626475     0.456996     0.390644
    0.590430     0.632093     0.548182
    0.470957     0.356337     0.406882
    0.339275     0.489103     0.404874
    0.324641     0.556748     0.583255
    0.566875     0.373086     0.415681
    0.463335     0.604304     0.378251
    0.319818     0.420363     0.468964
    0.506502     0.455779     0.488455
    0.473761     0.528896     0.476619
    0.428376     0.470729     0.505305
    0.532765     0.419805     0.456797
    0.469225     0.561700     0.433827
    0.381152     0.448819     0.489496
    0.547353     0.415499     0.319681
EA125  19.896 19.199 19.893 90.00 90.00 90.00 Sym.group:    0
1.0000
   19.895729     0.000000     0.000000
    0.000000    19.198550     0.000000
    0.000000     0.000000    19.892868
   O  Cu
  18   24 
Direct
    0.299549     0.506932     0.466420
    0.515426     0.301314     0.516467
    0.436269     0.401157     0.624635
    0.379409     0.345297     0.464739
    0.362010     0.435644     0.595818
    0.557347     0.606711     0.571713
    0.447241     0.601531     0.577083
    0.597088     0.454378     0.600263
    0.469460     0.679335     0.520611
    0.620712     0.349003     0.535583
    0.676742     0.568035     0.554448
    0.630896     0.357029     0.448448
    0.686927     0.576061     0.467313
    0.494704     0.700492     0.470084
    0.645929     0.463552     0.401074
    0.599318     0.622260     0.411651
    0.434490     0.629585     0.406370
    0.319874     0.558362     0.452932
    0.368806     0.400992     0.480703
    0.473256     0.389416     0.590468
    0.425797     0.495315     0.636211
    0.336726     0.509870     0.420823
    0.461795     0.321482     0.487581
    0.416400     0.458704     0.552494
    0.314951     0.589755     0.571559
    0.551915     0.658313     0.567167
    0.612772     0.408102     0.617420
    0.457444     0.559790     0.683040
    0.585023     0.534598     0.595590
    0.379231     0.475404     0.392529
    0.509908     0.372789     0.389257
    0.491753     0.579960     0.403797
    0.443405     0.513623     0.396971
    0.492431     0.446133     0.393509
    0.571078     0.470759     0.398196
    0.570659     0.553469     0.404554
    0.522454     0.451139     0.495911
    0.516486     0.557400     0.503888
    0.691367     0.549628     0.509491
    0.513759     0.698245     0.514644
    0.607548     0.337394     0.490164
    0.511647     0.511041     0.418383
EA66   19.404 24.177 20.022 90.00 90.00 90.00 Sym.group:    0
1.0000
   19.404329     0.000000     0.000000
    0.000000    24.177142     0.000000
    0.000000     0.000000    20.021951
   O  Cu
  18   24 
Direct
    0.651892     0.559922     0.454452
    0.628534     0.537343     0.579824
    0.647414     0.453554     0.421815
    0.605553     0.559415     0.448504
    0.739712     0.462825     0.604752
    0.776088     0.530695     0.427674
    0.757505     0.572697     0.560717
    0.758294     0.420823     0.471709
    0.489898     0.527565     0.390937
    0.472104     0.417693     0.434973
    0.267129     0.439684     0.561409
    0.271762     0.631841     0.459321
    0.453181     0.458889     0.658801
    0.395604     0.612799     0.592427
    0.415530     0.354192     0.525156
    0.339844     0.371570     0.453212
    0.542259     0.416598     0.634512
    0.312467     0.571600     0.598846
    0.746294     0.496633     0.514723
    0.483315     0.493757     0.480966
    0.375338     0.518995     0.392254
    0.635848     0.608897     0.436750
    0.632927     0.438684     0.359459
    0.699686     0.551055     0.435905
    0.676679     0.557794     0.575492
    0.688398     0.434077     0.437586
    0.564219     0.549573     0.418516
    0.552931     0.432596     0.420197
    0.457454     0.588963     0.581483
    0.474145     0.375482     0.524053
    0.398576     0.469391     0.617633
    0.540584     0.495753     0.638755
    0.318432     0.617900     0.518058
    0.325326     0.404938     0.537099
    0.390200     0.424767     0.461454
    0.495715     0.451342     0.566317
    0.373935     0.541349     0.548751
    0.189885     0.557712     0.382939
    0.189273     0.470031     0.417771
    0.177246     0.535117     0.489559
    0.492143     0.533785     0.329009
    0.596682     0.551706     0.636231
EA56   19.826 19.805 19.253 90.00 90.00 90.00 Sym.group:    0
1.0000
   19.826302     0.000000     0.000000
    0.000000    19.804618     0.000000
    0.000000     0.000000    19.253297
   O  Cu
  18   24 
Direct
    0.469947     0.593125     0.653926
    0.295141     0.472614     0.581972
    0.556684     0.298917     0.490267
    0.632731     0.379715     0.558381
    0.353185     0.353163     0.578878
    0.323180     0.438889     0.613436
    0.441908     0.626849     0.622463
    0.526696     0.701668     0.493524
    0.690448     0.552802     0.457125
    0.490857     0.387578     0.354973
    0.692977     0.508800     0.580765
    0.680254     0.427814     0.479054
    0.447611     0.653678     0.402907
    0.401018     0.647940     0.440877
    0.686951     0.451307     0.565495
    0.425145     0.439381     0.345988
    0.458909     0.693320     0.548763
    0.522094     0.685520     0.434108
    0.341541     0.340045     0.528532
    0.273831     0.448605     0.489834
    0.568328     0.312035     0.540613
    0.354799     0.567479     0.581649
    0.414245     0.495983     0.648353
    0.582224     0.463871     0.618477
    0.351639     0.425452     0.377671
    0.316881     0.524761     0.417704
    0.467633     0.343448     0.586863
    0.443270     0.497931     0.527454
    0.465806     0.433539     0.501496
    0.489432     0.346233     0.399118
    0.695052     0.568950     0.516541
    0.681680     0.469159     0.434909
    0.479146     0.649905     0.452416
    0.666836     0.519054     0.528931
    0.661622     0.469318     0.515721
    0.483127     0.663875     0.503814
    0.454630     0.416066     0.390305
    0.662855     0.505085     0.477532
    0.438839     0.644941     0.485261
    0.588957     0.403356     0.412549
    0.612984     0.632537     0.473421
    0.408907     0.545291     0.387933
EA115  23.077 19.521 17.775 90.00 90.00 90.00 Sym.group:    0
1.0000
   23.076836     0.000000     0.000000
    0.000000    19.520629     0.000000
    0.000000     0.000000    17.774629
   O  Cu
  18   24 
Direct
    0.527242     0.321084     0.532524
    0.589164     0.661377     0.556454
    0.691247     0.446341     0.563376
    0.530983     0.323719     0.439737
    0.592905     0.664012     0.463667
    0.694988     0.448976     0.470589
    0.616810     0.559897     0.616049
    0.604369     0.402879     0.607525
    0.625315     0.565889     0.405081
    0.461963     0.536437     0.508625
    0.387606     0.653767     0.460781
    0.455363     0.659078     0.471473
    0.329230     0.432623     0.594636
    0.358681     0.491782     0.407551
    0.459363     0.383987     0.398550
    0.519011     0.539217     0.358468
    0.387882     0.378865     0.453252
    0.323800     0.458706     0.506535
    0.612875     0.408871     0.396557
    0.544041     0.551807     0.605177
    0.561210     0.470307     0.604441
    0.488661     0.443114     0.591976
    0.552613     0.557846     0.392567
    0.569782     0.476347     0.391831
    0.556425     0.511240     0.498309
    0.526172     0.459805     0.491431
    0.569625     0.677835     0.507353
    0.697796     0.469880     0.518644
    0.553415     0.320995     0.489865
    0.497104     0.510178     0.575745
    0.492781     0.654493     0.538746
    0.537167     0.641849     0.492998
    0.429449     0.573932     0.497497
    0.439871     0.386674     0.539892
    0.469691     0.537344     0.389479
    0.368038     0.465458     0.620933
    0.395963     0.444563     0.410445
    0.428687     0.434596     0.475927
    0.278737     0.567820     0.499472
    0.265887     0.551623     0.585231
    0.270533     0.473929     0.518305
    0.737552     0.480858     0.552304
EA129  19.353 19.388 19.915 90.00 90.00 90.00 Sym.group:    0
1.0000
   19.353217     0.000000     0.000000
    0.000000    19.387564     0.000000
    0.000000     0.000000    19.915040
   O  Cu
  18   24 
Direct
    0.671958     0.450447     0.569083
    0.691242     0.495360     0.457279
    0.641309     0.384992     0.470320
    0.658369     0.423428     0.431886
    0.387634     0.415325     0.382427
    0.492222     0.347264     0.449549
    0.661666     0.469759     0.428715
    0.573578     0.671766     0.452730
    0.589359     0.676291     0.509481
    0.496956     0.505828     0.650000
    0.331300     0.411578     0.559198
    0.469396     0.673919     0.465894
    0.395935     0.578987     0.611516
    0.480304     0.659620     0.543609
    0.581326     0.586460     0.582093
    0.314649     0.565370     0.452808
    0.496511     0.423481     0.639143
    0.313942     0.434332     0.435531
    0.696777     0.506365     0.513168
    0.649363     0.401005     0.551629
    0.633494     0.428198     0.506416
    0.653042     0.470969     0.521515
    0.648253     0.461448     0.473167
    0.639151     0.595312     0.476190
    0.549081     0.398223     0.406617
    0.443771     0.513695     0.350194
    0.446617     0.397817     0.391298
    0.498186     0.422489     0.464301
    0.423389     0.459350     0.385559
    0.489151     0.674533     0.425507
    0.520574     0.651284     0.468700
    0.394784     0.365603     0.583382
    0.332006     0.542615     0.576476
    0.367669     0.616041     0.410133
    0.491673     0.600964     0.620545
    0.291747     0.487216     0.510959
    0.479535     0.528206     0.525843
    0.416313     0.492237     0.491188
    0.484815     0.559858     0.567040
    0.362125     0.490053     0.499789
    0.480167     0.388858     0.676572
    0.360659     0.373451     0.512552
EA14   19.362 19.391 16.060 90.00 90.00 90.00 Sym.group:    0
1.0000
   19.361620     0.000000     0.000000
    0.000000    19.390829     0.000000
    0.000000     0.000000    16.059898
   O  Cu
  18   24 
Direct
    0.481234     0.320346     0.546467
    0.665320     0.426663     0.546467
    0.620940     0.634330     0.546467
    0.409424     0.656357     0.546467
    0.323082     0.462304     0.546467
    0.481234     0.320346     0.453533
    0.665320     0.426663     0.453533
    0.620940     0.634330     0.453533
    0.409424     0.656357     0.453533
    0.323082     0.462304     0.453533
    0.630307     0.515363     0.605651
    0.525634     0.628490     0.605651
    0.385535     0.564048     0.605651
    0.403623     0.411094     0.605651
    0.554901     0.381005     0.605651
    0.630307     0.515363     0.394349
    0.525634     0.628490     0.394349
    0.385535     0.564048     0.394349
    0.403623     0.411094     0.394349
    0.554901     0.381005     0.394349
    0.453715     0.546859     0.606473
    0.441065     0.470527     0.606473
    0.509861     0.434926     0.606473
    0.565029     0.489255     0.606473
    0.530329     0.558434     0.606473
    0.453715     0.546859     0.393527
    0.441065     0.470527     0.393527
    0.509861     0.434926     0.393527
    0.565029     0.489255     0.393527
    0.530329     0.558434     0.393527
    0.447961     0.505895     0.500000
    0.478304     0.452404     0.500000
    0.538630     0.464688     0.500000
    0.545571     0.525772     0.500000
    0.489535     0.551239     0.500000
    0.638178     0.619611     0.500000
    0.428770     0.668179     0.500000
    0.317800     0.484329     0.500000
    0.458624     0.322136     0.500000
    0.656628     0.405746     0.500000
    0.500000     0.500000     0.586232
    0.500000     0.500000     0.413768
EA130  19.243 19.584 19.496 90.00 90.00 90.00 Sym.group:    0
1.0000
   19.243198     0.000000     0.000000
    0.000000    19.583850     0.000000
    0.000000     0.000000    19.496082
   O  Cu
  18   24 
Direct
    0.302057     0.494124     0.537183
    0.363730     0.607770     0.537321
    0.322520     0.548914     0.421886
    0.554415     0.555507     0.676034
    0.351162     0.597956     0.447181
    0.574419     0.597804     0.639372
    0.455855     0.337813     0.443131
    0.580643     0.362325     0.617740
    0.419945     0.344833     0.517781
    0.644090     0.476625     0.637401
    0.692837     0.418186     0.503902
    0.637528     0.563152     0.619887
    0.593201     0.436492     0.341859
    0.656112     0.594743     0.430141
    0.503711     0.671051     0.529528
    0.536709     0.517950     0.329852
    0.626560     0.346230     0.488810
    0.663319     0.590613     0.527834
    0.343725     0.565473     0.573984
    0.293417     0.487379     0.475224
    0.341008     0.523416     0.472773
    0.348481     0.529251     0.526372
    0.365785     0.565842     0.494656
    0.457459     0.586541     0.611698
    0.343285     0.391048     0.510865
    0.496576     0.359887     0.625006
    0.402783     0.390200     0.603703
    0.483810     0.459493     0.537097
    0.448562     0.429349     0.566072
    0.405987     0.301361     0.544948
    0.577227     0.633722     0.583979
    0.397408     0.587698     0.420694
    0.638278     0.519063     0.370775
    0.572248     0.607346     0.379722
    0.684065     0.490876     0.569503
    0.570276     0.356571     0.397272
    0.494682     0.417524     0.346226
    0.694563     0.508722     0.462314
    0.486156     0.650452     0.435866
    0.587725     0.651567     0.476790
    0.659024     0.419325     0.412444
    0.428652     0.505807     0.355174
EA159  21.501 19.959 19.244 90.00 90.00 90.00 Sym.group:    0
1.0000
   21.501272     0.000000     0.000000
    0.000000    19.959435     0.000000
    0.000000     0.000000    19.243744
   O  Cu
  18   24 
Direct
    0.382994     0.480603     0.605923
    0.648106     0.547115     0.625098
    0.405785     0.707477     0.568841
    0.558188     0.579378     0.314016
    0.388086     0.389666     0.481323
    0.640160     0.465916     0.547091
    0.443374     0.620604     0.395123
    0.447110     0.423600     0.339620
    0.566513     0.337231     0.436970
    0.442401     0.342397     0.573960
    0.550662     0.431836     0.657407
    0.554609     0.619986     0.604189
    0.494007     0.593571     0.648466
    0.514006     0.656412     0.417761
    0.394801     0.482359     0.356766
    0.603894     0.398642     0.396510
    0.381489     0.370339     0.520052
    0.601000     0.399988     0.600004
    0.490148     0.467594     0.355527
    0.507641     0.349457     0.428929
    0.499510     0.356408     0.573804
    0.504576     0.471409     0.635686
    0.569345     0.583802     0.551570
    0.429521     0.585729     0.444835
    0.513054     0.597650     0.355108
    0.405264     0.407198     0.408277
    0.613926     0.400576     0.488351
    0.401012     0.420812     0.585920
    0.605476     0.488370     0.618936
    0.469015     0.649048     0.581467
    0.488684     0.549964     0.576595
    0.520303     0.576244     0.450270
    0.437455     0.491577     0.421120
    0.543975     0.436819     0.429489
    0.450793     0.408225     0.506374
    0.549595     0.441125     0.565385
    0.298481     0.520261     0.538903
    0.712775     0.555500     0.484266
    0.326889     0.602135     0.585012
    0.642161     0.635734     0.448399
    0.347897     0.605308     0.479026
    0.655318     0.551935     0.397630
EA144  19.335 20.055 19.175 90.00 90.00 90.00 Sym.group:    0
1.0000
   19.335307     0.000000     0.000000
    0.000000    20.054623     0.000000
    0.000000     0.000000    19.175498
   O  Cu
  18   24 
Direct
    0.593199     0.475892     0.356294
    0.331671     0.504359     0.436217
    0.634821     0.471464     0.387181
    0.628638     0.362858     0.505212
    0.413896     0.350557     0.530818
    0.384238     0.381374     0.414795
    0.332398     0.439256     0.509039
    0.346961     0.422264     0.428480
    0.668882     0.414715     0.456182
    0.618628     0.374537     0.560585
    0.390272     0.656739     0.450714
    0.618048     0.677264     0.457935
    0.387053     0.655253     0.535755
    0.697949     0.471494     0.537572
    0.650715     0.557904     0.400076
    0.520209     0.652766     0.399987
    0.586935     0.401113     0.586012
    0.643396     0.554527     0.593433
    0.325595     0.590291     0.454337
    0.560774     0.575630     0.362299
    0.426369     0.484809     0.383263
    0.423906     0.338876     0.475445
    0.359663     0.410046     0.550727
    0.407393     0.390323     0.464288
    0.375146     0.425696     0.476126
    0.630797     0.416490     0.496770
    0.398733     0.400426     0.512190
    0.522073     0.350290     0.519693
    0.512890     0.649389     0.593343
    0.375771     0.554603     0.585867
    0.578796     0.514375     0.590835
    0.530021     0.578363     0.591885
    0.450919     0.550841     0.588603
    0.450807     0.469842     0.585525
    0.529840     0.447305     0.586905
    0.555529     0.549621     0.493916
    0.491768     0.564350     0.492672
    0.693996     0.448973     0.494011
    0.637250     0.664918     0.500603
    0.407088     0.672088     0.494367
    0.508778     0.512468     0.570228
    0.398187     0.615652     0.589815
EA128  20.707 20.288 20.032 90.00 90.00 90.00 Sym.group:    0
1.0000
   20.706989     0.000000     0.000000
    0.000000    20.288253     0.000000
    0.000000     0.000000    20.032317
   O  Cu
  18   24 
Direct
    0.568462     0.471430     0.307964
    0.571637     0.662021     0.556403
    0.638732     0.620929     0.420626
    0.692548     0.501675     0.545866
    0.442773     0.476442     0.350241
    0.568625     0.655987     0.402190
    0.678756     0.455314     0.477108
    0.563540     0.666054     0.598986
    0.599558     0.363410     0.574403
    0.470543     0.337729     0.389790
    0.576156     0.485280     0.669534
    0.349546     0.577507     0.603645
    0.297231     0.497665     0.478649
    0.462269     0.386646     0.639835
    0.365285     0.642970     0.557905
    0.508101     0.339975     0.590277
    0.409361     0.383481     0.357402
    0.499234     0.465570     0.682884
    0.611022     0.562106     0.407254
    0.668079     0.560421     0.534149
    0.455626     0.576162     0.414643
    0.519353     0.505165     0.332525
    0.602189     0.654536     0.486782
    0.489039     0.484190     0.422058
    0.542094     0.596881     0.448212
    0.613464     0.500142     0.483762
    0.565152     0.587752     0.564712
    0.414074     0.710119     0.530816
    0.402003     0.652648     0.429593
    0.577778     0.362368     0.389506
    0.630648     0.429791     0.610611
    0.312582     0.498583     0.560595
    0.315945     0.575498     0.424267
    0.614195     0.356898     0.468523
    0.462912     0.318133     0.494781
    0.429313     0.545165     0.668438
    0.336434     0.412714     0.427827
    0.368168     0.414612     0.597228
    0.533306     0.357070     0.482319
    0.368002     0.480685     0.394811
    0.409478     0.483166     0.616214
    0.496791     0.385110     0.606665
EA127  19.272 19.300 19.852 90.00 90.00 90.00 Sym.group:    0
1.0000
   19.271807     0.000000     0.000000
    0.000000    19.300174     0.000000
    0.000000     0.000000    19.852024
   O  Cu
  18   24 
Direct
    0.367927     0.392542     0.610950
    0.630265     0.359361     0.487281
    0.376144     0.458331     0.400439
    0.530785     0.517805     0.363327
    0.519682     0.325524     0.579241
    0.480314     0.355878     0.416471
    0.414206     0.344897     0.467789
    0.593357     0.464652     0.378836
    0.583577     0.365983     0.615889
    0.355314     0.530889     0.436925
    0.617322     0.583178     0.439786
    0.470027     0.631536     0.431429
    0.354604     0.541938     0.597962
    0.616612     0.594226     0.600823
    0.469317     0.642585     0.592465
    0.456394     0.634052     0.550267
    0.353338     0.525004     0.556822
    0.605142     0.599724     0.557448
    0.475227     0.354340     0.570718
    0.525490     0.377732     0.436274
    0.484417     0.512054     0.391060
    0.595942     0.548354     0.409483
    0.587747     0.350200     0.531581
    0.415617     0.412865     0.414105
    0.455678     0.403504     0.492705
    0.550557     0.473274     0.439567
    0.544826     0.417061     0.579537
    0.701969     0.447900     0.568502
    0.299507     0.432190     0.513170
    0.705462     0.466955     0.473107
    0.456731     0.628810     0.473864
    0.353675     0.519762     0.480418
    0.605479     0.594482     0.481045
    0.577489     0.540497     0.498320
    0.491395     0.577924     0.492640
    0.416269     0.523774     0.495218
    0.577269     0.543914     0.548125
    0.491175     0.581341     0.542445
    0.416049     0.527191     0.545023
    0.304029     0.586394     0.511666
    0.685950     0.606519     0.520706
    0.487726     0.704859     0.506572
EA46   20.707 20.991 16.536 90.00 90.00 90.00 Sym.group:    0
1.0000
   20.707012     0.000000     0.000000
    0.000000    20.991009     0.000000
    0.000000     0.000000    16.536322
   O  Cu
  18   24 
Direct
    0.699500     0.450809     0.540575
    0.556564     0.304970     0.540575
    0.357065     0.354162     0.540575
    0.300500     0.549191     0.540575
    0.443436     0.695030     0.540575
    0.642935     0.645838     0.540575
    0.699500     0.450809     0.459425
    0.556564     0.304970     0.459425
    0.357065     0.354162     0.459425
    0.300500     0.549191     0.459425
    0.443436     0.695030     0.459425
    0.642935     0.645838     0.459425
    0.522842     0.591522     0.617811
    0.591768     0.526248     0.617811
    0.568928     0.434725     0.617811
    0.477158     0.408478     0.617811
    0.408232     0.473752     0.617811
    0.431072     0.565275     0.617811
    0.522842     0.591522     0.382189
    0.591768     0.526248     0.382189
    0.568928     0.434725     0.382189
    0.477158     0.408478     0.382189
    0.408232     0.473752     0.382189
    0.431072     0.565275     0.382189
    0.478851     0.691583     0.500000
    0.657617     0.613859     0.500000
    0.678766     0.422276     0.500000
    0.521149     0.308417     0.500000
    0.342383     0.386141     0.500000
    0.321234     0.577724     0.500000
    0.401366     0.508775     0.458847
    0.458386     0.588652     0.458847
    0.557020     0.579877     0.458847
    0.598634     0.491225     0.458847
    0.541614     0.411348     0.458847
    0.442980     0.420123     0.458847
    0.401366     0.508775     0.541153
    0.458386     0.588652     0.541153
    0.557020     0.579877     0.541153
    0.598634     0.491225     0.541153
    0.541614     0.411348     0.541153
    0.442980     0.420123     0.541153
EA119  18.882 20.536 20.253 90.00 90.00 90.00 Sym.group:    0
1.0000
   18.881574     0.000000     0.000000
    0.000000    20.536062     0.000000
    0.000000     0.000000    20.253404
   O  Cu
  18   24 
Direct
    0.497004     0.303262     0.500868
    0.711959     0.424247     0.503468
    0.727763     0.549344     0.504348
    0.411215     0.488568     0.347401
    0.704179     0.479567     0.396780
    0.502035     0.586064     0.343276
    0.493106     0.531205     0.325138
    0.714835     0.533947     0.419457
    0.480809     0.668372     0.547682
    0.348611     0.514695     0.367868
    0.341221     0.612255     0.483864
    0.337335     0.432392     0.556648
    0.586621     0.522421     0.658518
    0.421011     0.518903     0.657686
    0.405230     0.457531     0.584199
    0.488672     0.497767     0.630293
    0.586339     0.476582     0.603166
    0.419456     0.396111     0.510978
    0.727521     0.503447     0.536905
    0.418475     0.321670     0.471476
    0.507559     0.317390     0.558773
    0.467390     0.358197     0.558789
    0.461524     0.572683     0.386951
    0.682668     0.468010     0.450114
    0.458285     0.346122     0.508761
    0.690882     0.476222     0.499053
    0.453605     0.525054     0.370327
    0.387235     0.414382     0.422174
    0.604179     0.360631     0.500041
    0.611581     0.535826     0.364095
    0.444549     0.626037     0.499071
    0.383213     0.573784     0.438262
    0.549583     0.622628     0.492902
    0.364527     0.530193     0.459050
    0.423834     0.598371     0.538811
    0.551272     0.604543     0.543567
    0.499357     0.545708     0.614832
    0.388816     0.505381     0.569177
    0.388639     0.430029     0.479704
    0.431166     0.633548     0.650473
    0.656555     0.606202     0.613450
    0.270184     0.530707     0.531606
EA60   19.666 18.956 18.345 90.00 90.00 90.00 Sym.group:    0
1.0000
   19.665531     0.000000     0.000000
    0.000000    18.955955     0.000000
    0.000000     0.000000    18.345315
   O  Cu
  18   24 
Direct
    0.379319     0.389178     0.421713
    0.407672     0.655686     0.460078
    0.376106     0.376533     0.550489
    0.314196     0.470851     0.507360
    0.397134     0.359197     0.455326
    0.639515     0.505205     0.645682
    0.661909     0.405653     0.437864
    0.643119     0.588147     0.596944
    0.665513     0.488595     0.389127
    0.516606     0.465782     0.680172
    0.631328     0.408728     0.582312
    0.566036     0.348811     0.440810
    0.524800     0.654367     0.569360
    0.639522     0.597313     0.471499
    0.574231     0.537395     0.329997
    0.324834     0.547424     0.443669
    0.619504     0.504204     0.351818
    0.464762     0.695555     0.575661
    0.346801     0.415985     0.568874
    0.325686     0.461379     0.455361
    0.396182     0.665158     0.512077
    0.471851     0.423625     0.369539
    0.509621     0.360066     0.440798
    0.352062     0.572178     0.539649
    0.410075     0.474553     0.649103
    0.376422     0.552096     0.429409
    0.472205     0.390912     0.610124
    0.502750     0.474304     0.483314
    0.486954     0.487326     0.554794
    0.462464     0.528537     0.508588
    0.548557     0.380936     0.507738
    0.560269     0.415506     0.583966
    0.556815     0.570987     0.396062
    0.498382     0.626884     0.503188
    0.568528     0.605557     0.472290
    0.531281     0.520072     0.541588
    0.557116     0.492202     0.487489
    0.626390     0.555774     0.637620
    0.675691     0.455175     0.433178
    0.508510     0.577910     0.450104
    0.490124     0.436833     0.614863
    0.419155     0.557419     0.340405
EA124  20.409 19.429 18.162 90.00 90.00 90.00 Sym.group:    0
1.0000
   20.409460     0.000000     0.000000
    0.000000    19.428815     0.000000
    0.000000     0.000000    18.161850
   O  Cu
  18   24 
Direct
    0.428042     0.377978     0.385401
    0.400375     0.644476     0.454756
    0.335540     0.439318     0.454404
    0.445233     0.347711     0.416210
    0.696840     0.441429     0.469132
    0.693278     0.529717     0.435743
    0.613628     0.367963     0.442685
    0.634381     0.625087     0.514118
    0.605530     0.568704     0.366770
    0.342471     0.524012     0.408775
    0.651948     0.541185     0.393369
    0.616998     0.435445     0.639035
    0.440422     0.604123     0.616995
    0.482683     0.429720     0.596516
    0.506538     0.370657     0.515379
    0.471899     0.452589     0.634111
    0.357740     0.374713     0.564314
    0.339069     0.520324     0.604092
    0.357108     0.437215     0.410099
    0.378806     0.646578     0.499060
    0.520320     0.433622     0.365058
    0.394106     0.539026     0.409004
    0.522079     0.477728     0.478631
    0.468797     0.522223     0.497182
    0.571441     0.592371     0.424698
    0.563775     0.620986     0.498704
    0.570916     0.504501     0.497265
    0.701940     0.493633     0.473596
    0.449485     0.560860     0.341003
    0.440297     0.608279     0.557841
    0.626614     0.458721     0.587898
    0.569849     0.587321     0.598607
    0.577492     0.454628     0.550672
    0.556561     0.538068     0.563238
    0.479334     0.566346     0.542714
    0.685622     0.412653     0.543468
    0.466333     0.687304     0.531689
    0.299616     0.499139     0.512471
    0.305409     0.429899     0.505870
    0.527496     0.420045     0.565532
    0.459823     0.413351     0.546072
    0.444162     0.500353     0.587824
EA114  18.866 19.661 20.325 90.00 90.00 90.00 Sym.group:    0
1.0000
   18.866341     0.000000     0.000000
    0.000000    19.660971     0.000000
    0.000000     0.000000    20.325298
   O  Cu
  18   24 
Direct
    0.356437     0.582702     0.414213
    0.513118     0.643228     0.403420
    0.652241     0.546741     0.406358
    0.605159     0.632879     0.584106
    0.435486     0.661572     0.587940
    0.403550     0.566240     0.596464
    0.498931     0.613084     0.589059
    0.593012     0.559095     0.590108
    0.658377     0.463644     0.590215
    0.636499     0.350696     0.526156
    0.400205     0.327091     0.566149
    0.628666     0.376580     0.577405
    0.408039     0.301206     0.514901
    0.328672     0.402469     0.531061
    0.349134     0.388360     0.456754
    0.478056     0.351109     0.434764
    0.534290     0.671171     0.569332
    0.698027     0.459947     0.473210
    0.601727     0.459115     0.416110
    0.571509     0.556872     0.409070
    0.465349     0.584058     0.410699
    0.389406     0.513486     0.419367
    0.364635     0.509441     0.466799
    0.442606     0.605812     0.455905
    0.574063     0.589257     0.452462
    0.627546     0.476330     0.459913
    0.516666     0.625718     0.541170
    0.393647     0.584342     0.549133
    0.273945     0.589536     0.508271
    0.464445     0.720093     0.490399
    0.687100     0.629834     0.489753
    0.340744     0.394836     0.574566
    0.677605     0.400101     0.464405
    0.637857     0.409149     0.505338
    0.381785     0.377537     0.537391
    0.655524     0.460918     0.512955
    0.631081     0.431540     0.549673
    0.519410     0.332141     0.549227
    0.307176     0.527922     0.558055
    0.406517     0.402597     0.379374
    0.456821     0.476947     0.462187
    0.434938     0.444603     0.426162
EA135  19.712 19.724 20.212 90.00 90.00 90.00 Sym.group:    0
1.0000
   19.711595     0.000000     0.000000
    0.000000    19.723695     0.000000
    0.000000     0.000000    20.212045
   O  Cu
  18   24 
Direct
    0.407667     0.426431     0.608990
    0.641550     0.588323     0.592785
    0.425243     0.349005     0.490546
    0.650091     0.514218     0.516065
    0.607239     0.372384     0.417960
    0.508350     0.323120     0.563010
    0.595176     0.443030     0.627694
    0.482302     0.569212     0.641552
    0.431727     0.327365     0.525438
    0.644832     0.436105     0.565131
    0.609490     0.457453     0.378646
    0.670679     0.573644     0.529501
    0.354839     0.634232     0.476150
    0.414291     0.494899     0.345673
    0.540773     0.642874     0.398819
    0.426852     0.678039     0.535074
    0.344826     0.464074     0.412789
    0.586226     0.555565     0.372130
    0.545386     0.360955     0.421311
    0.558322     0.357637     0.554480
    0.533576     0.462138     0.618596
    0.423913     0.374653     0.422884
    0.638599     0.446474     0.462240
    0.443290     0.378861     0.585446
    0.621030     0.518022     0.588397
    0.480770     0.530471     0.573895
    0.482825     0.389248     0.504758
    0.575457     0.455143     0.545319
    0.301374     0.429961     0.566697
    0.305616     0.516645     0.605262
    0.475957     0.576718     0.353502
    0.605271     0.643812     0.565212
    0.345809     0.608422     0.571715
    0.435322     0.635913     0.635895
    0.620792     0.621202     0.457348
    0.370922     0.571836     0.397187
    0.442372     0.655428     0.427210
    0.659611     0.516456     0.445952
    0.433731     0.402355     0.378748
    0.514776     0.471973     0.342106
    0.311242     0.542784     0.486497
    0.531886     0.682921     0.491390
EA154  20.441 21.273 16.071 90.00 90.00 90.00 Sym.group:    0
1.0000
   20.441134     0.000000     0.000000
    0.000000    21.272770     0.000000
    0.000000     0.000000    16.071328
   O  Cu
  18   24 
Direct
    0.622289     0.586314     0.393273
    0.632771     0.444402     0.403495
    0.516648     0.355077     0.393273
    0.383507     0.417312     0.403495
    0.361063     0.558608     0.393273
    0.483723     0.638286     0.403495
    0.614943     0.583185     0.596453
    0.639264     0.439854     0.606779
    0.517499     0.362755     0.596453
    0.376162     0.414182     0.606779
    0.367556     0.554060     0.596453
    0.484575     0.645964     0.606779
    0.498023     0.642405     0.553384
    0.622776     0.572038     0.543039
    0.629333     0.430442     0.553384
    0.503537     0.361811     0.543039
    0.372644     0.427153     0.553384
    0.373687     0.566151     0.543039
    0.497626     0.638899     0.456888
    0.626135     0.573461     0.446689
    0.626372     0.432527     0.456888
    0.503139     0.358304     0.446689
    0.376004     0.428575     0.456888
    0.370725     0.568236     0.446689
    0.433630     0.442838     0.469962
    0.414054     0.527235     0.467183
    0.481667     0.583813     0.469962
    0.567520     0.557905     0.467183
    0.584703     0.473350     0.469962
    0.518426     0.414860     0.467183
    0.431666     0.441362     0.532817
    0.416366     0.526339     0.530038
    0.481319     0.586184     0.532817
    0.565556     0.556429     0.530038
    0.587015     0.472454     0.532817
    0.518078     0.417232     0.530038
    0.648607     0.643943     0.491534
    0.704591     0.444717     0.508466
    0.555427     0.304363     0.491534
    0.347880     0.357388     0.508466
    0.295967     0.551694     0.491534
    0.447530     0.697896     0.508466
EA4    20.139 21.297 15.906 90.00 90.00 90.00 Sym.group:    0
1.0000
   20.138899     0.000000     0.000000
    0.000000    21.297185     0.000000
    0.000000     0.000000    15.906206
   O  Cu
  18   24 
Direct
    0.356309     0.542346     0.397329
    0.389372     0.403500     0.397329
    0.533064     0.361155     0.397329
    0.643691     0.457654     0.397329
    0.610628     0.596500     0.397329
    0.466936     0.638845     0.397329
    0.356309     0.542346     0.602671
    0.389372     0.403500     0.602671
    0.533064     0.361155     0.602671
    0.643691     0.457654     0.602671
    0.610628     0.596500     0.602671
    0.466936     0.638845     0.602671
    0.454239     0.633315     0.548712
    0.355026     0.529182     0.548712
    0.400786     0.395867     0.548712
    0.545761     0.366685     0.548712
    0.644974     0.470818     0.548712
    0.599214     0.604133     0.548712
    0.454239     0.633315     0.451288
    0.355026     0.529182     0.451288
    0.400786     0.395867     0.451288
    0.545761     0.366685     0.451288
    0.644974     0.470818     0.451288
    0.599214     0.604133     0.451288
    0.584073     0.466672     0.468246
    0.572559     0.552185     0.468246
    0.488486     0.585513     0.468246
    0.415927     0.533328     0.468246
    0.427441     0.447815     0.468246
    0.511514     0.414487     0.468246
    0.584073     0.466672     0.531754
    0.572559     0.552185     0.531754
    0.488486     0.585513     0.531754
    0.415927     0.533328     0.531754
    0.427441     0.447815     0.531754
    0.511514     0.414487     0.531754
    0.306317     0.588124     0.500000
    0.322451     0.385451     0.500000
    0.516135     0.297326     0.500000
    0.693683     0.411876     0.500000
    0.677549     0.614549     0.500000
    0.483865     0.702674     0.500000
EA69   25.672 17.623 19.486 90.00 90.00 90.00 Sym.group:    0
1.0000
   25.672099     0.000000     0.000000
    0.000000    17.623077     0.000000
    0.000000     0.000000    19.485888
   O  Cu
  18   24 
Direct
    0.470664     0.535208     0.473504
    0.563051     0.538716     0.513612
    0.469968     0.551528     0.531776
    0.657966     0.673380     0.468829
    0.286896     0.537029     0.528322
    0.584512     0.676975     0.473795
    0.412040     0.535527     0.503493
    0.376372     0.541104     0.515704
    0.289754     0.443833     0.541853
    0.688907     0.429493     0.611924
    0.402352     0.351625     0.443118
    0.679397     0.488552     0.423853
    0.521373     0.333288     0.547423
    0.562123     0.361516     0.410376
    0.515431     0.533924     0.361406
    0.455512     0.373344     0.569552
    0.633697     0.360714     0.469976
    0.445554     0.467441     0.359124
    0.352610     0.507856     0.476448
    0.339446     0.634812     0.503985
    0.433514     0.682389     0.487186
    0.308868     0.505424     0.563592
    0.537730     0.672691     0.537092
    0.492931     0.654770     0.488997
    0.602432     0.582271     0.504085
    0.257351     0.465644     0.536406
    0.378474     0.486007     0.519588
    0.312727     0.542392     0.499330
    0.342029     0.581239     0.531316
    0.363577     0.447177     0.566087
    0.570587     0.370622     0.550766
    0.515073     0.381837     0.420097
    0.565573     0.535009     0.395859
    0.647685     0.466154     0.633668
    0.448499     0.349496     0.491535
    0.634753     0.433443     0.425211
    0.499228     0.433175     0.547872
    0.592706     0.423174     0.487288
    0.493285     0.486439     0.423511
    0.764001     0.581707     0.518178
    0.768639     0.567017     0.603997
    0.762714     0.476059     0.540267
EA131  19.477 19.042 20.117 90.00 90.00 90.00 Sym.group:    0
1.0000
   19.476808     0.000000     0.000000
    0.000000    19.041675     0.000000
    0.000000     0.000000    20.117064
   O  Cu
  18   24 
Direct
    0.526944     0.590998     0.362923
    0.592344     0.375826     0.411892
    0.692028     0.453891     0.434923
    0.681854     0.571355     0.497641
    0.675467     0.451102     0.563643
    0.498326     0.680600     0.576432
    0.692273     0.508514     0.425526
    0.422398     0.458539     0.349226
    0.379805     0.608613     0.580509
    0.465098     0.375467     0.623766
    0.497567     0.322438     0.454225
    0.525314     0.339091     0.578924
    0.331238     0.409187     0.500719
    0.375893     0.542125     0.624790
    0.352650     0.595609     0.456019
    0.333394     0.517581     0.426091
    0.571712     0.539025     0.647301
    0.646153     0.402426     0.547469
    0.509094     0.620783     0.414694
    0.504265     0.700886     0.527630
    0.675916     0.551069     0.546444
    0.613085     0.532799     0.355858
    0.581157     0.423733     0.618239
    0.594545     0.644614     0.484174
    0.593227     0.350936     0.534698
    0.581956     0.601606     0.587639
    0.533634     0.537943     0.502345
    0.533297     0.462855     0.515263
    0.496996     0.499253     0.330682
    0.422684     0.350320     0.425152
    0.350319     0.418677     0.577922
    0.408942     0.450066     0.650870
    0.410548     0.662910     0.504449
    0.353089     0.420666     0.409453
    0.471288     0.483110     0.549561
    0.470908     0.550565     0.502229
    0.452214     0.473840     0.473122
    0.443304     0.468840     0.593169
    0.444218     0.599401     0.504954
    0.408987     0.450647     0.445576
    0.403778     0.541703     0.472547
    0.482092     0.460394     0.411311
EA59   20.747 20.817 20.874 90.00 90.00 90.00 Sym.group:    0
1.0000
   20.746605     0.000000     0.000000
    0.000000    20.817060     0.000000
    0.000000     0.000000    20.874151
   O  Cu
  18   24 
Direct
    0.571860     0.460459     0.335496
    0.318554     0.418792     0.493560
    0.608632     0.346253     0.540597
    0.491949     0.405244     0.656340
    0.401142     0.433437     0.366280
    0.463561     0.317119     0.497182
    0.517317     0.329571     0.429728
    0.408121     0.398222     0.631066
    0.356253     0.509307     0.384406
    0.521888     0.570976     0.365003
    0.432592     0.625522     0.483829
    0.664807     0.501631     0.503246
    0.512691     0.630901     0.566892
    0.413436     0.576836     0.585960
    0.616700     0.521652     0.606660
    0.550610     0.561614     0.323088
    0.399374     0.648174     0.515914
    0.696873     0.511097     0.542295
    0.456531     0.434039     0.376678
    0.429255     0.361259     0.510402
    0.531120     0.408955     0.616575
    0.440767     0.481854     0.661346
    0.351378     0.434070     0.440219
    0.550151     0.336402     0.514148
    0.502514     0.402538     0.461063
    0.447948     0.438709     0.576309
    0.418192     0.505758     0.431972
    0.661130     0.392467     0.413237
    0.296592     0.506047     0.596577
    0.703230     0.437886     0.497848
    0.484884     0.672032     0.557961
    0.418611     0.621312     0.608323
    0.651660     0.490882     0.627386
    0.698763     0.613016     0.489945
    0.441671     0.555537     0.701820
    0.363362     0.516385     0.332863
    0.321373     0.599378     0.443441
    0.584176     0.700632     0.500790
    0.617982     0.641822     0.372320
    0.570141     0.584165     0.595757
    0.638393     0.489682     0.428546
    0.473817     0.608366     0.416931
EA57   19.752 19.396 19.480 90.00 90.00 90.00 Sym.group:    0
1.0000
   19.751912     0.000000     0.000000
    0.000000    19.396003     0.000000
    0.000000     0.000000    19.480262
   O  Cu
  18   24 
Direct
    0.588852     0.583835     0.622542
    0.331347     0.473172     0.583164
    0.598908     0.368461     0.563406
    0.467108     0.393485     0.632030
    0.475641     0.337053     0.462540
    0.424189     0.561775     0.644738
    0.380124     0.601068     0.585989
    0.525749     0.442447     0.660011
    0.399552     0.357786     0.495453
    0.379137     0.435910     0.378869
    0.405046     0.654626     0.451964
    0.704509     0.426324     0.512603
    0.701407     0.541563     0.450672
    0.455791     0.333356     0.410896
    0.655837     0.429463     0.391072
    0.524971     0.679126     0.418666
    0.433331     0.652154     0.410686
    0.717502     0.478173     0.520232
    0.474282     0.639938     0.507900
    0.475183     0.549863     0.629933
    0.433439     0.415278     0.597225
    0.546835     0.385861     0.595590
    0.564340     0.616504     0.575744
    0.368616     0.516196     0.602822
    0.432916     0.560496     0.548908
    0.508480     0.468069     0.590540
    0.443712     0.416911     0.497443
    0.327975     0.523186     0.381371
    0.297986     0.556603     0.474179
    0.298998     0.459334     0.457857
    0.546760     0.696337     0.464303
    0.679618     0.524352     0.405034
    0.446996     0.367994     0.372887
    0.662881     0.513351     0.608483
    0.424989     0.541661     0.373760
    0.545734     0.420817     0.363116
    0.634241     0.626144     0.484713
    0.564380     0.347384     0.443697
    0.588047     0.589655     0.387958
    0.481595     0.515014     0.479834
    0.550429     0.535274     0.485828
    0.532567     0.464000     0.475341
EA118  19.748 19.573 19.633 90.00 90.00 90.00 Sym.group:    0
1.0000
   19.747766     0.000000     0.000000
    0.000000    19.572501     0.000000
    0.000000     0.000000    19.633305
   O  Cu
  18   24 
Direct
    0.361249     0.394895     0.550911
    0.569851     0.353724     0.417846
    0.463276     0.318307     0.567226
    0.493304     0.328533     0.437720
    0.386093     0.405757     0.422775
    0.640621     0.380196     0.586168
    0.513989     0.522412     0.356524
    0.674777     0.504973     0.451845
    0.580662     0.472761     0.360257
    0.341851     0.512793     0.585027
    0.357321     0.616058     0.503012
    0.569602     0.667650     0.572817
    0.360979     0.596908     0.561162
    0.565943     0.686801     0.514668
    0.649732     0.601602     0.559501
    0.638694     0.606326     0.477912
    0.516999     0.625339     0.431121
    0.582898     0.395646     0.662374
    0.520707     0.338970     0.623457
    0.657431     0.385947     0.505265
    0.389750     0.481094     0.392323
    0.641835     0.417669     0.413710
    0.408732     0.336144     0.488083
    0.432635     0.571213     0.382632
    0.551560     0.464025     0.487323
    0.478274     0.438333     0.512252
    0.486349     0.512660     0.478314
    0.591405     0.443896     0.456068
    0.449257     0.393677     0.500390
    0.459537     0.538559     0.439238
    0.631904     0.611148     0.601231
    0.325045     0.474127     0.543281
    0.332870     0.559805     0.442277
    0.365646     0.559134     0.491382
    0.596460     0.619762     0.554404
    0.354273     0.509118     0.505572
    0.368811     0.542568     0.541687
    0.461280     0.648353     0.539778
    0.681005     0.488194     0.611567
    0.596973     0.580054     0.392878
    0.569315     0.541366     0.444166
    0.381105     0.553504     0.633856
EA133  20.189 18.979 20.007 90.00 90.00 90.00 Sym.group:    0
1.0000
   20.188987     0.000000     0.000000
    0.000000    18.978992     0.000000
    0.000000     0.000000    20.006841
   O  Cu
  18   24 
Direct
    0.681340     0.487890     0.541130
    0.435098     0.665494     0.430571
    0.574189     0.667741     0.558566
    0.620002     0.585244     0.392083
    0.382158     0.617736     0.603403
    0.505855     0.688751     0.493489
    0.622448     0.498167     0.619874
    0.629674     0.477758     0.383505
    0.673382     0.461083     0.431513
    0.422041     0.308598     0.515274
    0.358719     0.388519     0.435490
    0.613777     0.346450     0.438978
    0.646823     0.427524     0.400527
    0.483125     0.400182     0.648440
    0.311120     0.517811     0.398842
    0.315496     0.442919     0.507113
    0.313122     0.461619     0.418810
    0.545785     0.448337     0.658655
    0.453439     0.571518     0.655053
    0.610308     0.643418     0.471747
    0.531734     0.642148     0.399442
    0.326304     0.569464     0.538060
    0.561919     0.599766     0.629723
    0.475949     0.661773     0.591123
    0.670838     0.541819     0.461898
    0.439250     0.585098     0.366647
    0.543703     0.539765     0.344905
    0.644958     0.588422     0.555944
    0.397375     0.660503     0.518818
    0.622279     0.335709     0.490973
    0.688942     0.441424     0.526670
    0.413539     0.319340     0.463279
    0.567528     0.486703     0.354375
    0.411187     0.465536     0.373349
    0.613239     0.428950     0.633926
    0.508728     0.342445     0.422792
    0.483496     0.356842     0.607712
    0.315126     0.486259     0.547841
    0.335831     0.480839     0.468980
    0.518829     0.424406     0.613987
    0.335510     0.518332     0.504213
    0.395836     0.417697     0.582278
EA155  21.019 19.646 18.417 90.00 90.00 90.00 Sym.group:    0
1.0000
   21.019195     0.000000     0.000000
    0.000000    19.645508     0.000000
    0.000000     0.000000    18.417432
   O  Cu
  18   24 
Direct
    0.581080     0.412998     0.629736
    0.342936     0.531481     0.588259
    0.597094     0.625533     0.569067
    0.472999     0.606123     0.640127
    0.481048     0.661134     0.460904
    0.427642     0.441498     0.652781
    0.384941     0.403786     0.590229
    0.526822     0.555983     0.670026
    0.409282     0.643044     0.494896
    0.388008     0.565073     0.372169
    0.404950     0.349965     0.447818
    0.693159     0.566429     0.511847
    0.687018     0.456298     0.442173
    0.462029     0.665402     0.406066
    0.648061     0.567268     0.390844
    0.518040     0.326439     0.415940
    0.430813     0.350360     0.404831
    0.709476     0.516764     0.515947
    0.471645     0.362520     0.508809
    0.475826     0.451424     0.637511
    0.440390     0.585562     0.602830
    0.547814     0.610891     0.602350
    0.556990     0.382279     0.580682
    0.376562     0.487987     0.608420
    0.435447     0.442087     0.551539
    0.509235     0.531029     0.596245
    0.449096     0.583324     0.497401
    0.337898     0.480246     0.374217
    0.309030     0.448686     0.472086
    0.312238     0.544545     0.455591
    0.538213     0.306536     0.465206
    0.668533     0.474571     0.394456
    0.452383     0.631452     0.365692
    0.652382     0.480729     0.613939
    0.428578     0.459585     0.366629
    0.543610     0.576452     0.356338
    0.622847     0.371592     0.484037
    0.563967     0.648378     0.441887
    0.582513     0.411196     0.381848
    0.482039     0.485412     0.478907
    0.546196     0.463600     0.485028
    0.531172     0.534339     0.474692
EA101  19.541 19.481 19.318 90.00 90.00 90.00 Sym.group:    0
1.0000
   19.541253     0.000000     0.000000
    0.000000    19.481249     0.000000
    0.000000     0.000000    19.318331
   O  Cu
  18   24 
Direct
    0.607623     0.366014     0.551421
    0.464398     0.472013     0.675723
    0.519431     0.661797     0.579477
    0.672692     0.552923     0.458082
    0.578830     0.611958     0.616829
    0.388064     0.631992     0.445212
    0.416586     0.389794     0.384492
    0.483000     0.327683     0.552033
    0.477830     0.341592     0.416635
    0.607371     0.378881     0.418218
    0.332268     0.445545     0.543118
    0.534772     0.528671     0.330991
    0.361774     0.569213     0.401929
    0.633479     0.432028     0.599425
    0.518209     0.670983     0.446504
    0.394318     0.621521     0.580179
    0.454531     0.503696     0.324401
    0.371909     0.548652     0.617219
    0.544399     0.496625     0.675770
    0.426678     0.368632     0.599686
    0.330677     0.452988     0.458841
    0.578811     0.630180     0.404149
    0.669016     0.547214     0.542414
    0.633485     0.450183     0.386736
    0.370053     0.473928     0.368848
    0.628423     0.526562     0.631590
    0.552832     0.323185     0.480717
    0.445453     0.676905     0.514876
    0.378570     0.450175     0.631445
    0.624066     0.549315     0.369997
    0.540303     0.508488     0.541568
    0.459690     0.491398     0.457188
    0.483018     0.555875     0.504639
    0.516896     0.444015     0.493920
    0.539021     0.515659     0.458229
    0.461119     0.484185     0.540672
    0.578960     0.516213     0.580382
    0.420047     0.484055     0.419444
    0.465804     0.608618     0.507389
    0.531498     0.391607     0.486623
    0.579035     0.529683     0.422956
    0.425061     0.469355     0.580032
EA86   22.726 15.697 14.816 90.00 90.00 90.00 Sym.group:    0
1.0000
   22.725965     0.000000     0.000000
    0.000000    15.696793     0.000000
    0.000000     0.000000    14.815585
   O  Cu
  18   24 
Direct
    0.419039     0.402630     0.540302
    0.580961     0.597370     0.540302
    0.580961     0.402630     0.459698
    0.419039     0.597370     0.459698
    0.419039     0.402630     0.459698
    0.580961     0.597370     0.459698
    0.580961     0.402630     0.540302
    0.419039     0.597370     0.540302
    0.321208     0.463644     0.438670
    0.678792     0.536356     0.438670
    0.678792     0.463644     0.561330
    0.321208     0.536356     0.561330
    0.321208     0.463644     0.561330
    0.678792     0.536356     0.561330
    0.678792     0.463644     0.438670
    0.321208     0.536356     0.438670
    0.431694     0.447970     0.426578
    0.568306     0.552030     0.426578
    0.568306     0.447970     0.573422
    0.431694     0.552030     0.573422
    0.431694     0.447970     0.573422
    0.568306     0.552030     0.573422
    0.568306     0.447970     0.426578
    0.431694     0.552030     0.426578
    0.617162     0.558625     0.500000
    0.382838     0.441375     0.500000
    0.382838     0.558625     0.500000
    0.617162     0.441375     0.500000
    0.472202     0.442269     0.536383
    0.527798     0.557731     0.536383
    0.527798     0.442269     0.463617
    0.472202     0.557731     0.463617
    0.472202     0.442269     0.463617
    0.527798     0.557731     0.463617
    0.527798     0.442269     0.536383
    0.472202     0.557731     0.536383
    0.431099     0.540958     0.500000
    0.568901     0.459042     0.500000
    0.568901     0.540958     0.500000
    0.431099     0.459042     0.500000
    0.278096     0.500000     0.500000
    0.721904     0.500000     0.500000
EA136  20.613 18.680 19.465 90.00 90.00 90.00 Sym.group:    0
1.0000
   20.612988     0.000000     0.000000
    0.000000    18.679873     0.000000
    0.000000     0.000000    19.464982
   O  Cu
  18   24 
Direct
    0.377017     0.359750     0.457974
    0.637471     0.378900     0.577813
    0.651352     0.514720     0.395370
    0.506644     0.327986     0.550794
    0.619446     0.387702     0.455780
    0.546743     0.483459     0.338592
    0.306194     0.492701     0.472505
    0.599026     0.509883     0.361318
    0.441389     0.290898     0.555094
    0.346306     0.568608     0.442425
    0.457447     0.678600     0.444704
    0.599852     0.633519     0.421067
    0.649355     0.516211     0.585793
    0.554848     0.637195     0.614480
    0.408507     0.506548     0.612897
    0.473255     0.583007     0.615992
    0.566279     0.563221     0.601931
    0.594556     0.466976     0.584775
    0.369659     0.343509     0.507313
    0.340431     0.447634     0.556964
    0.356032     0.482066     0.452364
    0.454130     0.483586     0.523971
    0.531702     0.439675     0.397304
    0.476718     0.371572     0.495447
    0.546938     0.389045     0.462484
    0.629185     0.410824     0.625122
    0.487819     0.431352     0.453042
    0.389006     0.482923     0.361181
    0.530622     0.615902     0.427522
    0.435473     0.606174     0.437626
    0.415180     0.603496     0.486952
    0.528024     0.631798     0.477363
    0.604839     0.542409     0.455323
    0.587341     0.576582     0.554037
    0.479423     0.616684     0.572797
    0.390372     0.536162     0.572058
    0.285907     0.516269     0.535975
    0.404456     0.704133     0.548476
    0.613693     0.692949     0.521606
    0.585829     0.306036     0.469735
    0.517155     0.375437     0.533799
    0.704379     0.493899     0.482236
EA53   17.775 17.775 36.179 90.00 90.00 90.00 Sym.group:    0
1.0000
   17.775140     0.000000     0.000000
    0.000000    17.775140     0.000000
    0.000000     0.000000    36.178619
   O  Cu
  18   24 
Direct
    0.673639     0.444474     0.451068
    0.612075     0.444474     0.451068
    0.673639     0.555526     0.548932
    0.612075     0.599595     0.472719
    0.673639     0.599595     0.472719
    0.673639     0.400405     0.527281
    0.612075     0.555526     0.548932
    0.612075     0.400405     0.527281
    0.832965     0.508100     0.439527
    0.452749     0.508100     0.439527
    0.832965     0.491900     0.560473
    0.452749     0.623083     0.503979
    0.832965     0.623083     0.503979
    0.832965     0.376917     0.496021
    0.452749     0.491900     0.560473
    0.452749     0.376917     0.496021
    0.105672     0.500000     0.500000
    0.180042     0.500000     0.500000
    0.281119     0.500000     0.500000
    0.004595     0.500000     0.500000
    0.817547     0.500000     0.500000
    0.468167     0.500000     0.500000
    0.304979     0.399631     0.495856
   -0.019265     0.399631     0.495856
    0.304979     0.600369     0.504144
   -0.019265     0.508435     0.450687
    0.304979     0.508435     0.450687
    0.304979     0.491565     0.549313
   -0.019265     0.600369     0.504144
   -0.019265     0.491565     0.549313
    0.642857     0.390045     0.424898
    0.642857     0.652859     0.445977
    0.642857     0.609955     0.575102
    0.642857     0.347141     0.554023
    0.732844     0.470568     0.441389
    0.552870     0.470568     0.441389
    0.732844     0.529432     0.558611
    0.552870     0.619294     0.485540
    0.732844     0.619294     0.485540
    0.732844     0.380706     0.514460
    0.552870     0.529432     0.558611
    0.552870     0.380706     0.514460
EA50   19.970 19.970 19.970 90.00 90.00 90.00 Sym.group:    0
1.0000
   19.970044     0.000000     0.000000
    0.000000    19.970044     0.000000
    0.000000     0.000000    19.970044
   O  Cu
  18   24 
Direct
    0.321919     0.594778     0.537829
    0.340235     0.376830     0.462171
    0.678081     0.405222     0.537829
    0.659765     0.623170     0.462171
    0.605806     0.546855     0.330481
    0.551893     0.334244     0.609358
    0.387858     0.528538     0.669519
    0.448107     0.665756     0.609358
    0.612142     0.471462     0.669519
    0.476499     0.327909     0.390642
    0.394194     0.453145     0.330481
    0.523501     0.672091     0.390642
    0.334244     0.448107     0.390642
    0.327909     0.523501     0.609358
    0.672091     0.476499     0.609358
    0.665756     0.551893     0.390642
    0.594778     0.678081     0.462171
    0.546855     0.394194     0.669519
    0.405222     0.321919     0.462171
    0.471462     0.387858     0.330481
    0.623170     0.340235     0.537829
    0.453145     0.605806     0.669519
    0.376830     0.659765     0.537829
    0.528538     0.612142     0.330481
    0.687835     0.456417     0.440840
    0.677927     0.574321     0.559160
    0.312165     0.543583     0.440840
    0.322073     0.425679     0.559160
    0.446002     0.436094     0.683526
    0.425679     0.677927     0.440840
    0.563906     0.446002     0.316474
    0.574321     0.322073     0.440840
    0.436094     0.553998     0.316474
    0.543583     0.687835     0.559160
    0.553998     0.563906     0.683526
    0.456417     0.312165     0.559160
    0.661973     0.513612     0.500000
    0.338027     0.486388     0.500000
    0.486388     0.661973     0.500000
    0.513612     0.338027     0.500000
    0.500000     0.500000     0.662543
    0.500000     0.500000     0.337457
EA145  18.635 18.339 19.750 90.00 90.00 90.00 Sym.group:    0
1.0000
   18.635428     0.000000     0.000000
    0.000000    18.339166     0.000000
    0.000000     0.000000    19.750439
   O  Cu
  18   24 
Direct
    0.681364     0.489300     0.585833
    0.468948     0.401664     0.628625
    0.321831     0.542396     0.505897
    0.435675     0.660247     0.523759
    0.508038     0.541574     0.644425
    0.529933     0.330333     0.499196
    0.424578     0.537105     0.630925
    0.446978     0.693873     0.491739
    0.672864     0.434813     0.418009
    0.689762     0.535964     0.447799
    0.546332     0.407361     0.360973
    0.625647     0.353093     0.486817
    0.584752     0.637347     0.428703
    0.664067     0.583079     0.554547
    0.537548     0.690862     0.400092
    0.353757     0.384224     0.541737
    0.312163     0.503292     0.455482
    0.687468     0.426719     0.463632
    0.668012     0.434382     0.584472
    0.574476     0.479014     0.642292
    0.415356     0.610768     0.527012
    0.346014     0.552941     0.448875
    0.477365     0.463068     0.632588
    0.460198     0.527974     0.564872
    0.337578     0.430831     0.579427
    0.386744     0.347823     0.545898
    0.323573     0.403785     0.483942
    0.341588     0.420898     0.419816
    0.448360     0.690922     0.441773
    0.384177     0.593370     0.421027
    0.436532     0.446764     0.357565
    0.467690     0.357569     0.422180
    0.498111     0.472676     0.458531
    0.476010     0.534564     0.485322
    0.557059     0.373804     0.464905
    0.537858     0.632914     0.483645
    0.595779     0.605579     0.533164
    0.548706     0.502369     0.476724
    0.672157     0.493171     0.413142
    0.499139     0.401139     0.415387
    0.559602     0.593700     0.602032
    0.496214     0.476730     0.527218
EA160  21.769 21.016 16.457 90.00 90.00 90.00 Sym.group:    0
1.0000
   21.769271     0.000000     0.000000
    0.000000    21.015807     0.000000
    0.000000     0.000000    16.456879
   O  Cu
  18   24 
Direct
    0.354161     0.460340     0.389071
    0.460531     0.351382     0.390527
    0.607056     0.387602     0.384115
    0.645839     0.539660     0.389071
    0.539469     0.648618     0.390527
    0.392944     0.612398     0.384115
    0.455596     0.643737     0.607552
    0.602319     0.616496     0.612688
    0.650460     0.464654     0.616047
    0.544404     0.356263     0.607552
    0.397681     0.383504     0.612688
    0.349540     0.535346     0.616047
    0.439877     0.571754     0.611235
    0.398972     0.482131     0.611426
    0.464437     0.410004     0.611443
    0.560123     0.428246     0.611235
    0.601028     0.517869     0.611426
    0.535563     0.589996     0.611443
    0.403626     0.513430     0.389567
    0.461679     0.592496     0.388120
    0.556779     0.577094     0.388208
    0.596374     0.486570     0.389567
    0.538321     0.407504     0.388120
    0.443221     0.422906     0.388208
    0.470001     0.616019     0.444243
    0.387125     0.531151     0.445400
    0.417975     0.416010     0.445809
    0.529999     0.383981     0.444243
    0.612875     0.468849     0.445400
    0.582025     0.583990     0.445809
    0.384434     0.462886     0.555761
    0.415762     0.578889     0.554479
    0.526032     0.614495     0.554307
    0.615566     0.537114     0.555761
    0.584238     0.421111     0.554479
    0.473968     0.385505     0.554307
    0.286125     0.497608     0.504633
    0.400901     0.308279     0.501732
    0.607656     0.313350     0.493636
    0.713875     0.502392     0.504633
    0.599099     0.691721     0.501732
    0.392344     0.686650     0.493636
EA3    21.365 21.650 16.329 90.00 90.00 90.00 Sym.group:    0
1.0000
   21.364923     0.000000     0.000000
    0.000000    21.650159     0.000000
    0.000000     0.000000    16.329490
   O  Cu
  18   24 
Direct
    0.401429     0.616149     0.387030
    0.348784     0.473834     0.387030
    0.447355     0.357685     0.387030
    0.598571     0.383851     0.387030
    0.651216     0.526166     0.387030
    0.552645     0.642315     0.387030
    0.612552     0.603034     0.612970
    0.646698     0.455328     0.612970
    0.534146     0.352294     0.612970
    0.387448     0.396966     0.612970
    0.353302     0.544672     0.612970
    0.465854     0.647706     0.612970
    0.541720     0.587315     0.612237
    0.444234     0.579312     0.612237
    0.402514     0.491997     0.612237
    0.458280     0.412685     0.612237
    0.555766     0.420688     0.612237
    0.597486     0.508003     0.612237
    0.469705     0.591788     0.387763
    0.565405     0.571784     0.387763
    0.595699     0.479996     0.387763
    0.530295     0.408212     0.387763
    0.434595     0.428216     0.387763
    0.404301     0.520004     0.387763
    0.590285     0.575328     0.444723
    0.479035     0.614822     0.444723
    0.388751     0.539494     0.444723
    0.409715     0.424672     0.444723
    0.520965     0.385178     0.444723
    0.611249     0.460506     0.444723
    0.420001     0.585906     0.555277
    0.535391     0.611321     0.555277
    0.615390     0.525416     0.555277
    0.579999     0.414094     0.555277
    0.464609     0.388679     0.555277
    0.384610     0.474584     0.555277
    0.404306     0.690250     0.500000
    0.285192     0.513343     0.500000
    0.380886     0.323094     0.500000
    0.595694     0.309750     0.500000
    0.714808     0.486657     0.500000
    0.619114     0.676906     0.500000
EA90   18.425 18.425 18.411 90.00 90.00 90.00 Sym.group:    0
1.0000
   18.424769     0.000000     0.000000
    0.000000    18.425389     0.000000
    0.000000     0.000000    18.410556
   O  Cu
  18   24 
Direct
    0.490903     0.389365     0.646495
    0.339701     0.566856     0.438917
    0.627590     0.458449     0.374387
    0.509097     0.610635     0.353505
    0.563380     0.569649     0.658274
    0.531731     0.320684     0.470850
    0.353355     0.388628     0.510228
    0.660299     0.433144     0.561083
    0.468269     0.679316     0.529150
    0.646645     0.611372     0.489772
    0.436620     0.430351     0.341726
    0.372410     0.541551     0.625613
    0.416782     0.609570     0.572616
    0.583218     0.390430     0.427384
    0.579991     0.606300     0.419514
    0.420009     0.393700     0.580486
    0.611193     0.501704     0.608600
    0.388807     0.498296     0.391400
    0.604715     0.590215     0.572953
    0.395285     0.409785     0.427047
    0.567859     0.535459     0.366238
    0.432141     0.464541     0.633762
    0.595043     0.378516     0.515165
    0.404957     0.621484     0.484835
    0.642829     0.446542     0.467079
    0.357171     0.553458     0.532921
    0.472772     0.519613     0.349074
    0.527228     0.480387     0.650926
    0.444470     0.354952     0.490409
    0.555530     0.645048     0.509591
    0.483392     0.376160     0.407024
    0.516608     0.623840     0.592976
    0.424715     0.587336     0.397318
    0.575285     0.412664     0.602682
    0.364146     0.464526     0.565910
    0.635854     0.535474     0.434090
    0.347228     0.477508     0.475292
    0.652772     0.522492     0.524708
    0.487535     0.645032     0.441739
    0.512465     0.354968     0.558261
    0.468821     0.555814     0.641061
    0.531179     0.444186     0.358939
EA163  21.244 20.854 20.618 90.00 90.00 90.00 Sym.group:    0
1.0000
   21.243779     0.000000     0.000000
    0.000000    20.854397     0.000000
    0.000000     0.000000    20.618096
   O  Cu
  18   24 
Direct
    0.410817     0.552577     0.355286
    0.666584     0.422549     0.431373
    0.381137     0.352598     0.477847
    0.509851     0.339677     0.592974
    0.576290     0.506175     0.343346
    0.514759     0.343087     0.406861
    0.458360     0.390510     0.361362
    0.588079     0.342356     0.556698
    0.629040     0.560247     0.391308
    0.472690     0.631594     0.426650
    0.575300     0.614409     0.545443
    0.339648     0.508806     0.534538
    0.515660     0.586233     0.573255
    0.595590     0.519606     0.606652
    0.415873     0.427412     0.571344
    0.440130     0.646235     0.389490
    0.612426     0.615666     0.580527
    0.313254     0.499998     0.577876
    0.523618     0.504149     0.359717
    0.553655     0.372705     0.436072
    0.468996     0.364949     0.565351
    0.567824     0.400462     0.629207
    0.630673     0.467107     0.401739
    0.434423     0.355277     0.442387
    0.482919     0.436703     0.423272
    0.549182     0.406855     0.534595
    0.572702     0.536221     0.438807
    0.323777     0.461408     0.402197
    0.704067     0.448146     0.566659
    0.287728     0.466149     0.501882
    0.535696     0.619907     0.639906
    0.597500     0.546438     0.649270
    0.356262     0.427767     0.630500
    0.326860     0.613730     0.586213
    0.595184     0.439863     0.700986
    0.618615     0.592617     0.350837
    0.676932     0.606490     0.483242
    0.444202     0.689314     0.617355
    0.388903     0.694647     0.481456
    0.457116     0.518973     0.490970
    0.359547     0.535427     0.460850
    0.528131     0.634959     0.483700
