EA155  21.019 19.646 18.417 90.00 90.00 90.00 Sym.group:    0
1.0000
   21.019195     0.000000     0.000000
    0.000000    19.645508     0.000000
    0.000000     0.000000    18.417432
   O  Cu
  18   24 
Direct
    0.581080     0.412998     0.629736
    0.342936     0.531481     0.588259
    0.597094     0.625533     0.569067
    0.472999     0.606123     0.640127
    0.481048     0.661134     0.460904
    0.427642     0.441498     0.652781
    0.384941     0.403786     0.590229
    0.526822     0.555983     0.670026
    0.409282     0.643044     0.494896
    0.388008     0.565073     0.372169
    0.404950     0.349965     0.447818
    0.693159     0.566429     0.511847
    0.687018     0.456298     0.442173
    0.462029     0.665402     0.406066
    0.648061     0.567268     0.390844
    0.518040     0.326439     0.415940
    0.430813     0.350360     0.404831
    0.709476     0.516764     0.515947
    0.471645     0.362520     0.508809
    0.475826     0.451424     0.637511
    0.440390     0.585562     0.602830
    0.547814     0.610891     0.602350
    0.556990     0.382279     0.580682
    0.376562     0.487987     0.608420
    0.435447     0.442087     0.551539
    0.509235     0.531029     0.596245
    0.449096     0.583324     0.497401
    0.337898     0.480246     0.374217
    0.309030     0.448686     0.472086
    0.312238     0.544545     0.455591
    0.538213     0.306536     0.465206
    0.668533     0.474571     0.394456
    0.452383     0.631452     0.365692
    0.652382     0.480729     0.613939
    0.428578     0.459585     0.366629
    0.543610     0.576452     0.356338
    0.622847     0.371592     0.484037
    0.563967     0.648378     0.441887
    0.582513     0.411196     0.381848
    0.482039     0.485412     0.478907
    0.546196     0.463600     0.485028
    0.531172     0.534339     0.474692
