EA162  21.025 18.768 20.236 90.00 90.00 90.00 Sym.group:    0
1.0000
   21.025113     0.000000     0.000000
    0.000000    18.768336     0.000000
    0.000000     0.000000    20.235611
   O  Cu
   4   24 
Direct
    0.430323     0.428688     0.489238     0.021539
    0.444431     0.553601     0.486223     0.032634
    0.729623     0.442603     0.510193     0.007659
    0.518530     0.226950     0.515959     0.007235
    0.397655     0.623102     0.514809     0.018552
    0.370230     0.380291     0.520670     0.016584
    0.425786     0.529258     0.524984     0.045105
    0.472665     0.567030     0.525750     0.036331
    0.417986     0.460191     0.526651     0.044316
    0.318695     0.512700     0.448402     0.011001
    0.515613     0.671368     0.451621     0.009663
    0.319250     0.514485     0.554934     0.010892
    0.517602     0.674309     0.558176     0.008561
    0.342953     0.358273     0.461155     0.011920
    0.376145     0.652135     0.454062     0.012577
    0.694342     0.650830     0.507603     0.009835
    0.574991     0.307695     0.490098     0.011703
    0.606818     0.661565     0.484554     0.011450
    0.653233     0.387626     0.487961     0.013340
    0.514119     0.434003     0.486186     0.022236
    0.538979     0.534256     0.484418     0.018474
    0.549791     0.470447     0.485212     0.022651
    0.663413     0.494271     0.483705     0.016698
    0.480922     0.307837     0.488689     0.015937
    0.650800     0.568716     0.482779     0.017861
    0.566511     0.407811     0.537793     0.015899
    0.288550     0.598379     0.513418     0.008177
    0.620045     0.581580     0.524753     0.018657
