===== USPEX WARNING @ 18:53:28 28-Feb-2025 ===== 
The structure after relaxation cannot satisfy distance constraint
1.00
20.8899            0            0
0      22.1662            0
0            0      17.9671
 O  Cu 
4  24
Direct
0.5         0.5     0.44983
0.5         0.5     0.48949
0.5         0.5     0.31239
0.5         0.5     0.60888
0.46193     0.60258     0.43322
0.57523     0.58236     0.43322
0.3867     0.52022     0.43322
0.6133     0.47978     0.43322
0.42477     0.41764     0.43322
0.53807     0.39742     0.43322
0.43858     0.66551     0.59747
0.62138     0.63288     0.59747
0.3172     0.53263     0.59747
0.6828     0.46737     0.59747
0.37862     0.36712     0.59747
0.56142     0.33449     0.59747
0.45264     0.62762     0.51385
0.5936     0.60246     0.51385
0.35905     0.52516     0.51385
0.64096     0.47484     0.51385
0.4064     0.39754     0.51385
0.54736     0.37238     0.51385
0.42473     0.70283     0.47869
0.64876     0.66285     0.47869
0.27597     0.53999     0.47869
0.72403     0.46001     0.47869
0.35124     0.33715     0.47869
0.57527     0.29717     0.47869


Struture before relaxation, for checking
1.00
20.8899            0            0
0      22.1662            0
0            0      17.9671
 O  Cu 
4  24
Direct
0.5         0.5     0.44983
0.5         0.5     0.48949
0.5         0.5     0.31239
0.5         0.5     0.60888
0.46193     0.60258     0.43322
0.57523     0.58236     0.43322
0.3867     0.52022     0.43322
0.6133     0.47978     0.43322
0.42477     0.41764     0.43322
0.53807     0.39742     0.43322
0.43858     0.66551     0.59747
0.62138     0.63288     0.59747
0.3172     0.53263     0.59747
0.6828     0.46737     0.59747
0.37862     0.36712     0.59747
0.56142     0.33449     0.59747
0.45264     0.62762     0.51385
0.5936     0.60246     0.51385
0.35905     0.52516     0.51385
0.64095     0.47484     0.51385
0.4064     0.39754     0.51385
0.54736     0.37238     0.51385
0.42473     0.70283     0.47869
0.64876     0.66285     0.47869
0.27597     0.53999     0.47869
0.72403     0.46001     0.47869
0.35124     0.33715     0.47869
0.57527     0.29717     0.47869


===== USPEX WARNING @ 18:53:28 28-Feb-2025 ===== 
The structure after relaxation cannot satisfy distance constraint
1.00
19.5664            0            0
0      19.5664            0
0            0      18.1737
 O  Cu 
4  24
Direct
0.5         0.5     0.60259
0.5         0.5     0.33529
0.5         0.5     0.54487
0.5         0.5     0.50136
0.56855     0.40323     0.43747
0.59677     0.56855     0.43747
0.51995     0.61689     0.43747
0.43145     0.59677     0.43747
0.38311     0.51995     0.43747
0.40323     0.43145     0.43747
0.48005     0.38311     0.43747
0.61689     0.48005     0.43747
0.55336     0.31867     0.42473
0.68133     0.55336     0.42473
0.59048     0.66595     0.42473
0.44664     0.68133     0.42473
0.33405     0.59048     0.42473
0.31867     0.44664     0.42473
0.40952     0.33405     0.42473
0.66595     0.40952     0.42473
0.58701     0.39948     0.63978
0.60052     0.58701     0.63978
0.50955      0.6326     0.63978
0.41299     0.60052     0.63978
0.3674     0.50955     0.63978
0.39948     0.41299     0.63978
0.49045      0.3674     0.63978
0.6326     0.49045     0.63978


Struture before relaxation, for checking
1.00
19.5664            0            0
0      19.5664            0
0            0      18.1737
 O  Cu 
4  24
Direct
0.5         0.5     0.60259
0.5         0.5     0.33529
0.5         0.5     0.54487
0.5         0.5     0.50136
0.56855     0.40323     0.43747
0.59677     0.56855     0.43747
0.51995     0.61689     0.43747
0.43145     0.59677     0.43747
0.38311     0.51995     0.43747
0.40323     0.43145     0.43747
0.48005     0.38311     0.43747
0.61689     0.48005     0.43747
0.55337     0.31867     0.42473
0.68133     0.55337     0.42473
0.59048     0.66595     0.42473
0.44663     0.68133     0.42473
0.33405     0.59048     0.42473
0.31867     0.44663     0.42473
0.40952     0.33405     0.42473
0.66595     0.40952     0.42473
0.58701     0.39948     0.63978
0.60052     0.58701     0.63978
0.50955     0.63261     0.63978
0.41299     0.60052     0.63978
0.36739     0.50955     0.63978
0.39948     0.41299     0.63978
0.49045     0.36739     0.63978
0.63261     0.49045     0.63978


