EA0    20.537 20.126 17.102 90.00 90.00 90.00 Sym.group:    0
1.0000
   20.537120     0.000000     0.000000
    0.000000    20.125618     0.000000
    0.000000     0.000000    17.101518
  12   24 
Direct
    0.294588     0.469552     0.499928
    0.389812     0.653862     0.486074
    0.592637     0.658676     0.475841
    0.679934     0.564697     0.475660
    0.509349     0.683258     0.477489
    0.327480     0.593371     0.494177
    0.513318     0.323411     0.579025
    0.643811     0.561687     0.581592
    0.439052     0.330491     0.380152
    0.606564     0.342545     0.497363
    0.652371     0.395672     0.443208
    0.358150     0.383056     0.463538
    0.314301     0.500909     0.465060
    0.424146     0.650769     0.451921
    0.606105     0.625309     0.443943
    0.330702     0.554749     0.527091
    0.649412     0.580729     0.508728
    0.481483     0.660103     0.513060
    0.316515     0.498887     0.529817
    0.427431     0.647115     0.516836
    0.610205     0.623080     0.508848
    0.329163     0.556584     0.462393
    0.645160     0.582811     0.443817
    0.478079     0.664266     0.448112
    0.386718     0.373647     0.583895
    0.660175     0.425376     0.566831
    0.576732     0.331991     0.376780
    0.468007     0.482320     0.619320
    0.530448     0.440192     0.606624
    0.537178     0.515804     0.605268
    0.522958     0.311181     0.496191
    0.426263     0.328333     0.462411
    0.670027     0.483061     0.452679
    0.522191     0.351755     0.358446
    0.445512     0.374418     0.603510
    0.634023     0.476335     0.594370
