EA135   8.593  8.593 21.019 90.080 90.080 90.080 Sym.group: no SG
1.0000
    8.593017     0.000000     0.000000
   -0.011983     8.593000     0.000000
   -0.029353    -0.029394    21.018959
  20   40 
Selective dynamics
Direct
    1.000000     0.100000     0.444608  T  T  T
    0.500000     0.300000     0.429088  T  T  T
    0.400000     0.700000     0.429088  T  T  T
    0.000000     0.000000     0.396937  T  T  T
    0.000610     0.000610     0.004757  F  F  F
    0.500610     0.000610     0.004757  F  F  F
    0.000610     0.500610     0.004757  F  F  F
    0.500610     0.500610     0.004757  F  F  F
    0.250790     0.250800     0.107041  F  F  F
    0.750790     0.250800     0.107041  F  F  F
    0.250790     0.750800     0.107041  F  F  F
    0.750790     0.750800     0.107041  F  F  F
    0.000610     0.000610     0.209175  F  F  F
    0.500610     0.000610     0.209175  F  F  F
    0.000610     0.500610     0.209175  F  F  F
    0.500610     0.500610     0.209175  F  F  F
    0.250790     0.250800     0.311459  F  F  F
    0.750790     0.250800     0.311459  F  F  F
    0.250790     0.750800     0.311459  F  F  F
    0.750790     0.750800     0.311459  F  F  F
    0.500000     0.000000     0.462310  T  T  T
    0.500000     0.500000     0.462310  T  T  T
    0.000000     0.500000     0.462310  T  T  T
    0.700000     0.800000     0.429088  T  T  T
    0.800000     0.300000     0.429088  T  T  T
    0.155070     0.862730     0.467089  T  T  T
    0.292340     0.155070     0.467089  T  T  T
    0.137270     0.292340     0.467089  T  T  T
    0.125670     0.125670     0.055888  F  F  F
    0.625670     0.125670     0.055888  F  F  F
    0.375590     0.375590     0.055892  F  F  F
    0.875590     0.375590     0.055892  F  F  F
    0.125670     0.625670     0.055888  F  F  F
    0.625670     0.625670     0.055888  F  F  F
    0.375590     0.875590     0.055892  F  F  F
    0.875590     0.875590     0.055892  F  F  F
    0.375580     0.125690     0.158064  F  F  F
    0.875580     0.125690     0.158064  F  F  F
    0.125680     0.375590     0.158064  F  F  F
    0.625680     0.375590     0.158064  F  F  F
    0.375580     0.625690     0.158064  F  F  F
    0.875580     0.625690     0.158064  F  F  F
    0.125680     0.875590     0.158064  F  F  F
    0.625680     0.875590     0.158064  F  F  F
    0.125670     0.125670     0.260306  F  F  F
    0.625670     0.125670     0.260306  F  F  F
    0.375590     0.375590     0.260313  F  F  F
    0.875590     0.375590     0.260313  F  F  F
    0.125670     0.625670     0.260306  F  F  F
    0.625670     0.625670     0.260306  F  F  F
    0.375590     0.875590     0.260313  F  F  F
    0.875590     0.875590     0.260313  F  F  F
    0.375580     0.125690     0.362482  F  F  F
    0.875580     0.125690     0.362482  F  F  F
    0.125680     0.375590     0.362482  F  F  F
    0.625680     0.375590     0.362482  F  F  F
    0.375580     0.625690     0.362482  F  F  F
    0.875580     0.625690     0.362482  F  F  F
    0.125680     0.875590     0.362482  F  F  F
    0.625680     0.875590     0.362482  F  F  F
