EA1
 1.0000000000000000
     5.6519006792248341    0.0000000000000000    0.0000000000000000
     0.0000000000000000    5.4540478595681643    0.0000000000000000
     0.0000000000000000    0.0000000000000000   22.7529988731883464
 O   Cu 
   4  24
Direct
  0.5000000000000000  0.5000000000000000  0.6667010867008031
  0.5000000000000000  0.5000000000000000  0.3332989132991970
  0.5000000000000000  0.5000000000000000  0.7030033184142715
  0.5000000000000000  0.5000000000000000  0.2969966815857284
  0.6330615643352226  1.0000000000000000  0.7802487475226004
  0.6330615643352226  0.0000000000000000  0.2197512524773996
  0.8912535637303458  0.1765403584084184  0.7802487475226004
  0.1087464362696544  0.1765403584084184  0.7802487475226004
  1.0000000000000000  0.4766313059159618  0.2197512524773996
  0.9177634306446018  0.7856483002909093  0.7802487475226004
  0.0822365693553985  0.2143516997090908  0.2197512524773996
  0.0822365693553985  0.7856483002909090  0.7802487475226004
  0.8912535637303458  0.8234596415915816  0.2197512524773996
  0.3240445699602752  0.0144426472166342  0.7802487475226004
  0.3240445699602752  0.9855573527833658  0.2197512524773996
  0.6759554300397248  0.0144426472166342  0.7802487475226004
  0.6759554300397249  0.9855573527833658  0.2197512524773996
  0.3669384356647775  1.0000000000000000  0.7802487475226004
  0.0000000000000000  0.4766313059159618  0.2197512524773996
  0.1087464362696544  0.8234596415915816  0.2197512524773996
  1.0000000000000000  0.5233686940840382  0.7802487475226004
  0.9177634306446018  0.2143516997090909  0.2197512524773996
  0.0000000000000000  0.5233686940840382  0.7802487475226004
  0.3669384356647775  0.0000000000000000  0.2197512524773996
  0.5000000000000000  0.5000000000000000  0.5500623712539483
  0.5000000000000000  0.5000000000000000  0.4499376287460518
  0.5000000000000000  0.5000000000000000  0.6154044383932500
  0.5000000000000000  0.5000000000000000  0.3845955616067500
EA2
 1.0000000000000000
     8.2498945793482559    0.0000000000000000    0.0000000000000000
     0.0000000000000000    9.5261577123454959    0.0000000000000000
     0.0000000000000000    0.0000000000000000   15.3270940281922599
 O   Cu 
   4  24
Direct
  0.5000000000000000  0.5000000000000000  0.4873346670179399
  0.5000000000000000  0.5000000000000000  0.5338325245645975
  0.5000000000000000  0.5000000000000000  0.3262196989724948
  0.5000000000000000  0.5000000000000000  0.6737803010275053
  0.2471307202734831  0.6264346398632585  0.4678674267936996
  0.5000000000000000  0.7528692797265170  0.4678674267936996
  0.2471307202734831  0.3735653601367415  0.4678674267936996
  0.7528692797265170  0.6264346398632585  0.4678674267936996
  0.5000000000000000  0.2471307202734830  0.4678674267936996
  0.7528692797265170  0.3735653601367415  0.4678674267936996
  0.0920176650121774  0.7039911674939114  0.6604113793350120
  0.5000000000000000  0.9079823349878228  0.6604113793350120
  0.0920176650121773  0.2960088325060885  0.6604113793350120
  0.9079823349878227  0.7039911674939116  0.6604113793350120
  0.5000000000000000  0.0920176650121771  0.6604113793350120
  0.9079823349878227  0.2960088325060886  0.6604113793350120
  0.1854063956546597  0.6572968021726702  0.5623873667577295
  0.5000000000000000  0.8145936043453404  0.5623873667577296
  0.1854063956546596  0.3427031978273297  0.5623873667577295
  0.8145936043453402  0.6572968021726703  0.5623873667577296
  0.5000000000000000  0.1854063956546596  0.5623873667577295
  0.8145936043453403  0.3427031978273298  0.5623873667577296
  0.0000000000000002  0.7500000000000000  0.5211653197422254
  0.5000000000000000  1.0000000000000000  0.5211653197422254
  0.0000000000000000  0.2499999999999999  0.5211653197422254
  0.9999999999999998  0.7500000000000001  0.5211653197422254
  0.5000000000000000  0.0000000000000000  0.5211653197422254
  1.0000000000000000  0.2499999999999999  0.5211653197422254
EA3
 1.0000000000000000
     4.0633941760241168    0.0000000000000000    0.0000000000000000
     0.0000000000000000    4.1990490618434642    0.0000000000000000
     0.0000000000000000    0.0000000000000000   26.1514986133463658
 O   Cu 
   4  24
Direct
  0.5432824475044644  0.4988664421896197  0.5351314551038022
  0.5432824475044644  0.4988664421896197  0.4648685448961976
  0.5432824475044644  0.4988664421896197  0.8088063680813969
  0.5432824475044644  0.4988664421896197  0.1911936319186028
  0.8902747561531473  0.8544713250372423  0.6159584398034049
  0.8902747561531473  0.8544713250372423  0.3840415601965949
  0.0465624362238789  0.4085439570011812  0.6159584398034049
  0.3010179355886091  0.9281023782192452  0.3840415601965949
  0.3010179355886091  0.9281023782192452  0.6159584398034049
  0.4785571095566868  0.0138081403651803  0.6159584398034049
  0.0465624362238789  0.4085439570011812  0.3840415601965949
  1.0000000000000000  0.2894064103252495  0.6159584398034049
  0.4785571095566868  0.0138081403651803  0.3840415601965949
  1.0000000000000000  0.2894064103252495  0.3840415601965949
  0.9850353177918025  0.8049157436887786  0.5586491901950372
  0.9850353177918025  0.8049157436887786  0.4413508098049625
  0.0000000000000000  0.5025347123204362  0.5586491901950372
  0.3790041407037471  1.0000000000000000  0.4413508098049625
  0.3790041407037471  1.0000000000000000  0.5586491901950372
  0.3717937362561922  0.0000000000000000  0.5586491901950372
  0.0000000000000000  0.5025347123204362  0.4413508098049625
  0.9805790427705802  0.1868817549388838  0.5586491901950372
  0.3717937362561922  0.0000000000000000  0.4413508098049625
  0.9805790427705802  0.1868817549388838  0.4413508098049625
  0.5432824475044644  0.4988664421896197  0.6903410669333420
  0.5432824475044644  0.4988664421896197  0.3096589330666578
  0.5432824475044644  0.4988664421896197  0.5902290687059825
  0.5432824475044644  0.4988664421896197  0.4097709312940172
EA4
 1.0000000000000000
     7.0606817469053054    0.0000000000000000    0.0000000000000000
     0.0000000000000000    7.5429644628402297    0.0000000000000000
     0.0000000000000000    0.0000000000000000   12.2406149009792280
 O   Cu 
   4  24
Direct
  0.5000000000000000  0.5979721189909868  0.5393501446260051
  0.5000000000000000  0.4020278810090133  0.5393501446260051
  0.5000000000000000  0.5000000000000000  0.5650359768846076
  0.5000000000000000  0.5000000000000000  0.4954441303697965
  0.8547415379907458  0.9561436786202970  0.5871159441846325
  0.1452584620092541  0.9561436786202970  0.5871159441846325
  0.1452584620092541  0.0438563213797030  0.5871159441846325
  0.8547415379907458  0.0438563213797030  0.5871159441846325
  0.5000000000000000  1.0000000000000000  0.4326783836014848
  0.5000000000000000  0.0000000000000000  0.4326783836014848
  0.7036207465922126  0.6162028767061474  0.5915237885965999
  0.2963792534077874  0.6162028767061474  0.5915237885965999
  0.2963792534077874  0.3837971232938526  0.5915237885965999
  0.7036207465922126  0.3837971232938527  0.5915237885965999
  0.5000000000000000  0.7429509095878500  0.4790389732908853
  0.5000000000000000  0.2570490904121499  0.4790389732908853
  0.7289889753344890  0.9824652512089939  0.4084762114034001
  0.2710110246655110  0.9824652512089939  0.4084762114034001
  0.2710110246655110  0.0175347487910062  0.4084762114034001
  0.7289889753344890  0.0175347487910062  0.4084762114034001
  0.8610356583841535  0.5000000000000000  0.5153613215355214
  0.1389643416158466  0.5000000000000000  0.5153613215355214
  1.0000000000000000  0.5000000000000000  0.5913817136257615
  0.0000000000000000  0.5000000000000000  0.5913817136257614
  0.7727017108009694  0.8346677136281395  0.5249366289145281
  0.2272982891990306  0.8346677136281395  0.5249366289145281
  0.2272982891990306  0.1653322863718605  0.5249366289145281
  0.7727017108009694  0.1653322863718605  0.5249366289145281
EA5
 1.0000000000000000
     6.9264062864483957    0.0000000000000000    0.0000000000000000
     0.0000000000000000    6.9264062864483957    0.0000000000000000
     0.0000000000000000    0.0000000000000000   15.5337063552417831
 O   Cu 
   4  24
Direct
  0.5000000000000000  0.5000000000000000  0.6346057405914712
  0.5000000000000000  0.5000000000000000  0.3218806822824207
  0.5000000000000000  0.5000000000000000  0.5670751205080494
  0.5000000000000000  0.5000000000000000  0.5161768400088846
  0.7586484804543656  0.7128809357963524  0.4414297483736652
  0.2871190642036476  0.7586484804543656  0.4414297483736652
  0.1665783522401831  0.5323625411859394  0.4414297483736651
  0.2413515195456344  0.2871190642036476  0.4414297483736651
  0.4676374588140605  0.1665783522401831  0.4414297483736651
  0.7128809357963524  0.2413515195456344  0.4414297483736651
  0.8334216477598168  0.4676374588140605  0.4414297483736652
  0.5323625411859393  0.8334216477598170  0.4414297483736652
  1.0000000000000000  0.6873665347133524  0.4265200155624497
  0.3126334652866476  1.0000000000000000  0.4265200155624497
  0.0139584621434903  0.7210652433300377  0.4265200155624497
  0.0000000000000000  0.3126334652866476  0.4265200155624497
  0.2789347566699622  0.0139584621434903  0.4265200155624497
  0.6873665347133524  0.0000000000000000  0.4265200155624497
  0.9860415378565096  0.2789347566699621  0.4265200155624497
  0.7210652433300377  0.9860415378565098  0.4265200155624497
  0.7654589109538460  0.7656742540649444  0.6781193177175793
  0.2343257459350556  0.7654589109538460  0.6781193177175792
  0.1244321373021398  0.4998477294258606  0.6781193177175792
  0.2345410890461540  0.2343257459350555  0.6781193177175792
  0.5001522705741394  0.1244321373021398  0.6781193177175792
  0.7656742540649444  0.2345410890461540  0.6781193177175792
  0.8755678626978604  0.5001522705741394  0.6781193177175792
  0.4998477294258605  0.8755678626978604  0.6781193177175792
