EA44    9.040  7.652 18.674 90.00 90.00 90.00 Sym.group:    0
1.0000
    9.039645     0.000000     0.000000
    0.000000     7.652330     0.000000
    0.000000     0.000000    18.674289
   O  Cu
  19   40 
Direct
    0.554164     0.303726     0.425598
    0.593281     0.334950     0.213908
    0.470513     0.790227     0.212136
    0.913348     0.709889     0.662979
    0.016364     0.357656     0.594643
    0.100375     0.661009     0.385941
    0.970403     0.274670     0.396767
    0.293748     0.280580     0.739558
    0.588459     0.761066     0.779598
    0.503031     0.008312     0.574157
    0.305824     0.782190     0.210262
    0.778926     0.962269     0.326131
    0.280409     0.133162     0.320478
    0.300223     0.801124     0.699994
    0.753257     0.176429     0.724957
    0.687964     0.650980     0.547979
    0.400346     0.394642     0.686918
    0.447037     0.717635     0.384022
    0.757573     0.346280     0.223283
    0.098727     0.774110     0.690404
    0.912252     0.003720     0.725020
    0.356112     0.649856     0.474985
    0.179345     0.993124     0.241692
    0.635352     0.464431     0.490324
    0.497298     0.470996     0.350380
    0.904043     0.991859     0.236049
    0.474003     0.601764     0.728066
    0.925515     0.513395     0.438983
    0.106196     0.822725     0.485020
    0.134285     0.154623     0.544858
    0.936742     0.928730     0.589245
    0.871195     0.537315     0.571809
    0.699475     0.070934     0.541135
    0.348069     0.989873     0.502161
    0.794198     0.581910     0.265483
    0.161849     0.503227     0.539371
    0.917694     0.087276     0.465573
    0.808370     0.797737     0.483558
    0.047932     0.477430     0.308288
    0.363751     0.316616     0.486668
    0.248956     0.682047     0.301681
    0.843795     0.273256     0.313743
    0.756338     0.712562     0.726223
    0.136873     0.298312     0.674435
    0.661560     0.097519     0.399813
    0.369709     0.942282     0.364258
    0.308229     0.040145     0.717754
    0.622746     0.989768     0.742709
    0.027909     0.714493     0.218457
    0.051327     0.264763     0.211700
    0.290609     0.354187     0.272761
    0.299474     0.739145     0.597129
    0.851309     0.240072     0.641691
    0.935510     0.798388     0.354191
    0.169845     0.145442     0.413968
    0.464186     0.216285     0.623686
    0.591072     0.797453     0.622695
    0.631735     0.792732     0.344234
    0.525961     0.560459     0.220033
EA89    9.040  7.652 18.674 90.00 90.00 90.00 Sym.group:    0
1.0000
    9.039645     0.000000     0.000000
    0.000000     7.652330     0.000000
    0.000000     0.000000    18.674289
   O  Cu
  19   40 
Direct
    0.554164     0.303726     0.425598
    0.593281     0.334950     0.213908
    0.470513     0.790227     0.212136
    0.913348     0.709889     0.662979
    0.016364     0.357656     0.594643
    0.100375     0.661009     0.385941
    0.970403     0.274670     0.396767
    0.293748     0.280580     0.739558
    0.588459     0.761066     0.779598
    0.503031     0.008312     0.574157
    0.305824     0.782190     0.210262
    0.778926     0.962269     0.326131
    0.280409     0.133162     0.320478
    0.300223     0.801124     0.699994
    0.753257     0.176429     0.724957
    0.687964     0.650980     0.547979
    0.400346     0.394642     0.686918
    0.447037     0.717635     0.384022
    0.757573     0.346280     0.223283
    0.098727     0.774110     0.690404
    0.912252     0.003720     0.725020
    0.356112     0.649856     0.474985
    0.179345     0.993124     0.241692
    0.635352     0.464431     0.490324
    0.497298     0.470996     0.350380
    0.904043     0.991859     0.236049
    0.474003     0.601764     0.728066
    0.925515     0.513395     0.438983
    0.106196     0.822725     0.485020
    0.134285     0.154623     0.544858
    0.936742     0.928730     0.589245
    0.871195     0.537315     0.571809
    0.699475     0.070934     0.541135
    0.348069     0.989873     0.502161
    0.794198     0.581910     0.265483
    0.161849     0.503227     0.539371
    0.917694     0.087276     0.465573
    0.808370     0.797737     0.483558
    0.047932     0.477430     0.308288
    0.363751     0.316616     0.486668
    0.248956     0.682047     0.301681
    0.843795     0.273256     0.313743
    0.756338     0.712562     0.726223
    0.136873     0.298312     0.674435
    0.661560     0.097519     0.399813
    0.369709     0.942282     0.364258
    0.308229     0.040145     0.717754
    0.622746     0.989768     0.742709
    0.027909     0.714493     0.218457
    0.051327     0.264763     0.211700
    0.290609     0.354187     0.272761
    0.299474     0.739145     0.597129
    0.851309     0.240072     0.641691
    0.935510     0.798388     0.354191
    0.169845     0.145442     0.413968
    0.464186     0.216285     0.623686
    0.591072     0.797453     0.622695
    0.631735     0.792732     0.344234
    0.525961     0.560459     0.220033
EA137   9.040  7.652 18.674 90.00 90.00 90.00 Sym.group:    0
1.0000
    9.039645     0.000000     0.000000
    0.000000     7.652330     0.000000
    0.000000     0.000000    18.674289
   O  Cu
  19   40 
Direct
    0.554164     0.303726     0.425598
    0.593281     0.334950     0.213908
    0.470513     0.790227     0.212136
    0.913348     0.709889     0.662979
    0.016364     0.357656     0.594643
    0.100375     0.661009     0.385941
    0.970403     0.274670     0.396767
    0.293748     0.280580     0.739558
    0.588459     0.761066     0.779598
    0.503031     0.008312     0.574157
    0.305824     0.782190     0.210262
    0.778926     0.962269     0.326131
    0.280409     0.133162     0.320478
    0.300223     0.801124     0.699994
    0.753257     0.176429     0.724957
    0.687964     0.650980     0.547979
    0.400346     0.394642     0.686918
    0.447037     0.717635     0.384022
    0.757573     0.346280     0.223283
    0.098727     0.774110     0.690404
    0.912252     0.003720     0.725020
    0.356112     0.649856     0.474985
    0.179345     0.993124     0.241692
    0.635352     0.464431     0.490324
    0.497298     0.470996     0.350380
    0.904043     0.991859     0.236049
    0.474003     0.601764     0.728066
    0.925515     0.513395     0.438983
    0.106196     0.822725     0.485020
    0.134285     0.154623     0.544858
    0.936742     0.928730     0.589245
    0.871195     0.537315     0.571809
    0.699475     0.070934     0.541135
    0.348069     0.989873     0.502161
    0.794198     0.581910     0.265483
    0.161849     0.503227     0.539371
    0.917694     0.087276     0.465573
    0.808370     0.797737     0.483558
    0.047932     0.477430     0.308288
    0.363751     0.316616     0.486668
    0.248956     0.682047     0.301681
    0.843795     0.273256     0.313743
    0.756338     0.712562     0.726223
    0.136873     0.298312     0.674435
    0.661560     0.097519     0.399813
    0.369709     0.942282     0.364258
    0.308229     0.040145     0.717754
    0.622746     0.989768     0.742709
    0.027909     0.714493     0.218457
    0.051327     0.264763     0.211700
    0.290609     0.354187     0.272761
    0.299474     0.739145     0.597129
    0.851309     0.240072     0.641691
    0.935510     0.798388     0.354191
    0.169845     0.145442     0.413968
    0.464186     0.216285     0.623686
    0.591072     0.797453     0.622695
    0.631735     0.792732     0.344234
    0.525961     0.560459     0.220033
