EA44    9.040  7.652 18.674 90.00 90.00 90.00 Sym.group:    0
1.0000
    9.039645     0.000000     0.000000
    0.000000     7.652330     0.000000
    0.000000     0.000000    18.674289
   O  Cu
  19   40 
Direct
    0.554164     0.303726     0.425598
    0.593281     0.334950     0.213908
    0.470513     0.790227     0.212136
    0.913348     0.709889     0.662979
    0.016364     0.357656     0.594643
    0.100375     0.661009     0.385941
    0.970403     0.274670     0.396767
    0.293748     0.280580     0.739558
    0.588459     0.761066     0.779598
    0.503031     0.008312     0.574157
    0.305824     0.782190     0.210262
    0.778926     0.962269     0.326131
    0.280409     0.133162     0.320478
    0.300223     0.801124     0.699994
    0.753257     0.176429     0.724957
    0.687964     0.650980     0.547979
    0.400346     0.394642     0.686918
    0.447037     0.717635     0.384022
    0.757573     0.346280     0.223283
    0.098727     0.774110     0.690404
    0.912252     0.003720     0.725020
    0.356112     0.649856     0.474985
    0.179345     0.993124     0.241692
    0.635352     0.464431     0.490324
    0.497298     0.470996     0.350380
    0.904043     0.991859     0.236049
    0.474003     0.601764     0.728066
    0.925515     0.513395     0.438983
    0.106196     0.822725     0.485020
    0.134285     0.154623     0.544858
    0.936742     0.928730     0.589245
    0.871195     0.537315     0.571809
    0.699475     0.070934     0.541135
    0.348069     0.989873     0.502161
    0.794198     0.581910     0.265483
    0.161849     0.503227     0.539371
    0.917694     0.087276     0.465573
    0.808370     0.797737     0.483558
    0.047932     0.477430     0.308288
    0.363751     0.316616     0.486668
    0.248956     0.682047     0.301681
    0.843795     0.273256     0.313743
    0.756338     0.712562     0.726223
    0.136873     0.298312     0.674435
    0.661560     0.097519     0.399813
    0.369709     0.942282     0.364258
    0.308229     0.040145     0.717754
    0.622746     0.989768     0.742709
    0.027909     0.714493     0.218457
    0.051327     0.264763     0.211700
    0.290609     0.354187     0.272761
    0.299474     0.739145     0.597129
    0.851309     0.240072     0.641691
    0.935510     0.798388     0.354191
    0.169845     0.145442     0.413968
    0.464186     0.216285     0.623686
    0.591072     0.797453     0.622695
    0.631735     0.792732     0.344234
    0.525961     0.560459     0.220033
EA87    8.593  8.593 21.019 90.08 90.08 90.08 Sym.group:    0
1.0000
    8.593017     0.000000     0.000000
   -0.011983     8.593000     0.000000
   -0.029353    -0.029394    21.018959
   O  Cu
  19   40 
Direct
    0.100000     0.300000     0.429088
    0.200000     0.700000     0.523289
    0.500000     0.000000     0.431594
    0.000610     0.000610     0.004757
    0.500610     0.000610     0.004757
    0.000610     0.500610     0.004757
    0.500610     0.500610     0.004757
    0.250790     0.250800     0.107041
    0.750790     0.250800     0.107041
    0.250790     0.750800     0.107041
    0.750790     0.750800     0.107041
    0.000610     0.000610     0.209175
    0.500610     0.000610     0.209175
    0.000610     0.500610     0.209175
    0.500610     0.500610     0.209175
    0.250790     0.250800     0.311459
    0.750790     0.250800     0.311459
    0.250790     0.750800     0.311459
    0.750790     0.750800     0.311459
    0.500000     0.500000     0.431594
    0.000000     0.500000     0.431594
    0.200000     0.700000     0.429088
    0.300000     0.400000     0.454536
    0.775930     0.224070     0.484289
    0.551860     0.775930     0.484289
    0.775930     0.551860     0.484289
    0.000000     0.000000     0.437827
    0.125670     0.125670     0.055888
    0.625670     0.125670     0.055888
    0.375590     0.375590     0.055892
    0.875590     0.375590     0.055892
    0.125670     0.625670     0.055888
    0.625670     0.625670     0.055888
    0.375590     0.875590     0.055892
    0.875590     0.875590     0.055892
    0.375580     0.125690     0.158064
    0.875580     0.125690     0.158064
    0.125680     0.375590     0.158064
    0.625680     0.375590     0.158064
    0.375580     0.625690     0.158064
    0.875580     0.625690     0.158064
    0.125680     0.875590     0.158064
    0.625680     0.875590     0.158064
    0.125670     0.125670     0.260306
    0.625670     0.125670     0.260306
    0.375590     0.375590     0.260313
    0.875590     0.375590     0.260313
    0.125670     0.625670     0.260306
    0.625670     0.625670     0.260306
    0.375590     0.875590     0.260313
    0.875590     0.875590     0.260313
    0.375580     0.125690     0.362482
    0.875580     0.125690     0.362482
    0.125680     0.375590     0.362482
    0.625680     0.375590     0.362482
    0.375580     0.625690     0.362482
    0.875580     0.625690     0.362482
    0.125680     0.875590     0.362482
    0.625680     0.875590     0.362482
EA123   8.593  8.593 21.019 90.08 90.08 90.08 Sym.group:    0
1.0000
    8.593017     0.000000     0.000000
   -0.011983     8.593000     0.000000
   -0.029353    -0.029394    21.018959
   O  Cu
  19   40 
Direct
    0.100000     0.300000     0.429088
    0.300000     0.400000     0.454536
    0.500000     1.000000     0.431594
    0.000610     0.000610     0.004757
    0.500610     0.000610     0.004757
    0.000610     0.500610     0.004757
    0.500610     0.500610     0.004757
    0.250790     0.250800     0.107041
    0.750790     0.250800     0.107041
    0.250790     0.750800     0.107041
    0.750790     0.750800     0.107041
    0.000610     0.000610     0.209175
    0.500610     0.000610     0.209175
    0.000610     0.500610     0.209175
    0.500610     0.500610     0.209175
    0.250790     0.250800     0.311459
    0.750790     0.250800     0.311459
    0.250790     0.750800     0.311459
    0.750790     0.750800     0.311459
    0.500000     0.500000     0.431594
    1.000000     0.500000     0.431594
    0.200000     0.700000     0.429088
    0.200000     0.700000     0.523289
    0.775930     0.224070     0.484289
    0.551860     0.775930     0.484289
    0.775930     0.551860     0.484289
    0.000000     0.000000     0.437827
    0.125670     0.125670     0.055888
    0.625670     0.125670     0.055888
    0.375590     0.375590     0.055892
    0.875590     0.375590     0.055892
    0.125670     0.625670     0.055888
    0.625670     0.625670     0.055888
    0.375590     0.875590     0.055892
    0.875590     0.875590     0.055892
    0.375580     0.125690     0.158064
    0.875580     0.125690     0.158064
    0.125680     0.375590     0.158064
    0.625680     0.375590     0.158064
    0.375580     0.625690     0.158064
    0.875580     0.625690     0.158064
    0.125680     0.875590     0.158064
    0.625680     0.875590     0.158064
    0.125670     0.125670     0.260306
    0.625670     0.125670     0.260306
    0.375590     0.375590     0.260313
    0.875590     0.375590     0.260313
    0.125670     0.625670     0.260306
    0.625670     0.625670     0.260306
    0.375590     0.875590     0.260313
    0.875590     0.875590     0.260313
    0.375580     0.125690     0.362482
    0.875580     0.125690     0.362482
    0.125680     0.375590     0.362482
    0.625680     0.375590     0.362482
    0.375580     0.625690     0.362482
    0.875580     0.625690     0.362482
    0.125680     0.875590     0.362482
    0.625680     0.875590     0.362482
EA43    8.503  8.503 18.503 90.00 90.00 90.00 Sym.group:    0
1.0000
    8.502667     0.000000     0.000000
    0.000000     8.502667     0.000000
    0.000000     0.000000    18.502667
   O  Cu
  19   40 
Direct
    0.644310     0.092377     0.365247
    0.590793     0.490346     0.748469
    0.454100     0.461990     0.300408
    0.454328     0.780377     0.393197
    0.452746     0.167551     0.629687
    0.751424     0.452954     0.397426
    0.268700     0.501261     0.655146
    0.707479     0.704065     0.161814
    0.562041     0.865995     0.544992
    0.955980     0.950706     0.276115
    0.855450     0.860714     0.470393
    0.973134     0.383122     0.223585
    0.373256     0.965933     0.212442
    0.098134     0.080317     0.386002
    0.089672     0.033402     0.716543
    0.929418     0.235216     0.185479
    0.088020     0.632520     0.369484
    0.221080     0.916119     0.179904
    0.937792     0.554116     0.523922
    0.529382     0.820641     0.180091
    0.531763     0.886480     0.746683
    0.705370     0.873303     0.626382
    0.650424     0.202964     0.460052
    0.417204     0.884481     0.624993
    0.537550     0.274149     0.332591
    0.506561     0.313250     0.700908
    0.350174     0.831277     0.491950
    0.899647     0.651650     0.617466
    0.876393     0.060257     0.526497
    0.389032     0.137531     0.529827
    0.856657     0.412762     0.310833
    0.058806     0.446524     0.680109
    0.142583     0.533047     0.465643
    0.370170     0.363133     0.441969
    0.578693     0.591701     0.373924
    0.402819     0.870205     0.303775
    0.641218     0.870006     0.434739
    0.236331     0.375756     0.567352
    0.871848     0.087077     0.359176
    0.825345     0.641187     0.440487
    0.829859     0.833642     0.218065
    0.067013     0.067378     0.200295
    0.242237     0.868402     0.727927
    0.785107     0.394310     0.697172
    0.931343     0.873916     0.704538
    0.117950     0.202259     0.475729
    0.955945     0.170449     0.659436
    0.100132     0.855878     0.366096
    0.720159     0.094869     0.726097
    0.333217     0.088165     0.395713
    0.670260     0.190051     0.597485
    0.147277     0.985225     0.603108
    0.418720     0.632771     0.712920
    0.729365     0.671582     0.725396
    0.829876     0.532371     0.185624
    0.270235     0.538311     0.337388
    0.907281     0.345851     0.560055
    0.072379     0.833525     0.500884
    0.211568     0.690334     0.599778
EA42    7.171 10.205 21.407 90.00 90.00 90.00 Sym.group:    0
1.0000
    7.171190     0.000000     0.000000
    0.000000    10.204708     0.000000
    0.000000     0.000000    21.406806
   O  Cu
  19   40 
Direct
    0.355498     0.255342     0.546136
    0.395211     0.368347     0.417994
    0.875950     0.544997     0.436339
    0.762104     0.242199     0.409088
    0.636542     0.678877     0.582320
    0.175431     0.517608     0.560916
    0.393795     0.976297     0.586997
    0.434895     0.074396     0.784067
    0.916577     0.612959     0.724024
    0.022174     0.230557     0.258872
    0.627679     0.875727     0.261476
    0.364920     0.464372     0.249756
    0.825503     0.886134     0.233310
    0.094475     0.748146     0.311631
    0.152125     0.859455     0.446427
    0.529548     0.729983     0.416628
    0.757943     0.374086     0.631432
    0.762691     0.078231     0.648321
    0.362343     0.206830     0.800086
    0.404884     0.596900     0.579223
    0.917676     0.887144     0.482704
    0.278541     0.742910     0.377002
    0.483255     0.548037     0.421090
    0.570652     0.319106     0.582287
    0.468083     0.106063     0.505226
    0.590067     0.889437     0.465282
    0.712385     0.982606     0.567766
    0.791153     0.533906     0.349669
    0.944987     0.247208     0.660388
    0.169178     0.926597     0.301778
    0.574109     0.085196     0.708922
    0.364763     0.402136     0.331896
    0.495089     0.187813     0.388359
    0.245548     0.373605     0.632048
    0.778223     0.643571     0.652196
    0.761525     0.616098     0.510751
    0.889545     0.241629     0.334549
    0.943111     0.452025     0.585620
    0.288029     0.004027     0.404671
    0.271273     0.414863     0.494270
    0.235614     0.966746     0.748897
    0.223088     0.238887     0.727882
    0.045448     0.770925     0.717467
    0.925784     0.055894     0.246356
    0.953214     0.432491     0.257729
    0.230070     0.160514     0.308922
    0.250340     0.129941     0.623911
    0.972297     0.993154     0.678057
    0.055508     0.458244     0.716670
    0.612807     0.771994     0.334845
    0.258723     0.876739     0.646411
    0.220205     0.602060     0.278300
    0.502227     0.006755     0.312933
    0.874411     0.682290     0.260000
    0.622102     0.508482     0.253027
    0.779498     0.093580     0.460710
    0.118721     0.519742     0.400495
    0.271317     0.902861     0.519767
    0.778292     0.377061     0.476325
EA32    8.593  8.593 21.019 90.08 90.08 90.08 Sym.group:    0
1.0000
    8.593017     0.000000     0.000000
   -0.011983     8.593000     0.000000
   -0.029353    -0.029394    21.018959
   O  Cu
  19   40 
Direct
    0.500000     1.000000     0.431594
    0.500000     0.500000     0.431594
    1.000000     0.500000     0.431594
    0.000610     0.000610     0.004757
    0.500610     0.000610     0.004757
    0.000610     0.500610     0.004757
    0.500610     0.500610     0.004757
    0.250790     0.250800     0.107041
    0.750790     0.250800     0.107041
    0.250790     0.750800     0.107041
    0.750790     0.750800     0.107041
    0.000610     0.000610     0.209175
    0.500610     0.000610     0.209175
    0.000610     0.500610     0.209175
    0.500610     0.500610     0.209175
    0.250790     0.250800     0.311459
    0.750790     0.250800     0.311459
    0.250790     0.750800     0.311459
    0.750790     0.750800     0.311459
    0.775930     0.224070     0.484289
    0.551860     0.775930     0.484289
    0.775930     0.551860     0.484289
    0.224070     0.775930     0.484289
    0.448140     0.224070     0.484289
    0.224070     0.448140     0.484289
    0.000000     0.000000     0.437827
    1.000000     0.000000     0.508099
    0.125670     0.125670     0.055888
    0.625670     0.125670     0.055888
    0.375590     0.375590     0.055892
    0.875590     0.375590     0.055892
    0.125670     0.625670     0.055888
    0.625670     0.625670     0.055888
    0.375590     0.875590     0.055892
    0.875590     0.875590     0.055892
    0.375580     0.125690     0.158064
    0.875580     0.125690     0.158064
    0.125680     0.375590     0.158064
    0.625680     0.375590     0.158064
    0.375580     0.625690     0.158064
    0.875580     0.625690     0.158064
    0.125680     0.875590     0.158064
    0.625680     0.875590     0.158064
    0.125670     0.125670     0.260306
    0.625670     0.125670     0.260306
    0.375590     0.375590     0.260313
    0.875590     0.375590     0.260313
    0.125670     0.625670     0.260306
    0.625670     0.625670     0.260306
    0.375590     0.875590     0.260313
    0.875590     0.875590     0.260313
    0.375580     0.125690     0.362482
    0.875580     0.125690     0.362482
    0.125680     0.375590     0.362482
    0.625680     0.375590     0.362482
    0.375580     0.625690     0.362482
    0.875580     0.625690     0.362482
    0.125680     0.875590     0.362482
    0.625680     0.875590     0.362482
EA3     8.593  8.593 21.019 90.08 90.08 90.08 Sym.group:    0
1.0000
    8.593017     0.000000     0.000000
   -0.011983     8.593000     0.000000
   -0.029353    -0.029394    21.018959
   O  Cu
  19   40 
Direct
    0.000000     0.000000     0.407955
    0.000000     0.500000     0.423300
    0.500000     0.000000     0.423300
    0.000610     0.000610     0.004757
    0.500610     0.000610     0.004757
    0.000610     0.500610     0.004757
    0.500610     0.500610     0.004757
    0.250790     0.250800     0.107041
    0.750790     0.250800     0.107041
    0.250790     0.750800     0.107041
    0.750790     0.750800     0.107041
    0.000610     0.000610     0.209175
    0.500610     0.000610     0.209175
    0.000610     0.500610     0.209175
    0.500610     0.500610     0.209175
    0.250790     0.250800     0.311459
    0.750790     0.250800     0.311459
    0.250790     0.750800     0.311459
    0.750790     0.750800     0.311459
    0.303550     0.268460     0.431731
    0.696450     0.731540     0.431731
    0.731540     0.303550     0.431731
    0.268460     0.696450     0.431731
    0.244690     0.085230     0.499452
    0.755310     0.914770     0.499452
    0.914770     0.244690     0.499452
    0.085230     0.755310     0.499452
    0.125670     0.125670     0.055888
    0.625670     0.125670     0.055888
    0.375590     0.375590     0.055892
    0.875590     0.375590     0.055892
    0.125670     0.625670     0.055888
    0.625670     0.625670     0.055888
    0.375590     0.875590     0.055892
    0.875590     0.875590     0.055892
    0.375580     0.125690     0.158064
    0.875580     0.125690     0.158064
    0.125680     0.375590     0.158064
    0.625680     0.375590     0.158064
    0.375580     0.625690     0.158064
    0.875580     0.625690     0.158064
    0.125680     0.875590     0.158064
    0.625680     0.875590     0.158064
    0.125670     0.125670     0.260306
    0.625670     0.125670     0.260306
    0.375590     0.375590     0.260313
    0.875590     0.375590     0.260313
    0.125670     0.625670     0.260306
    0.625670     0.625670     0.260306
    0.375590     0.875590     0.260313
    0.875590     0.875590     0.260313
    0.375580     0.125690     0.362482
    0.875580     0.125690     0.362482
    0.125680     0.375590     0.362482
    0.625680     0.375590     0.362482
    0.375580     0.625690     0.362482
    0.875580     0.625690     0.362482
    0.125680     0.875590     0.362482
    0.625680     0.875590     0.362482
EA5     8.593  8.593 21.019 90.08 90.08 90.08 Sym.group:    0
1.0000
    8.593017     0.000000     0.000000
   -0.011983     8.593000     0.000000
   -0.029353    -0.029394    21.018959
   O  Cu
  19   40 
Direct
    0.000000     0.063050     0.449705
    0.000000     0.936950     0.449705
    0.000000     0.500000     0.408108
    0.000610     0.000610     0.004757
    0.500610     0.000610     0.004757
    0.000610     0.500610     0.004757
    0.500610     0.500610     0.004757
    0.250790     0.250800     0.107041
    0.750790     0.250800     0.107041
    0.250790     0.750800     0.107041
    0.750790     0.750800     0.107041
    0.000610     0.000610     0.209175
    0.500610     0.000610     0.209175
    0.000610     0.500610     0.209175
    0.500610     0.500610     0.209175
    0.250790     0.250800     0.311459
    0.750790     0.250800     0.311459
    0.250790     0.750800     0.311459
    0.750790     0.750800     0.311459
    0.500000     0.151610     0.506589
    0.500000     0.848390     0.506589
    0.866680     0.764450     0.469548
    0.133320     0.235550     0.469548
    0.133320     0.764450     0.469548
    0.866680     0.235550     0.469548
    0.610140     0.500000     0.504043
    0.389860     0.500000     0.504043
    0.125670     0.125670     0.055888
    0.625670     0.125670     0.055888
    0.375590     0.375590     0.055892
    0.875590     0.375590     0.055892
    0.125670     0.625670     0.055888
    0.625670     0.625670     0.055888
    0.375590     0.875590     0.055892
    0.875590     0.875590     0.055892
    0.375580     0.125690     0.158064
    0.875580     0.125690     0.158064
    0.125680     0.375590     0.158064
    0.625680     0.375590     0.158064
    0.375580     0.625690     0.158064
    0.875580     0.625690     0.158064
    0.125680     0.875590     0.158064
    0.625680     0.875590     0.158064
    0.125670     0.125670     0.260306
    0.625670     0.125670     0.260306
    0.375590     0.375590     0.260313
    0.875590     0.375590     0.260313
    0.125670     0.625670     0.260306
    0.625670     0.625670     0.260306
    0.375590     0.875590     0.260313
    0.875590     0.875590     0.260313
    0.375580     0.125690     0.362482
    0.875580     0.125690     0.362482
    0.125680     0.375590     0.362482
    0.625680     0.375590     0.362482
    0.375580     0.625690     0.362482
    0.875580     0.625690     0.362482
    0.125680     0.875590     0.362482
    0.625680     0.875590     0.362482
EA72    8.593  8.593 21.019 90.08 90.08 90.08 Sym.group:    0
1.0000
    8.593017     0.000000     0.000000
   -0.011983     8.593000     0.000000
   -0.029353    -0.029394    21.018959
   O  Cu
  19   40 
Direct
    0.000000     1.000000     0.383828
    0.000000     0.500000     0.497580
    0.500000     0.000000     0.497580
    0.000610     0.000610     0.004757
    0.500610     0.000610     0.004757
    0.000610     0.500610     0.004757
    0.500610     0.500610     0.004757
    0.250790     0.250800     0.107041
    0.750790     0.250800     0.107041
    0.250790     0.750800     0.107041
    0.750790     0.750800     0.107041
    0.000610     0.000610     0.209175
    0.500610     0.000610     0.209175
    0.000610     0.500610     0.209175
    0.500610     0.500610     0.209175
    0.250790     0.250800     0.311459
    0.750790     0.250800     0.311459
    0.250790     0.750800     0.311459
    0.750790     0.750800     0.311459
    0.824500     0.569130     0.484743
    0.175500     0.430870     0.484743
    0.430870     0.824500     0.484743
    0.569130     0.175500     0.484743
    0.500000     0.500000     0.524024
    0.000000     0.500000     0.429284
    0.500000     0.000000     0.429284
    0.000000     0.000000     0.456969
    0.125670     0.125670     0.055888
    0.625670     0.125670     0.055888
    0.375590     0.375590     0.055892
    0.875590     0.375590     0.055892
    0.125670     0.625670     0.055888
    0.625670     0.625670     0.055888
    0.375590     0.875590     0.055892
    0.875590     0.875590     0.055892
    0.375580     0.125690     0.158064
    0.875580     0.125690     0.158064
    0.125680     0.375590     0.158064
    0.625680     0.375590     0.158064
    0.375580     0.625690     0.158064
    0.875580     0.625690     0.158064
    0.125680     0.875590     0.158064
    0.625680     0.875590     0.158064
    0.125670     0.125670     0.260306
    0.625670     0.125670     0.260306
    0.375590     0.375590     0.260313
    0.875590     0.375590     0.260313
    0.125670     0.625670     0.260306
    0.625670     0.625670     0.260306
    0.375590     0.875590     0.260313
    0.875590     0.875590     0.260313
    0.375580     0.125690     0.362482
    0.875580     0.125690     0.362482
    0.125680     0.375590     0.362482
    0.625680     0.375590     0.362482
    0.375580     0.625690     0.362482
    0.875580     0.625690     0.362482
    0.125680     0.875590     0.362482
    0.625680     0.875590     0.362482
EA133   8.593  8.593 21.019 90.08 90.08 90.08 Sym.group:    0
1.0000
    8.593017     0.000000     0.000000
   -0.011983     8.593000     0.000000
   -0.029353    -0.029394    21.018959
   O  Cu
  19   40 
Direct
    0.200000     0.700000     0.429088
    0.500000     0.200000     0.476064
    0.000000     0.000000     0.383828
    0.000610     0.000610     0.004757
    0.500610     0.000610     0.004757
    0.000610     0.500610     0.004757
    0.500610     0.500610     0.004757
    0.250790     0.250800     0.107041
    0.750790     0.250800     0.107041
    0.250790     0.750800     0.107041
    0.750790     0.750800     0.107041
    0.000610     0.000610     0.209175
    0.500610     0.000610     0.209175
    0.000610     0.500610     0.209175
    0.500610     0.500610     0.209175
    0.250790     0.250800     0.311459
    0.750790     0.250800     0.311459
    0.250790     0.750800     0.311459
    0.750790     0.750800     0.311459
    0.500000     0.500000     0.429088
    0.500000     0.500000     0.554689
    0.824500     0.569130     0.484743
    0.175500     0.430870     0.484743
    0.430870     0.824500     0.484743
    0.000000     0.500000     0.429284
    0.500000     0.000000     0.429284
    0.000000     0.000000     0.456969
    0.125670     0.125670     0.055888
    0.625670     0.125670     0.055888
    0.375590     0.375590     0.055892
    0.875590     0.375590     0.055892
    0.125670     0.625670     0.055888
    0.625670     0.625670     0.055888
    0.375590     0.875590     0.055892
    0.875590     0.875590     0.055892
    0.375580     0.125690     0.158064
    0.875580     0.125690     0.158064
    0.125680     0.375590     0.158064
    0.625680     0.375590     0.158064
    0.375580     0.625690     0.158064
    0.875580     0.625690     0.158064
    0.125680     0.875590     0.158064
    0.625680     0.875590     0.158064
    0.125670     0.125670     0.260306
    0.625670     0.125670     0.260306
    0.375590     0.375590     0.260313
    0.875590     0.375590     0.260313
    0.125670     0.625670     0.260306
    0.625670     0.625670     0.260306
    0.375590     0.875590     0.260313
    0.875590     0.875590     0.260313
    0.375580     0.125690     0.362482
    0.875580     0.125690     0.362482
    0.125680     0.375590     0.362482
    0.625680     0.375590     0.362482
    0.375580     0.625690     0.362482
    0.875580     0.625690     0.362482
    0.125680     0.875590     0.362482
    0.625680     0.875590     0.362482
EA109   8.593  8.593 21.019 90.08 90.08 90.08 Sym.group:    0
1.0000
    8.593017     0.000000     0.000000
   -0.011983     8.593000     0.000000
   -0.029353    -0.029394    21.018959
   O  Cu
  19   40 
Direct
    0.269070     0.430523     0.443752
    0.446979     0.287764     0.458447
    0.446979     0.087764     0.437314
    0.000610     0.000610     0.004757
    0.500610     0.000610     0.004757
    0.000610     0.500610     0.004757
    0.500610     0.500610     0.004757
    0.250790     0.250800     0.107041
    0.750790     0.250800     0.107041
    0.250790     0.750800     0.107041
    0.750790     0.750800     0.107041
    0.000610     0.000610     0.209175
    0.500610     0.000610     0.209175
    0.000610     0.500610     0.209175
    0.500610     0.500610     0.209175
    0.250790     0.250800     0.311459
    0.750790     0.250800     0.311459
    0.250790     0.750800     0.311459
    0.750790     0.750800     0.311459
    0.169070     0.630523     0.446258
    0.169070     0.130523     0.452491
    0.446979     0.587764     0.452659
    0.946979     0.087764     0.452659
    0.946979     0.587764     0.480746
    0.946979     0.887764     0.410751
    0.750529     0.356224     0.461090
    0.715439     0.784214     0.461090
    0.125670     0.125670     0.055888
    0.625670     0.125670     0.055888
    0.375590     0.375590     0.055892
    0.875590     0.375590     0.055892
    0.125670     0.625670     0.055888
    0.625670     0.625670     0.055888
    0.375590     0.875590     0.055892
    0.875590     0.875590     0.055892
    0.375580     0.125690     0.158064
    0.875580     0.125690     0.158064
    0.125680     0.375590     0.158064
    0.625680     0.375590     0.158064
    0.375580     0.625690     0.158064
    0.875580     0.625690     0.158064
    0.125680     0.875590     0.158064
    0.625680     0.875590     0.158064
    0.125670     0.125670     0.260306
    0.625670     0.125670     0.260306
    0.375590     0.375590     0.260313
    0.875590     0.375590     0.260313
    0.125670     0.625670     0.260306
    0.625670     0.625670     0.260306
    0.375590     0.875590     0.260313
    0.875590     0.875590     0.260313
    0.375580     0.125690     0.362482
    0.875580     0.125690     0.362482
    0.125680     0.375590     0.362482
    0.625680     0.375590     0.362482
    0.375580     0.625690     0.362482
    0.875580     0.625690     0.362482
    0.125680     0.875590     0.362482
    0.625680     0.875590     0.362482
EA59    8.593  8.593 21.019 90.08 90.08 90.08 Sym.group:    0
1.0000
    8.593017     0.000000     0.000000
   -0.011983     8.593000     0.000000
   -0.029353    -0.029394    21.018959
   O  Cu
  19   40 
Direct
    0.926606     0.274690     0.440994
    0.501379     0.282644     0.520947
    0.552319     0.782644     0.420665
    0.000610     0.000610     0.004757
    0.500610     0.000610     0.004757
    0.000610     0.500610     0.004757
    0.500610     0.500610     0.004757
    0.250790     0.250800     0.107041
    0.750790     0.250800     0.107041
    0.250790     0.750800     0.107041
    0.750790     0.750800     0.107041
    0.000610     0.000610     0.209175
    0.500610     0.000610     0.209175
    0.000610     0.500610     0.209175
    0.500610     0.500610     0.209175
    0.250790     0.250800     0.311459
    0.750790     0.250800     0.311459
    0.250790     0.750800     0.311459
    0.750790     0.750800     0.311459
    0.230156     0.043150     0.449425
    0.658146     0.078240     0.449425
    0.841376     0.019380     0.517146
    0.306209     0.492574     0.485540
    0.798429     0.492574     0.485540
    0.052319     0.657764     0.443857
    0.052319     0.907524     0.443857
    0.552319     0.547874     0.438687
    0.125670     0.125670     0.055888
    0.625670     0.125670     0.055888
    0.375590     0.375590     0.055892
    0.875590     0.375590     0.055892
    0.125670     0.625670     0.055888
    0.625670     0.625670     0.055888
    0.375590     0.875590     0.055892
    0.875590     0.875590     0.055892
    0.375580     0.125690     0.158064
    0.875580     0.125690     0.158064
    0.125680     0.375590     0.158064
    0.625680     0.375590     0.158064
    0.375580     0.625690     0.158064
    0.875580     0.625690     0.158064
    0.125680     0.875590     0.158064
    0.625680     0.875590     0.158064
    0.125670     0.125670     0.260306
    0.625670     0.125670     0.260306
    0.375590     0.375590     0.260313
    0.875590     0.375590     0.260313
    0.125670     0.625670     0.260306
    0.625670     0.625670     0.260306
    0.375590     0.875590     0.260313
    0.875590     0.875590     0.260313
    0.375580     0.125690     0.362482
    0.875580     0.125690     0.362482
    0.125680     0.375590     0.362482
    0.625680     0.375590     0.362482
    0.375580     0.625690     0.362482
    0.875580     0.625690     0.362482
    0.125680     0.875590     0.362482
    0.625680     0.875590     0.362482
EA85    8.593  8.593 21.019 90.08 90.08 90.08 Sym.group:    0
1.0000
    8.593017     0.000000     0.000000
   -0.011983     8.593000     0.000000
   -0.029353    -0.029394    21.018959
   O  Cu
  19   40 
Direct
    0.800000     0.000000     0.429088
    0.000000     0.200000     0.429088
    0.000000     0.000000     0.407955
    0.000610     0.000610     0.004757
    0.500610     0.000610     0.004757
    0.000610     0.500610     0.004757
    0.500610     0.500610     0.004757
    0.250790     0.250800     0.107041
    0.750790     0.250800     0.107041
    0.250790     0.750800     0.107041
    0.750790     0.750800     0.107041
    0.000610     0.000610     0.209175
    0.500610     0.000610     0.209175
    0.000610     0.500610     0.209175
    0.500610     0.500610     0.209175
    0.250790     0.250800     0.311459
    0.750790     0.250800     0.311459
    0.250790     0.750800     0.311459
    0.750790     0.750800     0.311459
    0.000000     0.500000     0.423300
    0.500000     0.000000     0.423300
    0.500000     0.500000     0.451387
    0.500000     0.800000     0.524120
    0.303550     0.268460     0.431731
    0.696450     0.731540     0.431731
    0.731540     0.303550     0.431731
    0.268460     0.696450     0.431731
    0.125670     0.125670     0.055888
    0.625670     0.125670     0.055888
    0.375590     0.375590     0.055892
    0.875590     0.375590     0.055892
    0.125670     0.625670     0.055888
    0.625670     0.625670     0.055888
    0.375590     0.875590     0.055892
    0.875590     0.875590     0.055892
    0.375580     0.125690     0.158064
    0.875580     0.125690     0.158064
    0.125680     0.375590     0.158064
    0.625680     0.375590     0.158064
    0.375580     0.625690     0.158064
    0.875580     0.625690     0.158064
    0.125680     0.875590     0.158064
    0.625680     0.875590     0.158064
    0.125670     0.125670     0.260306
    0.625670     0.125670     0.260306
    0.375590     0.375590     0.260313
    0.875590     0.375590     0.260313
    0.125670     0.625670     0.260306
    0.625670     0.625670     0.260306
    0.375590     0.875590     0.260313
    0.875590     0.875590     0.260313
    0.375580     0.125690     0.362482
    0.875580     0.125690     0.362482
    0.125680     0.375590     0.362482
    0.625680     0.375590     0.362482
    0.375580     0.625690     0.362482
    0.875580     0.625690     0.362482
    0.125680     0.875590     0.362482
    0.625680     0.875590     0.362482
EA76    8.593  8.593 21.019 90.08 90.08 90.08 Sym.group:    0
1.0000
    8.593017     0.000000     0.000000
   -0.011983     8.593000     0.000000
   -0.029353    -0.029394    21.018959
   O  Cu
  19   40 
Direct
    0.914770     0.244690     0.499452
    0.000000     0.500000     0.423300
    0.500000     0.000000     0.423300
    0.000610     0.000610     0.004757
    0.500610     0.000610     0.004757
    0.000610     0.500610     0.004757
    0.500610     0.500610     0.004757
    0.250790     0.250800     0.107041
    0.750790     0.250800     0.107041
    0.250790     0.750800     0.107041
    0.750790     0.750800     0.107041
    0.000610     0.000610     0.209175
    0.500610     0.000610     0.209175
    0.000610     0.500610     0.209175
    0.500610     0.500610     0.209175
    0.250790     0.250800     0.311459
    0.750790     0.250800     0.311459
    0.250790     0.750800     0.311459
    0.750790     0.750800     0.311459
    0.303550     0.268460     0.431731
    0.696450     0.731540     0.431731
    0.731540     0.303550     0.431731
    0.268460     0.696450     0.431731
    0.244690     0.085230     0.499452
    0.755310     0.914770     0.499452
    0.000000     0.000000     0.407955
    0.085230     0.755310     0.499452
    0.125670     0.125670     0.055888
    0.625670     0.125670     0.055888
    0.375590     0.375590     0.055892
    0.875590     0.375590     0.055892
    0.125670     0.625670     0.055888
    0.625670     0.625670     0.055888
    0.375590     0.875590     0.055892
    0.875590     0.875590     0.055892
    0.375580     0.125690     0.158064
    0.875580     0.125690     0.158064
    0.125680     0.375590     0.158064
    0.625680     0.375590     0.158064
    0.375580     0.625690     0.158064
    0.875580     0.625690     0.158064
    0.125680     0.875590     0.158064
    0.625680     0.875590     0.158064
    0.125670     0.125670     0.260306
    0.625670     0.125670     0.260306
    0.375590     0.375590     0.260313
    0.875590     0.375590     0.260313
    0.125670     0.625670     0.260306
    0.625670     0.625670     0.260306
    0.375590     0.875590     0.260313
    0.875590     0.875590     0.260313
    0.375580     0.125690     0.362482
    0.875580     0.125690     0.362482
    0.125680     0.375590     0.362482
    0.625680     0.375590     0.362482
    0.375580     0.625690     0.362482
    0.875580     0.625690     0.362482
    0.125680     0.875590     0.362482
    0.625680     0.875590     0.362482
EA41    7.595  7.595 19.616 90.00 90.00 90.00 Sym.group:    0
1.0000
    7.594731     0.000000     0.000000
    0.000000     7.594731     0.000000
    0.000000     0.000000    19.615852
   O  Cu
  19   40 
Direct
    0.775981     0.196559     0.794965
    0.939804     0.939870     0.166611
    0.563842     0.183351     0.191525
    0.596902     0.815311     0.118477
    0.815636     0.597831     0.118155
    0.181990     0.563050     0.191913
    0.270467     0.655798     0.331661
    0.656843     0.261919     0.331884
    0.319262     0.319120     0.748383
    0.715429     0.715949     0.079260
    0.557435     0.558031     0.546763
    0.195881     0.776317     0.794475
    0.873313     0.354391     0.822653
    0.709149     0.842696     0.295388
    0.279852     0.019886     0.273120
    0.846962     0.697145     0.292671
    0.008403     0.285344     0.272992
    0.353552     0.873139     0.822516
    0.748875     0.749143     0.722689
    0.079807     0.859117     0.478342
    0.009892     0.706453     0.165344
    0.748136     0.480988     0.313228
    0.546115     0.817869     0.770194
    0.545188     0.262259     0.772769
    0.083487     0.303612     0.462543
    0.706491     0.010279     0.164995
    0.822540     0.051851     0.604326
    0.858670     0.079584     0.478923
    0.050109     0.824025     0.603992
    0.039942     0.274692     0.588389
    0.303045     0.084447     0.462173
    0.164899     0.165304     0.697790
    0.931338     0.931867     0.713988
    0.191036     0.935710     0.359471
    0.938311     0.187095     0.360042
    0.153994     0.480522     0.278825
    0.273789     0.040497     0.588245
    0.490958     0.744403     0.314649
    0.599771     0.220459     0.424676
    0.261714     0.545336     0.772193
    0.069104     0.073921     0.225352
    0.851803     0.851409     0.388002
    0.261796     0.843458     0.696919
    0.843165     0.262520     0.697383
    0.863929     0.533524     0.432955
    0.218732     0.598565     0.423993
    0.524781     0.195597     0.648229
    0.567054     0.858588     0.638958
    0.195461     0.526608     0.647566
    0.857967     0.567215     0.638931
    0.563918     0.060121     0.534066
    0.533567     0.865214     0.433497
    0.751043     0.751274     0.526050
    0.365122     0.365422     0.541446
    0.730963     0.364400     0.539974
    0.363658     0.731579     0.540213
    0.817892     0.546840     0.770318
    0.479931     0.154551     0.277934
    0.058663     0.565337     0.533599
EA79    8.593  8.593 21.019 90.08 90.08 90.08 Sym.group:    0
1.0000
    8.593017     0.000000     0.000000
   -0.011983     8.593000     0.000000
   -0.029353    -0.029394    21.018959
   O  Cu
  19   40 
Direct
    0.907033     0.072499     0.453079
    0.018090     0.904422     0.447462
    0.058712     0.527142     0.440451
    0.000610     0.000610     0.004757
    0.500610     0.000610     0.004757
    0.000610     0.500610     0.004757
    0.500610     0.500610     0.004757
    0.250790     0.250800     0.107041
    0.750790     0.250800     0.107041
    0.250790     0.750800     0.107041
    0.750790     0.750800     0.107041
    0.000610     0.000610     0.209175
    0.500610     0.000610     0.209175
    0.000610     0.500610     0.209175
    0.500610     0.500610     0.209175
    0.250790     0.250800     0.311459
    0.750790     0.250800     0.311459
    0.250790     0.750800     0.311459
    0.750790     0.750800     0.311459
    0.540623     0.133128     0.494714
    0.525354     0.846456     0.498603
    0.867068     0.774946     0.465421
    0.119652     0.209974     0.455912
    0.110135     0.798712     0.475668
    0.853327     0.232798     0.467562
    0.610140     0.500000     0.504043
    0.389866     0.499923     0.504059
    0.125670     0.125670     0.055888
    0.625670     0.125670     0.055888
    0.375590     0.375590     0.055892
    0.875590     0.375590     0.055892
    0.125670     0.625670     0.055888
    0.625670     0.625670     0.055888
    0.375590     0.875590     0.055892
    0.875590     0.875590     0.055892
    0.375580     0.125690     0.158064
    0.875580     0.125690     0.158064
    0.125680     0.375590     0.158064
    0.625680     0.375590     0.158064
    0.375580     0.625690     0.158064
    0.875580     0.625690     0.158064
    0.125680     0.875590     0.158064
    0.625680     0.875590     0.158064
    0.125670     0.125670     0.260306
    0.625670     0.125670     0.260306
    0.375590     0.375590     0.260313
    0.875590     0.375590     0.260313
    0.125670     0.625670     0.260306
    0.625670     0.625670     0.260306
    0.375590     0.875590     0.260313
    0.875590     0.875590     0.260313
    0.375580     0.125690     0.362482
    0.875580     0.125690     0.362482
    0.125680     0.375590     0.362482
    0.625680     0.375590     0.362482
    0.375580     0.625690     0.362482
    0.875580     0.625690     0.362482
    0.125680     0.875590     0.362482
    0.625680     0.875590     0.362482
EA40    8.593  8.593 21.019 90.08 90.08 90.08 Sym.group:    0
1.0000
    8.593017     0.000000     0.000000
   -0.011983     8.593000     0.000000
   -0.029353    -0.029394    21.018959
   O  Cu
  19   40 
Direct
    0.537720     0.462280     0.472009
    0.537720     0.075440     0.472009
    0.924560     0.462280     0.472009
    0.000610     0.000610     0.004757
    0.500610     0.000610     0.004757
    0.000610     0.500610     0.004757
    0.500610     0.500610     0.004757
    0.250790     0.250800     0.107041
    0.750790     0.250800     0.107041
    0.250790     0.750800     0.107041
    0.750790     0.750800     0.107041
    0.000610     0.000610     0.209175
    0.500610     0.000610     0.209175
    0.000610     0.500610     0.209175
    0.500610     0.500610     0.209175
    0.250790     0.250800     0.311459
    0.750790     0.250800     0.311459
    0.250790     0.750800     0.311459
    0.750790     0.750800     0.311459
    0.929690     0.307370     0.452670
    0.692630     0.622320     0.452670
    0.377680     0.070310     0.452670
    0.377680     0.307370     0.452670
    0.692630     0.070310     0.452670
    0.929690     0.622320     0.452670
    0.333330     0.666670     0.427734
    0.000000     1.000000     0.422592
    0.125670     0.125670     0.055888
    0.625670     0.125670     0.055888
    0.375590     0.375590     0.055892
    0.875590     0.375590     0.055892
    0.125670     0.625670     0.055888
    0.625670     0.625670     0.055888
    0.375590     0.875590     0.055892
    0.875590     0.875590     0.055892
    0.375580     0.125690     0.158064
    0.875580     0.125690     0.158064
    0.125680     0.375590     0.158064
    0.625680     0.375590     0.158064
    0.375580     0.625690     0.158064
    0.875580     0.625690     0.158064
    0.125680     0.875590     0.158064
    0.625680     0.875590     0.158064
    0.125670     0.125670     0.260306
    0.625670     0.125670     0.260306
    0.375590     0.375590     0.260313
    0.875590     0.375590     0.260313
    0.125670     0.625670     0.260306
    0.625670     0.625670     0.260306
    0.375590     0.875590     0.260313
    0.875590     0.875590     0.260313
    0.375580     0.125690     0.362482
    0.875580     0.125690     0.362482
    0.125680     0.375590     0.362482
    0.625680     0.375590     0.362482
    0.375580     0.625690     0.362482
    0.875580     0.625690     0.362482
    0.125680     0.875590     0.362482
    0.625680     0.875590     0.362482
EA39    8.593  8.593 21.019 90.08 90.08 90.08 Sym.group:    0
1.0000
    8.593017     0.000000     0.000000
   -0.011983     8.593000     0.000000
   -0.029353    -0.029394    21.018959
   O  Cu
  19   40 
Direct
    0.050940     0.000000     0.381849
    0.949060     0.000000     0.381849
    0.000000     0.500000     0.424295
    0.000610     0.000610     0.004757
    0.500610     0.000610     0.004757
    0.000610     0.500610     0.004757
    0.500610     0.500610     0.004757
    0.250790     0.250800     0.107041
    0.750790     0.250800     0.107041
    0.250790     0.750800     0.107041
    0.750790     0.750800     0.107041
    0.000610     0.000610     0.209175
    0.500610     0.000610     0.209175
    0.000610     0.500610     0.209175
    0.500610     0.500610     0.209175
    0.250790     0.250800     0.311459
    0.750790     0.250800     0.311459
    0.250790     0.750800     0.311459
    0.750790     0.750800     0.311459
    0.246110     0.790070     0.489170
    0.753890     0.209930     0.489170
    0.753890     0.790070     0.489170
    0.246110     0.209930     0.489170
    0.500000     0.375120     0.447487
    0.500000     0.624880     0.447487
    0.000000     0.734770     0.442317
    0.000000     0.265230     0.442317
    0.125670     0.125670     0.055888
    0.625670     0.125670     0.055888
    0.375590     0.375590     0.055892
    0.875590     0.375590     0.055892
    0.125670     0.625670     0.055888
    0.625670     0.625670     0.055888
    0.375590     0.875590     0.055892
    0.875590     0.875590     0.055892
    0.375580     0.125690     0.158064
    0.875580     0.125690     0.158064
    0.125680     0.375590     0.158064
    0.625680     0.375590     0.158064
    0.375580     0.625690     0.158064
    0.875580     0.625690     0.158064
    0.125680     0.875590     0.158064
    0.625680     0.875590     0.158064
    0.125670     0.125670     0.260306
    0.625670     0.125670     0.260306
    0.375590     0.375590     0.260313
    0.875590     0.375590     0.260313
    0.125670     0.625670     0.260306
    0.625670     0.625670     0.260306
    0.375590     0.875590     0.260313
    0.875590     0.875590     0.260313
    0.375580     0.125690     0.362482
    0.875580     0.125690     0.362482
    0.125680     0.375590     0.362482
    0.625680     0.375590     0.362482
    0.375580     0.625690     0.362482
    0.875580     0.625690     0.362482
    0.125680     0.875590     0.362482
    0.625680     0.875590     0.362482
EA99    8.593  8.593 21.019 90.08 90.08 90.08 Sym.group:    0
1.0000
    8.593017     0.000000     0.000000
   -0.011983     8.593000     0.000000
   -0.029353    -0.029394    21.018959
   O  Cu
  19   40 
Direct
    0.076387     0.424370     0.407807
    0.076387     0.924370     0.521559
    0.592310     0.915533     0.452107
    0.000610     0.000610     0.004757
    0.500610     0.000610     0.004757
    0.000610     0.500610     0.004757
    0.500610     0.500610     0.004757
    0.250790     0.250800     0.107041
    0.750790     0.250800     0.107041
    0.250790     0.750800     0.107041
    0.750790     0.750800     0.107041
    0.000610     0.000610     0.209175
    0.500610     0.000610     0.209175
    0.000610     0.500610     0.209175
    0.500610     0.500610     0.209175
    0.250790     0.250800     0.311459
    0.750790     0.250800     0.311459
    0.250790     0.750800     0.311459
    0.750790     0.750800     0.311459
    0.251887     0.855240     0.508722
    0.076387     0.924370     0.453263
    0.076387     0.424370     0.480948
    0.592310     0.415533     0.452107
    0.868240     0.139603     0.504802
    0.644170     0.691463     0.504802
    0.868240     0.467393     0.504802
    0.392310     0.315533     0.475049
    0.125670     0.125670     0.055888
    0.625670     0.125670     0.055888
    0.375590     0.375590     0.055892
    0.875590     0.375590     0.055892
    0.125670     0.625670     0.055888
    0.625670     0.625670     0.055888
    0.375590     0.875590     0.055892
    0.875590     0.875590     0.055892
    0.375580     0.125690     0.158064
    0.875580     0.125690     0.158064
    0.125680     0.375590     0.158064
    0.625680     0.375590     0.158064
    0.375580     0.625690     0.158064
    0.875580     0.625690     0.158064
    0.125680     0.875590     0.158064
    0.625680     0.875590     0.158064
    0.125670     0.125670     0.260306
    0.625670     0.125670     0.260306
    0.375590     0.375590     0.260313
    0.875590     0.375590     0.260313
    0.125670     0.625670     0.260306
    0.625670     0.625670     0.260306
    0.375590     0.875590     0.260313
    0.875590     0.875590     0.260313
    0.375580     0.125690     0.362482
    0.875580     0.125690     0.362482
    0.125680     0.375590     0.362482
    0.625680     0.375590     0.362482
    0.375580     0.625690     0.362482
    0.875580     0.625690     0.362482
    0.125680     0.875590     0.362482
    0.625680     0.875590     0.362482
EA127   8.593  8.593 21.019 90.08 90.08 90.08 Sym.group:    0
1.0000
    8.593017     0.000000     0.000000
   -0.011983     8.593000     0.000000
   -0.029353    -0.029394    21.018959
   O  Cu
  19   40 
Direct
    0.396569     0.999999     0.381821
    0.603431     0.000000     0.381821
    0.000000     0.500000     0.424295
    0.000610     0.000610     0.004757
    0.500610     0.000610     0.004757
    0.000610     0.500610     0.004757
    0.500610     0.500610     0.004757
    0.250790     0.250800     0.107041
    0.750790     0.250800     0.107041
    0.250790     0.750800     0.107041
    0.750790     0.750800     0.107041
    0.000610     0.000610     0.209175
    0.500610     0.000610     0.209175
    0.000610     0.500610     0.209175
    0.500610     0.500610     0.209175
    0.250790     0.250800     0.311459
    0.750790     0.250800     0.311459
    0.250790     0.750800     0.311459
    0.750790     0.750800     0.311459
    0.246110     0.790070     0.489170
    0.753890     0.209930     0.489170
    0.753890     0.790070     0.489170
    0.246110     0.209930     0.489170
    0.500000     0.375120     0.447487
    0.500000     0.624880     0.447487
    1.000000     0.734648     0.442345
    0.000000     0.265354     0.442345
    0.125670     0.125670     0.055888
    0.625670     0.125670     0.055888
    0.375590     0.375590     0.055892
    0.875590     0.375590     0.055892
    0.125670     0.625670     0.055888
    0.625670     0.625670     0.055888
    0.375590     0.875590     0.055892
    0.875590     0.875590     0.055892
    0.375580     0.125690     0.158064
    0.875580     0.125690     0.158064
    0.125680     0.375590     0.158064
    0.625680     0.375590     0.158064
    0.375580     0.625690     0.158064
    0.875580     0.625690     0.158064
    0.125680     0.875590     0.158064
    0.625680     0.875590     0.158064
    0.125670     0.125670     0.260306
    0.625670     0.125670     0.260306
    0.375590     0.375590     0.260313
    0.875590     0.375590     0.260313
    0.125670     0.625670     0.260306
    0.625670     0.625670     0.260306
    0.375590     0.875590     0.260313
    0.875590     0.875590     0.260313
    0.375580     0.125690     0.362482
    0.875580     0.125690     0.362482
    0.125680     0.375590     0.362482
    0.625680     0.375590     0.362482
    0.375580     0.625690     0.362482
    0.875580     0.625690     0.362482
    0.125680     0.875590     0.362482
    0.625680     0.875590     0.362482
