EA103   8.593  8.593 21.019 90.08 90.08 90.08 Sym.group:    0
1.0000
    8.593017     0.000000     0.000000
   -0.011983     8.593000     0.000000
   -0.029353    -0.029394    21.018959
   O  Cu
  19   40 
Direct
    0.416906     0.023339     0.438645
    0.774556     0.219468     0.385344
    0.825496     0.719468     0.427790
    0.000610     0.000610     0.004757
    0.500610     0.000610     0.004757
    0.000610     0.500610     0.004757
    0.500610     0.500610     0.004757
    0.250790     0.250800     0.107041
    0.750790     0.250800     0.107041
    0.250790     0.750800     0.107041
    0.750790     0.750800     0.107041
    0.000610     0.000610     0.209175
    0.500610     0.000610     0.209175
    0.000610     0.500610     0.209175
    0.500610     0.500610     0.209175
    0.250790     0.250800     0.311459
    0.750790     0.250800     0.311459
    0.250790     0.750800     0.311459
    0.750790     0.750800     0.311459
    0.192836     0.747409     0.491340
    0.192836     0.075199     0.491340
    0.416906     0.523339     0.444878
    0.416906     0.523339     0.515150
    0.931323     0.015064     0.456550
    0.825496     0.484698     0.445812
    0.503333     0.979974     0.456550
    0.865046     0.747409     0.491340
    0.125670     0.125670     0.055888
    0.625670     0.125670     0.055888
    0.375590     0.375590     0.055892
    0.875590     0.375590     0.055892
    0.125670     0.625670     0.055888
    0.625670     0.625670     0.055888
    0.375590     0.875590     0.055892
    0.875590     0.875590     0.055892
    0.375580     0.125690     0.158064
    0.875580     0.125690     0.158064
    0.125680     0.375590     0.158064
    0.625680     0.375590     0.158064
    0.375580     0.625690     0.158064
    0.875580     0.625690     0.158064
    0.125680     0.875590     0.158064
    0.625680     0.875590     0.158064
    0.125670     0.125670     0.260306
    0.625670     0.125670     0.260306
    0.375590     0.375590     0.260313
    0.875590     0.375590     0.260313
    0.125670     0.625670     0.260306
    0.625670     0.625670     0.260306
    0.375590     0.875590     0.260313
    0.875590     0.875590     0.260313
    0.375580     0.125690     0.362482
    0.875580     0.125690     0.362482
    0.125680     0.375590     0.362482
    0.625680     0.375590     0.362482
    0.375580     0.625690     0.362482
    0.875580     0.625690     0.362482
    0.125680     0.875590     0.362482
    0.625680     0.875590     0.362482
