EA41    8.102  8.102 18.249 90.00 90.00 90.00 Sym.group:    0
1.0000
    8.102393     0.000000     0.000000
    0.000000     8.102393     0.000000
    0.000000     0.000000    18.249387
   O  Cu
  17   40 
Direct
    0.959933     0.776373     0.196139     1.024771
    0.786613     0.108239     0.403498     0.000000
    0.274066     0.859740     0.370785     0.000000
    0.051217     0.863968     0.681855     0.000000
    0.033723     0.167906     0.745648     0.000000
    0.502012     0.199399     0.752644     0.000000
    0.856757     0.479791     0.738060     0.000000
    0.512277     0.222560     0.300775     0.000000
    0.926579     0.202057     0.199679     0.000000
    0.331684     0.576778     0.734180     0.000000
    0.574254     0.525629     0.406960     0.000000
    0.398820     0.165823     0.685344     0.000000
    0.677090     0.887055     0.693778     0.000000
    0.733724     0.488572     0.251604     0.000000
    0.134944     0.455162     0.373803     0.000000
    0.087321     0.240785     0.814166     0.000000
    0.293039     0.476169     0.192058     0.000000
    0.919348     0.683413     0.544485     1.027002
    0.307256     0.957003     0.471863     1.028581
    0.007563     0.180430     0.559149     1.031885
    0.119846     0.901679     0.575092     1.019293
    0.604593     0.104424     0.487682     1.026379
    0.617136     0.803638     0.500909     1.021408
    0.146158     0.466993     0.548662     1.025341
    0.650499     0.578402     0.595407     1.024615
    0.693367     0.911222     0.361537     0.000000
    0.682307     0.318204     0.392528     0.000000
    0.444064     0.705184     0.380144     0.000000
    0.911417     0.985319     0.222254     0.000000
    0.114431     0.330626     0.207565     0.000000
    0.837201     0.039330     0.733739     0.000000
    0.212405     0.027754     0.696264     0.000000
    0.403948     0.038733     0.339254     0.000000
    0.918144     0.950104     0.468173     0.000000
    0.387118     0.442117     0.638540     0.000000
    0.230548     0.400925     0.780961     0.000000
    0.160209     0.276501     0.443434     0.000000
    0.727258     0.236318     0.249676     0.000000
    0.488092     0.430072     0.501271     0.000000
    0.324011     0.358898     0.326451     0.000000
    0.795987     0.712799     0.264743     0.000000
    0.490546     0.739425     0.711725     0.000000
    0.669514     0.348998     0.734358     0.000000
    0.509717     0.500813     0.224552     0.000000
    0.792205     0.960623     0.593925     0.000000
    0.326888     0.203396     0.551280     0.000000
    0.840867     0.400562     0.506728     0.000000
    0.111301     0.694449     0.432153     0.000000
    0.796836     0.645359     0.415662     0.000000
    0.161928     0.656209     0.663361     0.000000
    0.660631     0.256576     0.599927     0.000000
    0.356757     0.694121     0.552635     0.000000
    0.935147     0.457289     0.318790     0.000000
    0.471276     0.962737     0.603610     0.000000
    0.130758     0.633396     0.202265     0.000000
    0.793313     0.687980     0.710861     0.000000
    0.918341     0.424956     0.639475     0.000000
EA89    8.102  8.102 18.249 90.00 90.00 90.00 Sym.group:    0
1.0000
    8.102393     0.000000     0.000000
    0.000000     8.102393     0.000000
    0.000000     0.000000    18.249387
   O  Cu
  17   40 
Direct
    0.959933     0.776373     0.196139     1.024771
    0.786613     0.108239     0.403498     0.000000
    0.274066     0.859740     0.370785     0.000000
    0.051217     0.863968     0.681855     0.000000
    0.033723     0.167906     0.745648     0.000000
    0.502012     0.199399     0.752644     0.000000
    0.856757     0.479791     0.738060     0.000000
    0.512277     0.222560     0.300775     0.000000
    0.926579     0.202057     0.199679     0.000000
    0.331684     0.576778     0.734180     0.000000
    0.574254     0.525629     0.406960     0.000000
    0.398820     0.165823     0.685344     0.000000
    0.677090     0.887055     0.693778     0.000000
    0.733724     0.488572     0.251604     0.000000
    0.134944     0.455162     0.373803     0.000000
    0.087321     0.240785     0.814166     0.000000
    0.293039     0.476169     0.192058     0.000000
    0.919348     0.683413     0.544485     1.027002
    0.307256     0.957003     0.471863     1.028581
    0.007563     0.180430     0.559149     1.031885
    0.119846     0.901679     0.575092     1.019293
    0.604593     0.104424     0.487682     1.026379
    0.617136     0.803638     0.500909     1.021408
    0.146158     0.466993     0.548662     1.025341
    0.650499     0.578402     0.595407     1.024615
    0.693367     0.911222     0.361537     0.000000
    0.682307     0.318204     0.392528     0.000000
    0.444064     0.705184     0.380144     0.000000
    0.911417     0.985319     0.222254     0.000000
    0.114431     0.330626     0.207565     0.000000
    0.837201     0.039330     0.733739     0.000000
    0.212405     0.027754     0.696264     0.000000
    0.403948     0.038733     0.339254     0.000000
    0.918144     0.950104     0.468173     0.000000
    0.387118     0.442117     0.638540     0.000000
    0.230548     0.400925     0.780961     0.000000
    0.160209     0.276501     0.443434     0.000000
    0.727258     0.236318     0.249676     0.000000
    0.488092     0.430072     0.501271     0.000000
    0.324011     0.358898     0.326451     0.000000
    0.795987     0.712799     0.264743     0.000000
    0.490546     0.739425     0.711725     0.000000
    0.669514     0.348998     0.734358     0.000000
    0.509717     0.500813     0.224552     0.000000
    0.792205     0.960623     0.593925     0.000000
    0.326888     0.203396     0.551280     0.000000
    0.840867     0.400562     0.506728     0.000000
    0.111301     0.694449     0.432153     0.000000
    0.796836     0.645359     0.415662     0.000000
    0.161928     0.656209     0.663361     0.000000
    0.660631     0.256576     0.599927     0.000000
    0.356757     0.694121     0.552635     0.000000
    0.935147     0.457289     0.318790     0.000000
    0.471276     0.962737     0.603610     0.000000
    0.130758     0.633396     0.202265     0.000000
    0.793313     0.687980     0.710861     0.000000
    0.918341     0.424956     0.639475     0.000000
EA137   8.102  8.102 18.249 90.00 90.00 90.00 Sym.group:    0
1.0000
    8.102393     0.000000     0.000000
    0.000000     8.102393     0.000000
    0.000000     0.000000    18.249387
   O  Cu
  17   40 
Direct
    0.959933     0.776373     0.196139     1.024771
    0.786613     0.108239     0.403498     0.000000
    0.274066     0.859740     0.370785     0.000000
    0.051217     0.863968     0.681855     0.000000
    0.033723     0.167906     0.745648     0.000000
    0.502012     0.199399     0.752644     0.000000
    0.856757     0.479791     0.738060     0.000000
    0.512277     0.222560     0.300775     0.000000
    0.926579     0.202057     0.199679     0.000000
    0.331684     0.576778     0.734180     0.000000
    0.574254     0.525629     0.406960     0.000000
    0.398820     0.165823     0.685344     0.000000
    0.677090     0.887055     0.693778     0.000000
    0.733724     0.488572     0.251604     0.000000
    0.134944     0.455162     0.373803     0.000000
    0.087321     0.240785     0.814166     0.000000
    0.293039     0.476169     0.192058     0.000000
    0.919348     0.683413     0.544485     1.027002
    0.307256     0.957003     0.471863     1.028581
    0.007563     0.180430     0.559149     1.031885
    0.119846     0.901679     0.575092     1.019293
    0.604593     0.104424     0.487682     1.026379
    0.617136     0.803638     0.500909     1.021408
    0.146158     0.466993     0.548662     1.025341
    0.650499     0.578402     0.595407     1.024615
    0.693367     0.911222     0.361537     0.000000
    0.682307     0.318204     0.392528     0.000000
    0.444064     0.705184     0.380144     0.000000
    0.911417     0.985319     0.222254     0.000000
    0.114431     0.330626     0.207565     0.000000
    0.837201     0.039330     0.733739     0.000000
    0.212405     0.027754     0.696264     0.000000
    0.403948     0.038733     0.339254     0.000000
    0.918144     0.950104     0.468173     0.000000
    0.387118     0.442117     0.638540     0.000000
    0.230548     0.400925     0.780961     0.000000
    0.160209     0.276501     0.443434     0.000000
    0.727258     0.236318     0.249676     0.000000
    0.488092     0.430072     0.501271     0.000000
    0.324011     0.358898     0.326451     0.000000
    0.795987     0.712799     0.264743     0.000000
    0.490546     0.739425     0.711725     0.000000
    0.669514     0.348998     0.734358     0.000000
    0.509717     0.500813     0.224552     0.000000
    0.792205     0.960623     0.593925     0.000000
    0.326888     0.203396     0.551280     0.000000
    0.840867     0.400562     0.506728     0.000000
    0.111301     0.694449     0.432153     0.000000
    0.796836     0.645359     0.415662     0.000000
    0.161928     0.656209     0.663361     0.000000
    0.660631     0.256576     0.599927     0.000000
    0.356757     0.694121     0.552635     0.000000
    0.935147     0.457289     0.318790     0.000000
    0.471276     0.962737     0.603610     0.000000
    0.130758     0.633396     0.202265     0.000000
    0.793313     0.687980     0.710861     0.000000
    0.918341     0.424956     0.639475     0.000000
