EA41    8.102  8.102 18.249 90.00 90.00 90.00 Sym.group:    0
1.0000
    8.102393     0.000000     0.000000
    0.000000     8.102393     0.000000
    0.000000     0.000000    18.249387
   O  Cu
  17   40 
Direct
    0.959933     0.776373     0.196139
    0.786613     0.108239     0.403498
    0.274066     0.859740     0.370785
    0.051217     0.863968     0.681855
    0.033723     0.167906     0.745648
    0.502012     0.199399     0.752644
    0.856757     0.479791     0.738060
    0.512277     0.222560     0.300775
    0.926579     0.202057     0.199679
    0.331684     0.576778     0.734180
    0.574254     0.525629     0.406960
    0.398820     0.165823     0.685344
    0.677090     0.887055     0.693778
    0.733724     0.488572     0.251604
    0.134944     0.455162     0.373803
    0.087321     0.240785     0.814166
    0.293039     0.476169     0.192058
    0.919348     0.683413     0.544485
    0.307256     0.957003     0.471863
    0.007563     0.180430     0.559149
    0.119846     0.901679     0.575092
    0.604593     0.104424     0.487682
    0.617136     0.803638     0.500909
    0.146158     0.466993     0.548662
    0.650499     0.578402     0.595407
    0.693367     0.911222     0.361537
    0.682307     0.318204     0.392528
    0.444064     0.705184     0.380144
    0.911417     0.985319     0.222254
    0.114431     0.330626     0.207565
    0.837201     0.039330     0.733739
    0.212405     0.027754     0.696264
    0.403948     0.038733     0.339254
    0.918144     0.950104     0.468173
    0.387118     0.442117     0.638540
    0.230548     0.400925     0.780961
    0.160209     0.276501     0.443434
    0.727258     0.236318     0.249676
    0.488092     0.430072     0.501271
    0.324011     0.358898     0.326451
    0.795987     0.712799     0.264743
    0.490546     0.739425     0.711725
    0.669514     0.348998     0.734358
    0.509717     0.500813     0.224552
    0.792205     0.960623     0.593925
    0.326888     0.203396     0.551280
    0.840867     0.400562     0.506728
    0.111301     0.694449     0.432153
    0.796836     0.645359     0.415662
    0.161928     0.656209     0.663361
    0.660631     0.256576     0.599927
    0.356757     0.694121     0.552635
    0.935147     0.457289     0.318790
    0.471276     0.962737     0.603610
    0.130758     0.633396     0.202265
    0.793313     0.687980     0.710861
    0.918341     0.424956     0.639475
EA42    6.616  9.005 23.388 90.00 90.00 90.00 Sym.group:    0
1.0000
    6.616114     0.000000     0.000000
    0.000000     9.005282     0.000000
    0.000000     0.000000    23.387666
   O  Cu
  17   40 
Direct
    0.390692     0.704408     0.614084
    0.974970     0.519301     0.391501
    0.821542     0.584051     0.646884
    0.157046     0.216460     0.570823
    0.927906     0.678107     0.819948
    0.421658     0.594287     0.751581
    0.225598     0.984428     0.247982
    0.855815     0.023761     0.416099
    0.970066     0.974540     0.629638
    0.765336     0.331479     0.821248
    0.354419     0.199000     0.707634
    0.791083     0.529172     0.589271
    0.209056     0.571460     0.260023
    0.583224     0.807832     0.358353
    0.297970     0.261833     0.368589
    0.654957     0.331895     0.509960
    0.795292     0.184373     0.301129
    0.165318     0.567469     0.455242
    0.362154     0.391733     0.733089
    0.477740     0.446605     0.391471
    0.697007     0.995994     0.335904
    0.770446     0.650980     0.362287
    0.080471     0.149099     0.401600
    0.461137     0.715962     0.423621
    0.913854     0.671841     0.530783
    0.527238     0.977221     0.241232
    0.986933     0.380692     0.568780
    0.902176     0.988592     0.708132
    0.944479     0.880220     0.799132
    0.476600     0.325934     0.826337
    0.285305     0.122475     0.306847
    0.865495     0.345642     0.350208
    0.515253     0.584700     0.273400
    0.175509     0.131812     0.649433
    0.807805     0.940572     0.565682
    0.572156     0.622239     0.682198
    0.169559     0.830944     0.617320
    0.066804     0.349442     0.818629
    0.689297     0.597244     0.788461
    0.168723     0.121457     0.761646
    0.172589     0.613401     0.791489
    0.631072     0.327580     0.262420
    0.919848     0.010116     0.246345
    0.915805     0.539371     0.263732
    0.819888     0.439353     0.453645
    0.395537     0.278353     0.539091
    0.731349     0.166237     0.464341
    0.247197     0.568188     0.565547
    0.548200     0.757429     0.547426
    0.764162     0.771815     0.232997
    0.157552     0.778869     0.259285
    0.822578     0.137101     0.794588
    0.466558     0.013011     0.524996
    0.745692     0.873737     0.467747
    0.498870     0.522349     0.493437
    0.240237     0.409126     0.310205
    0.684139     0.521757     0.185063
EA44    7.909  7.909 17.909 90.00 90.00 90.00 Sym.group:    0
1.0000
    7.909213     0.000000     0.000000
    0.000000     7.909213     0.000000
    0.000000     0.000000    17.909213
   O  Cu
  17   40 
Direct
    0.794589     0.519673     0.118640
    0.044954     0.087871     0.201495
    0.221851     0.599131     0.730434
    0.836711     0.050849     0.588569
    0.780846     0.699068     0.387751
    0.447014     0.332758     0.183922
    0.523494     0.247266     0.750877
    0.638471     0.838483     0.748695
    0.305305     0.330291     0.380712
    0.373661     0.748360     0.502078
    0.339460     0.362993     0.552941
    0.633693     0.322878     0.439859
    0.704966     0.606091     0.543351
    0.821966     0.550341     0.044573
    0.047358     0.569016     0.029120
    0.134247     0.527338     0.089319
    0.654118     0.914478     0.223480
    0.275801     0.499607     0.635280
    0.303180     0.151784     0.602041
    0.784156     0.824591     0.559619
    0.427726     0.724722     0.734217
    0.377187     0.373568     0.282415
    0.736943     0.325061     0.722798
    0.464172     0.892911     0.294397
    0.871188     0.533033     0.463648
    0.567341     0.134278     0.202914
    0.861390     0.484617     0.609084
    0.699914     0.347214     0.332448
    0.201004     0.692589     0.288485
    0.128949     0.679019     0.510424
    0.091831     0.357121     0.523606
    0.484257     0.030207     0.709251
    0.479108     0.140417     0.393704
    0.297225     0.861851     0.409827
    0.130328     0.491158     0.392558
    0.831358     0.167467     0.443795
    0.995961     0.210592     0.651079
    0.807561     0.959098     0.688591
    0.626031     0.877347     0.416097
    0.331635     0.839493     0.598833
    0.714444     0.710755     0.172371
    0.245967     0.203909     0.182071
    0.015824     0.460494     0.730944
    0.894289     0.596506     0.305024
    0.505564     0.501631     0.497468
    0.970373     0.851706     0.218277
    0.962529     0.284049     0.257901
    0.753838     0.637470     0.719176
    0.285668     0.274461     0.734460
    0.026752     0.548272     0.185107
    0.967253     0.873232     0.404411
    0.042248     0.732757     0.650576
    0.140346     0.155295     0.414008
    0.773578     0.041655     0.312635
    0.172817     0.984696     0.703321
    0.169398     0.003519     0.296667
    0.055507     0.008304     0.530489
EA87    8.593  8.593 21.019 90.08 90.08 90.08 Sym.group:    0
1.0000
    8.593017     0.000000     0.000000
   -0.011983     8.593000     0.000000
   -0.029353    -0.029394    21.018959
   O  Cu
  17   40 
Direct
    0.500000     0.600000     0.429088
    0.000610     0.000610     0.004757
    0.500610     0.000610     0.004757
    0.000610     0.500610     0.004757
    0.500610     0.500610     0.004757
    0.250790     0.250800     0.107041
    0.750790     0.250800     0.107041
    0.250790     0.750800     0.107041
    0.750790     0.750800     0.107041
    0.000610     0.000610     0.209175
    0.500610     0.000610     0.209175
    0.000610     0.500610     0.209175
    0.500610     0.500610     0.209175
    0.250790     0.250800     0.311459
    0.750790     0.250800     0.311459
    0.250790     0.750800     0.311459
    0.750790     0.750800     0.311459
    0.500000     0.700000     0.476759
    0.000000     0.000000     0.447775
    0.400000     0.400000     0.452030
    0.700000     0.500000     0.451620
    0.657770     0.000000     0.485267
    0.342230     0.000000     0.485267
    0.000000     0.657770     0.485267
    0.000000     0.342230     0.485267
    0.125670     0.125670     0.055888
    0.625670     0.125670     0.055888
    0.375590     0.375590     0.055892
    0.875590     0.375590     0.055892
    0.125670     0.625670     0.055888
    0.625670     0.625670     0.055888
    0.375590     0.875590     0.055892
    0.875590     0.875590     0.055892
    0.375580     0.125690     0.158064
    0.875580     0.125690     0.158064
    0.125680     0.375590     0.158064
    0.625680     0.375590     0.158064
    0.375580     0.625690     0.158064
    0.875580     0.625690     0.158064
    0.125680     0.875590     0.158064
    0.625680     0.875590     0.158064
    0.125670     0.125670     0.260306
    0.625670     0.125670     0.260306
    0.375590     0.375590     0.260313
    0.875590     0.375590     0.260313
    0.125670     0.625670     0.260306
    0.625670     0.625670     0.260306
    0.375590     0.875590     0.260313
    0.875590     0.875590     0.260313
    0.375580     0.125690     0.362482
    0.875580     0.125690     0.362482
    0.125680     0.375590     0.362482
    0.625680     0.375590     0.362482
    0.375580     0.625690     0.362482
    0.875580     0.625690     0.362482
    0.125680     0.875590     0.362482
    0.625680     0.875590     0.362482
EA29    8.593  8.593 21.019 90.08 90.08 90.08 Sym.group:    0
1.0000
    8.593017     0.000000     0.000000
   -0.011983     8.593000     0.000000
   -0.029353    -0.029394    21.018959
   O  Cu
  17   40 
Direct
    0.000000     0.000000     0.392875
    0.000610     0.000610     0.004757
    0.500610     0.000610     0.004757
    0.000610     0.500610     0.004757
    0.500610     0.500610     0.004757
    0.250790     0.250800     0.107041
    0.750790     0.250800     0.107041
    0.250790     0.750800     0.107041
    0.750790     0.750800     0.107041
    0.000610     0.000610     0.209175
    0.500610     0.000610     0.209175
    0.000610     0.500610     0.209175
    0.500610     0.500610     0.209175
    0.250790     0.250800     0.311459
    0.750790     0.250800     0.311459
    0.250790     0.750800     0.311459
    0.750790     0.750800     0.311459
    0.401350     0.334830     0.491894
    0.066520     0.401350     0.491894
    0.665170     0.066520     0.491894
    0.598650     0.665170     0.491894
    0.933480     0.598650     0.491894
    0.334830     0.933480     0.491894
    0.333330     0.666670     0.489925
    0.666670     0.333330     0.489925
    0.125670     0.125670     0.055888
    0.625670     0.125670     0.055888
    0.375590     0.375590     0.055892
    0.875590     0.375590     0.055892
    0.125670     0.625670     0.055888
    0.625670     0.625670     0.055888
    0.375590     0.875590     0.055892
    0.875590     0.875590     0.055892
    0.375580     0.125690     0.158064
    0.875580     0.125690     0.158064
    0.125680     0.375590     0.158064
    0.625680     0.375590     0.158064
    0.375580     0.625690     0.158064
    0.875580     0.625690     0.158064
    0.125680     0.875590     0.158064
    0.625680     0.875590     0.158064
    0.125670     0.125670     0.260306
    0.625670     0.125670     0.260306
    0.375590     0.375590     0.260313
    0.875590     0.375590     0.260313
    0.125670     0.625670     0.260306
    0.625670     0.625670     0.260306
    0.375590     0.875590     0.260313
    0.875590     0.875590     0.260313
    0.375580     0.125690     0.362482
    0.875580     0.125690     0.362482
    0.125680     0.375590     0.362482
    0.625680     0.375590     0.362482
    0.375580     0.625690     0.362482
    0.875580     0.625690     0.362482
    0.125680     0.875590     0.362482
    0.625680     0.875590     0.362482
EA33    8.593  8.593 21.019 90.08 90.08 90.08 Sym.group:    0
1.0000
    8.593017     0.000000     0.000000
   -0.011983     8.593000     0.000000
   -0.029353    -0.029394    21.018959
   O  Cu
  17   40 
Direct
    0.000000     0.000000     0.447775
    0.000610     0.000610     0.004757
    0.500610     0.000610     0.004757
    0.000610     0.500610     0.004757
    0.500610     0.500610     0.004757
    0.250790     0.250800     0.107041
    0.750790     0.250800     0.107041
    0.250790     0.750800     0.107041
    0.750790     0.750800     0.107041
    0.000610     0.000610     0.209175
    0.500610     0.000610     0.209175
    0.000610     0.500610     0.209175
    0.500610     0.500610     0.209175
    0.250790     0.250800     0.311459
    0.750790     0.250800     0.311459
    0.250790     0.750800     0.311459
    0.750790     0.750800     0.311459
    0.692770     0.500000     0.524022
    0.307230     0.500000     0.524022
    0.500000     0.692770     0.524022
    0.500000     0.307230     0.524022
    0.657770     0.000000     0.485267
    0.342230     0.000000     0.485267
    0.000000     0.657770     0.485267
    0.000000     0.342230     0.485267
    0.125670     0.125670     0.055888
    0.625670     0.125670     0.055888
    0.375590     0.375590     0.055892
    0.875590     0.375590     0.055892
    0.125670     0.625670     0.055888
    0.625670     0.625670     0.055888
    0.375590     0.875590     0.055892
    0.875590     0.875590     0.055892
    0.375580     0.125690     0.158064
    0.875580     0.125690     0.158064
    0.125680     0.375590     0.158064
    0.625680     0.375590     0.158064
    0.375580     0.625690     0.158064
    0.875580     0.625690     0.158064
    0.125680     0.875590     0.158064
    0.625680     0.875590     0.158064
    0.125670     0.125670     0.260306
    0.625670     0.125670     0.260306
    0.375590     0.375590     0.260313
    0.875590     0.375590     0.260313
    0.125670     0.625670     0.260306
    0.625670     0.625670     0.260306
    0.375590     0.875590     0.260313
    0.875590     0.875590     0.260313
    0.375580     0.125690     0.362482
    0.875580     0.125690     0.362482
    0.125680     0.375590     0.362482
    0.625680     0.375590     0.362482
    0.375580     0.625690     0.362482
    0.875580     0.625690     0.362482
    0.125680     0.875590     0.362482
    0.625680     0.875590     0.362482
EA132   8.593  8.593 21.019 90.08 90.08 90.08 Sym.group:    0
1.0000
    8.593017     0.000000     0.000000
   -0.011983     8.593000     0.000000
   -0.029353    -0.029394    21.018959
   O  Cu
  17   40 
Direct
    0.500000     0.500000     0.497761
    0.000610     0.000610     0.004757
    0.500610     0.000610     0.004757
    0.000610     0.500610     0.004757
    0.500610     0.500610     0.004757
    0.250790     0.250800     0.107041
    0.750790     0.250800     0.107041
    0.250790     0.750800     0.107041
    0.750790     0.750800     0.107041
    0.000610     0.000610     0.209175
    0.500610     0.000610     0.209175
    0.000610     0.500610     0.209175
    0.500610     0.500610     0.209175
    0.250790     0.250800     0.311459
    0.750790     0.250800     0.311459
    0.250790     0.750800     0.311459
    0.750790     0.750800     0.311459
    0.091620     0.656712     0.395525
    0.908380     0.343330     0.395513
    0.343331     0.908380     0.395513
    0.656714     0.091621     0.395526
    0.940730     0.605699     0.482527
    0.058174     0.395354     0.482514
    0.395354     0.058174     0.482515
    0.605698     0.940730     0.482527
    0.125670     0.125670     0.055888
    0.625670     0.125670     0.055888
    0.375590     0.375590     0.055892
    0.875590     0.375590     0.055892
    0.125670     0.625670     0.055888
    0.625670     0.625670     0.055888
    0.375590     0.875590     0.055892
    0.875590     0.875590     0.055892
    0.375580     0.125690     0.158064
    0.875580     0.125690     0.158064
    0.125680     0.375590     0.158064
    0.625680     0.375590     0.158064
    0.375580     0.625690     0.158064
    0.875580     0.625690     0.158064
    0.125680     0.875590     0.158064
    0.625680     0.875590     0.158064
    0.125670     0.125670     0.260306
    0.625670     0.125670     0.260306
    0.375590     0.375590     0.260313
    0.875590     0.375590     0.260313
    0.125670     0.625670     0.260306
    0.625670     0.625670     0.260306
    0.375590     0.875590     0.260313
    0.875590     0.875590     0.260313
    0.375580     0.125690     0.362482
    0.875580     0.125690     0.362482
    0.125680     0.375590     0.362482
    0.625680     0.375590     0.362482
    0.375580     0.625690     0.362482
    0.875580     0.625690     0.362482
    0.125680     0.875590     0.362482
    0.625680     0.875590     0.362482
EA86    8.593  8.593 21.019 90.08 90.08 90.08 Sym.group:    0
1.0000
    8.593017     0.000000     0.000000
   -0.011983     8.593000     0.000000
   -0.029353    -0.029394    21.018959
   O  Cu
  17   40 
Direct
    0.700000     0.100000     0.429088
    0.000610     0.000610     0.004757
    0.500610     0.000610     0.004757
    0.000610     0.500610     0.004757
    0.500610     0.500610     0.004757
    0.250790     0.250800     0.107041
    0.750790     0.250800     0.107041
    0.250790     0.750800     0.107041
    0.750790     0.750800     0.107041
    0.000610     0.000610     0.209175
    0.500610     0.000610     0.209175
    0.000610     0.500610     0.209175
    0.500610     0.500610     0.209175
    0.250790     0.250800     0.311459
    0.750790     0.250800     0.311459
    0.250790     0.750800     0.311459
    0.750790     0.750800     0.311459
    0.600000     0.600000     0.429088
    0.000000     0.000000     0.392875
    0.700000     0.900000     0.475868
    0.200000     0.000000     0.439655
    0.401350     0.334830     0.491894
    0.066520     0.401350     0.491894
    0.333330     0.666670     0.489925
    0.666670     0.333330     0.489925
    0.125670     0.125670     0.055888
    0.625670     0.125670     0.055888
    0.375590     0.375590     0.055892
    0.875590     0.375590     0.055892
    0.125670     0.625670     0.055888
    0.625670     0.625670     0.055888
    0.375590     0.875590     0.055892
    0.875590     0.875590     0.055892
    0.375580     0.125690     0.158064
    0.875580     0.125690     0.158064
    0.125680     0.375590     0.158064
    0.625680     0.375590     0.158064
    0.375580     0.625690     0.158064
    0.875580     0.625690     0.158064
    0.125680     0.875590     0.158064
    0.625680     0.875590     0.158064
    0.125670     0.125670     0.260306
    0.625670     0.125670     0.260306
    0.375590     0.375590     0.260313
    0.875590     0.375590     0.260313
    0.125670     0.625670     0.260306
    0.625670     0.625670     0.260306
    0.375590     0.875590     0.260313
    0.875590     0.875590     0.260313
    0.375580     0.125690     0.362482
    0.875580     0.125690     0.362482
    0.125680     0.375590     0.362482
    0.625680     0.375590     0.362482
    0.375580     0.625690     0.362482
    0.875580     0.625690     0.362482
    0.125680     0.875590     0.362482
    0.625680     0.875590     0.362482
EA120   8.593  8.593 21.019 90.08 90.08 90.08 Sym.group:    0
1.0000
    8.593017     0.000000     0.000000
   -0.011983     8.593000     0.000000
   -0.029353    -0.029394    21.018959
   O  Cu
  17   40 
Direct
    0.500000     0.500000     0.464110
    0.000610     0.000610     0.004757
    0.500610     0.000610     0.004757
    0.000610     0.500610     0.004757
    0.500610     0.500610     0.004757
    0.250790     0.250800     0.107041
    0.750790     0.250800     0.107041
    0.250790     0.750800     0.107041
    0.750790     0.750800     0.107041
    0.000610     0.000610     0.209175
    0.500610     0.000610     0.209175
    0.000610     0.500610     0.209175
    0.500610     0.500610     0.209175
    0.250790     0.250800     0.311459
    0.750790     0.250800     0.311459
    0.250790     0.750800     0.311459
    0.750790     0.750800     0.311459
    0.000000     0.000000     0.413654
    0.267920     0.018190     0.494040
    0.732080     0.981810     0.494040
    0.981810     0.732080     0.494040
    0.018190     0.267920     0.494040
    0.330390     0.330390     0.482279
    0.669610     0.669610     0.482279
    0.500000     0.500000     0.389159
    0.125670     0.125670     0.055888
    0.625670     0.125670     0.055888
    0.375590     0.375590     0.055892
    0.875590     0.375590     0.055892
    0.125670     0.625670     0.055888
    0.625670     0.625670     0.055888
    0.375590     0.875590     0.055892
    0.875590     0.875590     0.055892
    0.375580     0.125690     0.158064
    0.875580     0.125690     0.158064
    0.125680     0.375590     0.158064
    0.625680     0.375590     0.158064
    0.375580     0.625690     0.158064
    0.875580     0.625690     0.158064
    0.125680     0.875590     0.158064
    0.625680     0.875590     0.158064
    0.125670     0.125670     0.260306
    0.625670     0.125670     0.260306
    0.375590     0.375590     0.260313
    0.875590     0.375590     0.260313
    0.125670     0.625670     0.260306
    0.625670     0.625670     0.260306
    0.375590     0.875590     0.260313
    0.875590     0.875590     0.260313
    0.375580     0.125690     0.362482
    0.875580     0.125690     0.362482
    0.125680     0.375590     0.362482
    0.625680     0.375590     0.362482
    0.375580     0.625690     0.362482
    0.875580     0.625690     0.362482
    0.125680     0.875590     0.362482
    0.625680     0.875590     0.362482
EA43    7.350  7.350 19.557 90.00 90.00 90.00 Sym.group:    0
1.0000
    7.350067     0.000000     0.000000
    0.000000     7.350067     0.000000
    0.000000     0.000000    19.556695
   O  Cu
  17   40 
Direct
    0.451166     0.683054     0.418120
    0.881469     0.934555     0.499325
    0.534354     0.067857     0.440158
    0.102567     0.358135     0.581955
    0.790835     0.748858     0.683137
    0.575298     0.336053     0.607961
    0.405756     0.997505     0.222061
    0.614396     0.007806     0.213288
    0.405180     0.696109     0.339472
    0.972917     0.504430     0.849621
    0.340244     0.084637     0.415774
    0.843222     0.566011     0.185090
    0.771350     0.347491     0.578814
    0.293513     0.750086     0.649648
    0.068022     0.045373     0.249799
    0.067285     0.159411     0.724231
    0.224349     0.628900     0.706505
    0.676426     0.803151     0.446073
    0.191042     0.546642     0.335885
    0.562539     0.087091     0.637320
    0.540470     0.760386     0.668519
    0.915736     0.472233     0.402300
    0.924986     0.514321     0.523766
    0.188519     0.295269     0.439510
    0.818863     0.011615     0.272033
    0.162245     0.859195     0.030845
    0.119019     0.399877     0.685631
    0.917933     0.639745     0.767008
    0.018015     0.271796     0.813838
    0.998534     0.933697     0.828226
    0.019916     0.029776     0.142821
    0.720053     0.786127     0.187074
    0.807449     0.218597     0.038475
    0.899002     0.519197     0.275542
    0.245206     0.888288     0.297665
    0.683617     0.483825     0.117989
    0.839107     0.826483     0.586941
    0.010905     0.699393     0.922726
    0.513655     0.029501     0.012544
    0.484440     0.703235     0.051717
    0.176393     0.527996     0.025357
    0.804467     0.558472     0.009766
    0.889146     0.979967     0.706551
    0.038979     0.237135     0.319214
    0.127420     0.952565     0.457505
    0.951656     0.790888     0.360616
    0.226548     0.985698     0.680412
    0.962054     0.159719     0.541866
    0.349358     0.354817     0.565546
    0.171045     0.189463     0.037604
    0.212351     0.623863     0.460696
    0.741083     0.165469     0.387945
    0.810544     0.882913     0.050588
    0.360552     0.999640     0.123553
    0.002292     0.357372     0.939641
    0.470009     0.359351     0.037487
    0.955511     0.027968     0.946248
EA21    8.593  8.593 21.019 90.08 90.08 90.08 Sym.group:    0
1.0000
    8.593017     0.000000     0.000000
   -0.011983     8.593000     0.000000
   -0.029353    -0.029394    21.018959
   O  Cu
  17   40 
Direct
    0.666670     0.333330     0.493739
    0.000610     0.000610     0.004757
    0.500610     0.000610     0.004757
    0.000610     0.500610     0.004757
    0.500610     0.500610     0.004757
    0.250790     0.250800     0.107041
    0.750790     0.250800     0.107041
    0.250790     0.750800     0.107041
    0.750790     0.750800     0.107041
    0.000610     0.000610     0.209175
    0.500610     0.000610     0.209175
    0.000610     0.500610     0.209175
    0.500610     0.500610     0.209175
    0.250790     0.250800     0.311459
    0.750790     0.250800     0.311459
    0.250790     0.750800     0.311459
    0.750790     0.750800     0.311459
    0.978790     0.563860     0.503529
    0.436140     0.414930     0.503529
    0.585070     0.021210     0.503529
    0.899720     0.775610     0.501234
    0.224390     0.124100     0.501234
    0.875900     0.100280     0.501234
    0.333330     0.666670     0.515001
    0.000000     1.000000     0.403358
    0.125670     0.125670     0.055888
    0.625670     0.125670     0.055888
    0.375590     0.375590     0.055892
    0.875590     0.375590     0.055892
    0.125670     0.625670     0.055888
    0.625670     0.625670     0.055888
    0.375590     0.875590     0.055892
    0.875590     0.875590     0.055892
    0.375580     0.125690     0.158064
    0.875580     0.125690     0.158064
    0.125680     0.375590     0.158064
    0.625680     0.375590     0.158064
    0.375580     0.625690     0.158064
    0.875580     0.625690     0.158064
    0.125680     0.875590     0.158064
    0.625680     0.875590     0.158064
    0.125670     0.125670     0.260306
    0.625670     0.125670     0.260306
    0.375590     0.375590     0.260313
    0.875590     0.375590     0.260313
    0.125670     0.625670     0.260306
    0.625670     0.625670     0.260306
    0.375590     0.875590     0.260313
    0.875590     0.875590     0.260313
    0.375580     0.125690     0.362482
    0.875580     0.125690     0.362482
    0.125680     0.375590     0.362482
    0.625680     0.375590     0.362482
    0.375580     0.625690     0.362482
    0.875580     0.625690     0.362482
    0.125680     0.875590     0.362482
    0.625680     0.875590     0.362482
EA59    8.593  8.593 21.019 90.08 90.08 90.08 Sym.group:    0
1.0000
    8.593017     0.000000     0.000000
   -0.011983     8.593000     0.000000
   -0.029353    -0.029394    21.018959
   O  Cu
  17   40 
Direct
    0.093293     0.663636     0.445393
    0.000610     0.000610     0.004757
    0.500610     0.000610     0.004757
    0.000610     0.500610     0.004757
    0.500610     0.500610     0.004757
    0.250790     0.250800     0.107041
    0.750790     0.250800     0.107041
    0.250790     0.750800     0.107041
    0.750790     0.750800     0.107041
    0.000610     0.000610     0.209175
    0.500610     0.000610     0.209175
    0.000610     0.500610     0.209175
    0.500610     0.500610     0.209175
    0.250790     0.250800     0.311459
    0.750790     0.250800     0.311459
    0.250790     0.750800     0.311459
    0.750790     0.750800     0.311459
    0.450971     0.251590     0.487665
    0.593293     0.356406     0.521640
    0.593293     0.970866     0.521640
    0.751063     0.663636     0.482885
    0.435523     0.663636     0.482885
    0.093293     0.321406     0.482885
    0.786063     0.163636     0.521640
    0.093293     0.005866     0.482885
    0.125670     0.125670     0.055888
    0.625670     0.125670     0.055888
    0.375590     0.375590     0.055892
    0.875590     0.375590     0.055892
    0.125670     0.625670     0.055888
    0.625670     0.625670     0.055888
    0.375590     0.875590     0.055892
    0.875590     0.875590     0.055892
    0.375580     0.125690     0.158064
    0.875580     0.125690     0.158064
    0.125680     0.375590     0.158064
    0.625680     0.375590     0.158064
    0.375580     0.625690     0.158064
    0.875580     0.625690     0.158064
    0.125680     0.875590     0.158064
    0.625680     0.875590     0.158064
    0.125670     0.125670     0.260306
    0.625670     0.125670     0.260306
    0.375590     0.375590     0.260313
    0.875590     0.375590     0.260313
    0.125670     0.625670     0.260306
    0.625670     0.625670     0.260306
    0.375590     0.875590     0.260313
    0.875590     0.875590     0.260313
    0.375580     0.125690     0.362482
    0.875580     0.125690     0.362482
    0.125680     0.375590     0.362482
    0.625680     0.375590     0.362482
    0.375580     0.625690     0.362482
    0.875580     0.625690     0.362482
    0.125680     0.875590     0.362482
    0.625680     0.875590     0.362482
EA18    8.593  8.593 21.019 90.08 90.08 90.08 Sym.group:    0
1.0000
    8.593017     0.000000     0.000000
   -0.011983     8.593000     0.000000
   -0.029353    -0.029394    21.018959
   O  Cu
  17   40 
Direct
    0.500000     0.000000     0.446811
    0.000610     0.000610     0.004757
    0.500610     0.000610     0.004757
    0.000610     0.500610     0.004757
    0.500610     0.500610     0.004757
    0.250790     0.250800     0.107041
    0.750790     0.250800     0.107041
    0.250790     0.750800     0.107041
    0.750790     0.750800     0.107041
    0.000610     0.000610     0.209175
    0.500610     0.000610     0.209175
    0.000610     0.500610     0.209175
    0.500610     0.500610     0.209175
    0.250790     0.250800     0.311459
    0.750790     0.250800     0.311459
    0.250790     0.750800     0.311459
    0.750790     0.750800     0.311459
    0.590590     0.489700     0.456987
    0.409410     0.510300     0.456987
    0.935690     0.137510     0.496262
    0.064310     0.862490     0.496262
    0.430850     0.834080     0.413904
    0.569150     0.165920     0.413904
    0.555240     0.118460     0.496688
    0.444760     0.881540     0.496688
    0.125670     0.125670     0.055888
    0.625670     0.125670     0.055888
    0.375590     0.375590     0.055892
    0.875590     0.375590     0.055892
    0.125670     0.625670     0.055888
    0.625670     0.625670     0.055888
    0.375590     0.875590     0.055892
    0.875590     0.875590     0.055892
    0.375580     0.125690     0.158064
    0.875580     0.125690     0.158064
    0.125680     0.375590     0.158064
    0.625680     0.375590     0.158064
    0.375580     0.625690     0.158064
    0.875580     0.625690     0.158064
    0.125680     0.875590     0.158064
    0.625680     0.875590     0.158064
    0.125670     0.125670     0.260306
    0.625670     0.125670     0.260306
    0.375590     0.375590     0.260313
    0.875590     0.375590     0.260313
    0.125670     0.625670     0.260306
    0.625670     0.625670     0.260306
    0.375590     0.875590     0.260313
    0.875590     0.875590     0.260313
    0.375580     0.125690     0.362482
    0.875580     0.125690     0.362482
    0.125680     0.375590     0.362482
    0.625680     0.375590     0.362482
    0.375580     0.625690     0.362482
    0.875580     0.625690     0.362482
    0.125680     0.875590     0.362482
    0.625680     0.875590     0.362482
EA52    8.593  8.593 21.019 90.08 90.08 90.08 Sym.group:    0
1.0000
    8.593017     0.000000     0.000000
   -0.011983     8.593000     0.000000
   -0.029353    -0.029394    21.018959
   O  Cu
  17   40 
Direct
    0.316282     0.463149     0.399872
    0.000610     0.000610     0.004757
    0.500610     0.000610     0.004757
    0.000610     0.500610     0.004757
    0.500610     0.500610     0.004757
    0.250790     0.250800     0.107041
    0.750790     0.250800     0.107041
    0.250790     0.750800     0.107041
    0.750790     0.750800     0.107041
    0.000610     0.000610     0.209175
    0.500610     0.000610     0.209175
    0.000610     0.500610     0.209175
    0.500610     0.500610     0.209175
    0.250790     0.250800     0.311459
    0.750790     0.250800     0.311459
    0.250790     0.750800     0.311459
    0.750790     0.750800     0.311459
    0.052394     0.900470     0.473746
    0.406872     0.952849     0.410048
    0.751972     0.600659     0.449323
    0.880592     0.325639     0.449323
    0.385432     0.629069     0.509693
    0.371522     0.581609     0.449749
    0.247132     0.297229     0.509693
    0.816314     0.060040     0.450971
    0.125670     0.125670     0.055888
    0.625670     0.125670     0.055888
    0.375590     0.375590     0.055892
    0.875590     0.375590     0.055892
    0.125670     0.625670     0.055888
    0.625670     0.625670     0.055888
    0.375590     0.875590     0.055892
    0.875590     0.875590     0.055892
    0.375580     0.125690     0.158064
    0.875580     0.125690     0.158064
    0.125680     0.375590     0.158064
    0.625680     0.375590     0.158064
    0.375580     0.625690     0.158064
    0.875580     0.625690     0.158064
    0.125680     0.875590     0.158064
    0.625680     0.875590     0.158064
    0.125670     0.125670     0.260306
    0.625670     0.125670     0.260306
    0.375590     0.375590     0.260313
    0.875590     0.375590     0.260313
    0.125670     0.625670     0.260306
    0.625670     0.625670     0.260306
    0.375590     0.875590     0.260313
    0.875590     0.875590     0.260313
    0.375580     0.125690     0.362482
    0.875580     0.125690     0.362482
    0.125680     0.375590     0.362482
    0.625680     0.375590     0.362482
    0.375580     0.625690     0.362482
    0.875580     0.625690     0.362482
    0.125680     0.875590     0.362482
    0.625680     0.875590     0.362482
EA51    8.593  8.593 21.019 90.08 90.08 90.08 Sym.group:    0
1.0000
    8.593017     0.000000     0.000000
   -0.011983     8.593000     0.000000
   -0.029353    -0.029394    21.018959
   O  Cu
  17   40 
Direct
    0.328765     0.251095     0.490011
    0.000610     0.000610     0.004757
    0.500610     0.000610     0.004757
    0.000610     0.500610     0.004757
    0.500610     0.500610     0.004757
    0.250790     0.250800     0.107041
    0.750790     0.250800     0.107041
    0.250790     0.750800     0.107041
    0.750790     0.750800     0.107041
    0.000610     0.000610     0.209175
    0.500610     0.000610     0.209175
    0.000610     0.500610     0.209175
    0.500610     0.500610     0.209175
    0.250790     0.250800     0.311459
    0.750790     0.250800     0.311459
    0.250790     0.750800     0.311459
    0.750790     0.750800     0.311459
    0.304065     0.654375     0.463068
    0.304065     0.439865     0.432452
    0.037095     0.062355     0.516949
    0.875699     0.621672     0.509657
    0.559619     0.352632     0.509657
    0.801015     0.221925     0.494174
    0.536635     0.232225     0.453652
    0.584075     0.766045     0.416513
    0.125670     0.125670     0.055888
    0.625670     0.125670     0.055888
    0.375590     0.375590     0.055892
    0.875590     0.375590     0.055892
    0.125670     0.625670     0.055888
    0.625670     0.625670     0.055888
    0.375590     0.875590     0.055892
    0.875590     0.875590     0.055892
    0.375580     0.125690     0.158064
    0.875580     0.125690     0.158064
    0.125680     0.375590     0.158064
    0.625680     0.375590     0.158064
    0.375580     0.625690     0.158064
    0.875580     0.625690     0.158064
    0.125680     0.875590     0.158064
    0.625680     0.875590     0.158064
    0.125670     0.125670     0.260306
    0.625670     0.125670     0.260306
    0.375590     0.375590     0.260313
    0.875590     0.375590     0.260313
    0.125670     0.625670     0.260306
    0.625670     0.625670     0.260306
    0.375590     0.875590     0.260313
    0.875590     0.875590     0.260313
    0.375580     0.125690     0.362482
    0.875580     0.125690     0.362482
    0.125680     0.375590     0.362482
    0.625680     0.375590     0.362482
    0.375580     0.625690     0.362482
    0.875580     0.625690     0.362482
    0.125680     0.875590     0.362482
    0.625680     0.875590     0.362482
EA118   8.593  8.593 21.019 90.08 90.08 90.08 Sym.group:    0
1.0000
    8.593017     0.000000     0.000000
   -0.011983     8.593000     0.000000
   -0.029353    -0.029394    21.018959
   O  Cu
  17   40 
Direct
    0.000000     0.500000     0.480512
    0.000610     0.000610     0.004757
    0.500610     0.000610     0.004757
    0.000610     0.500610     0.004757
    0.500610     0.500610     0.004757
    0.250790     0.250800     0.107041
    0.750790     0.250800     0.107041
    0.250790     0.750800     0.107041
    0.750790     0.750800     0.107041
    0.000610     0.000610     0.209175
    0.500610     0.000610     0.209175
    0.000610     0.500610     0.209175
    0.500610     0.500610     0.209175
    0.250790     0.250800     0.311459
    0.750790     0.250800     0.311459
    0.250790     0.750800     0.311459
    0.750790     0.750800     0.311459
    0.214670     0.246960     0.454801
    0.785330     0.753040     0.454801
    0.785330     0.246960     0.454801
    0.214670     0.753040     0.454801
    0.406230     0.123890     0.499969
    0.593770     0.876110     0.499969
    0.593770     0.123890     0.499969
    0.406230     0.876110     0.499969
    0.125670     0.125670     0.055888
    0.625670     0.125670     0.055888
    0.375590     0.375590     0.055892
    0.875590     0.375590     0.055892
    0.125670     0.625670     0.055888
    0.625670     0.625670     0.055888
    0.375590     0.875590     0.055892
    0.875590     0.875590     0.055892
    0.375580     0.125690     0.158064
    0.875580     0.125690     0.158064
    0.125680     0.375590     0.158064
    0.625680     0.375590     0.158064
    0.375580     0.625690     0.158064
    0.875580     0.625690     0.158064
    0.125680     0.875590     0.158064
    0.625680     0.875590     0.158064
    0.125670     0.125670     0.260306
    0.625670     0.125670     0.260306
    0.375590     0.375590     0.260313
    0.875590     0.375590     0.260313
    0.125670     0.625670     0.260306
    0.625670     0.625670     0.260306
    0.375590     0.875590     0.260313
    0.875590     0.875590     0.260313
    0.375580     0.125690     0.362482
    0.875580     0.125690     0.362482
    0.125680     0.375590     0.362482
    0.625680     0.375590     0.362482
    0.375580     0.625690     0.362482
    0.875580     0.625690     0.362482
    0.125680     0.875590     0.362482
    0.625680     0.875590     0.362482
EA57    8.593  8.593 21.019 90.08 90.08 90.08 Sym.group:    0
1.0000
    8.593017     0.000000     0.000000
   -0.011983     8.593000     0.000000
   -0.029353    -0.029394    21.018959
   O  Cu
  17   40 
Direct
    0.960819     0.212752     0.490187
    0.000610     0.000610     0.004757
    0.500610     0.000610     0.004757
    0.000610     0.500610     0.004757
    0.500610     0.500610     0.004757
    0.250790     0.250800     0.107041
    0.750790     0.250800     0.107041
    0.250790     0.750800     0.107041
    0.750790     0.750800     0.107041
    0.000610     0.000610     0.209175
    0.500610     0.000610     0.209175
    0.000610     0.500610     0.209175
    0.500610     0.500610     0.209175
    0.250790     0.250800     0.311459
    0.750790     0.250800     0.311459
    0.250790     0.750800     0.311459
    0.750790     0.750800     0.311459
    0.735445     0.075813     0.456172
    0.340573     0.159324     0.495470
    0.031264     0.224306     0.420988
    0.483981     0.180185     0.397498
    0.914178     0.730750     0.424012
    0.988185     0.952534     0.437131
    0.347941     0.904027     0.384174
    0.075170     0.471877     0.447340
    0.125670     0.125670     0.055888
    0.625670     0.125670     0.055888
    0.375590     0.375590     0.055892
    0.875590     0.375590     0.055892
    0.125670     0.625670     0.055888
    0.625670     0.625670     0.055888
    0.375590     0.875590     0.055892
    0.875590     0.875590     0.055892
    0.375580     0.125690     0.158064
    0.875580     0.125690     0.158064
    0.125680     0.375590     0.158064
    0.625680     0.375590     0.158064
    0.375580     0.625690     0.158064
    0.875580     0.625690     0.158064
    0.125680     0.875590     0.158064
    0.625680     0.875590     0.158064
    0.125670     0.125670     0.260306
    0.625670     0.125670     0.260306
    0.375590     0.375590     0.260313
    0.875590     0.375590     0.260313
    0.125670     0.625670     0.260306
    0.625670     0.625670     0.260306
    0.375590     0.875590     0.260313
    0.875590     0.875590     0.260313
    0.375580     0.125690     0.362482
    0.875580     0.125690     0.362482
    0.125680     0.375590     0.362482
    0.625680     0.375590     0.362482
    0.375580     0.625690     0.362482
    0.875580     0.625690     0.362482
    0.125680     0.875590     0.362482
    0.625680     0.875590     0.362482
EA126   8.593  8.593 21.019 90.08 90.08 90.08 Sym.group:    0
1.0000
    8.593017     0.000000     0.000000
   -0.011983     8.593000     0.000000
   -0.029353    -0.029394    21.018959
   O  Cu
  17   40 
Direct
    0.451904     0.486053     0.446415
    0.000610     0.000610     0.004757
    0.500610     0.000610     0.004757
    0.000610     0.500610     0.004757
    0.500610     0.500610     0.004757
    0.250790     0.250800     0.107041
    0.750790     0.250800     0.107041
    0.250790     0.750800     0.107041
    0.750790     0.750800     0.107041
    0.000610     0.000610     0.209175
    0.500610     0.000610     0.209175
    0.000610     0.500610     0.209175
    0.500610     0.500610     0.209175
    0.250790     0.250800     0.311459
    0.750790     0.250800     0.311459
    0.250790     0.750800     0.311459
    0.750790     0.750800     0.311459
    0.213899     0.210049     0.560345
    0.994485     0.068578     0.438882
    0.410381     0.704850     0.413056
    0.214542     0.427288     0.511235
    0.735516     0.479762     0.428804
    0.056407     0.782362     0.511015
    0.997725     0.365604     0.509698
    0.724993     0.655579     0.509181
    0.125670     0.125670     0.055888
    0.625670     0.125670     0.055888
    0.375590     0.375590     0.055892
    0.875590     0.375590     0.055892
    0.125670     0.625670     0.055888
    0.625670     0.625670     0.055888
    0.375590     0.875590     0.055892
    0.875590     0.875590     0.055892
    0.375580     0.125690     0.158064
    0.875580     0.125690     0.158064
    0.125680     0.375590     0.158064
    0.625680     0.375590     0.158064
    0.375580     0.625690     0.158064
    0.875580     0.625690     0.158064
    0.125680     0.875590     0.158064
    0.625680     0.875590     0.158064
    0.125670     0.125670     0.260306
    0.625670     0.125670     0.260306
    0.375590     0.375590     0.260313
    0.875590     0.375590     0.260313
    0.125670     0.625670     0.260306
    0.625670     0.625670     0.260306
    0.375590     0.875590     0.260313
    0.875590     0.875590     0.260313
    0.375580     0.125690     0.362482
    0.875580     0.125690     0.362482
    0.125680     0.375590     0.362482
    0.625680     0.375590     0.362482
    0.375580     0.625690     0.362482
    0.875580     0.625690     0.362482
    0.125680     0.875590     0.362482
    0.625680     0.875590     0.362482
EA95    8.593  8.593 21.019 90.08 90.08 90.08 Sym.group:    0
1.0000
    8.593017     0.000000     0.000000
   -0.011983     8.593000     0.000000
   -0.029353    -0.029394    21.018959
   O  Cu
  17   40 
Direct
    0.772782     0.361042     0.520462
    0.000610     0.000610     0.004757
    0.500610     0.000610     0.004757
    0.000610     0.500610     0.004757
    0.500610     0.500610     0.004757
    0.250790     0.250800     0.107041
    0.750790     0.250800     0.107041
    0.250790     0.750800     0.107041
    0.750790     0.750800     0.107041
    0.000610     0.000610     0.209175
    0.500610     0.000610     0.209175
    0.000610     0.500610     0.209175
    0.500610     0.500610     0.209175
    0.250790     0.250800     0.311459
    0.750790     0.250800     0.311459
    0.250790     0.750800     0.311459
    0.750790     0.750800     0.311459
    0.397647     0.987419     0.468117
    0.062817     0.053939     0.468117
    0.331127     0.586069     0.468117
    0.329627     0.319259     0.466148
    0.762349     0.665960     0.468014
    0.715136     0.166430     0.464322
    0.442365     0.734280     0.384760
    0.849381     0.374402     0.386242
    0.125670     0.125670     0.055888
    0.625670     0.125670     0.055888
    0.375590     0.375590     0.055892
    0.875590     0.375590     0.055892
    0.125670     0.625670     0.055888
    0.625670     0.625670     0.055888
    0.375590     0.875590     0.055892
    0.875590     0.875590     0.055892
    0.375580     0.125690     0.158064
    0.875580     0.125690     0.158064
    0.125680     0.375590     0.158064
    0.625680     0.375590     0.158064
    0.375580     0.625690     0.158064
    0.875580     0.625690     0.158064
    0.125680     0.875590     0.158064
    0.625680     0.875590     0.158064
    0.125670     0.125670     0.260306
    0.625670     0.125670     0.260306
    0.375590     0.375590     0.260313
    0.875590     0.375590     0.260313
    0.125670     0.625670     0.260306
    0.625670     0.625670     0.260306
    0.375590     0.875590     0.260313
    0.875590     0.875590     0.260313
    0.375580     0.125690     0.362482
    0.875580     0.125690     0.362482
    0.125680     0.375590     0.362482
    0.625680     0.375590     0.362482
    0.375580     0.625690     0.362482
    0.875580     0.625690     0.362482
    0.125680     0.875590     0.362482
    0.625680     0.875590     0.362482
EA71    8.593  8.593 21.019 90.08 90.08 90.08 Sym.group:    0
1.0000
    8.593017     0.000000     0.000000
   -0.011983     8.593000     0.000000
   -0.029353    -0.029394    21.018959
   O  Cu
  17   40 
Direct
    1.000000     1.000000     0.509774
    0.000610     0.000610     0.004757
    0.500610     0.000610     0.004757
    0.000610     0.500610     0.004757
    0.500610     0.500610     0.004757
    0.250790     0.250800     0.107041
    0.750790     0.250800     0.107041
    0.250790     0.750800     0.107041
    0.750790     0.750800     0.107041
    0.000610     0.000610     0.209175
    0.500610     0.000610     0.209175
    0.000610     0.500610     0.209175
    0.500610     0.500610     0.209175
    0.250790     0.250800     0.311459
    0.750790     0.250800     0.311459
    0.250790     0.750800     0.311459
    0.750790     0.750800     0.311459
    0.519520     0.348640     0.448563
    0.480480     0.651360     0.448563
    0.651360     0.519520     0.448563
    0.348640     0.480480     0.448563
    0.567640     0.835530     0.494741
    0.432360     0.164470     0.494741
    0.164470     0.567640     0.494741
    0.835530     0.432360     0.494741
    0.125670     0.125670     0.055888
    0.625670     0.125670     0.055888
    0.375590     0.375590     0.055892
    0.875590     0.375590     0.055892
    0.125670     0.625670     0.055888
    0.625670     0.625670     0.055888
    0.375590     0.875590     0.055892
    0.875590     0.875590     0.055892
    0.375580     0.125690     0.158064
    0.875580     0.125690     0.158064
    0.125680     0.375590     0.158064
    0.625680     0.375590     0.158064
    0.375580     0.625690     0.158064
    0.875580     0.625690     0.158064
    0.125680     0.875590     0.158064
    0.625680     0.875590     0.158064
    0.125670     0.125670     0.260306
    0.625670     0.125670     0.260306
    0.375590     0.375590     0.260313
    0.875590     0.375590     0.260313
    0.125670     0.625670     0.260306
    0.625670     0.625670     0.260306
    0.375590     0.875590     0.260313
    0.875590     0.875590     0.260313
    0.375580     0.125690     0.362482
    0.875580     0.125690     0.362482
    0.125680     0.375590     0.362482
    0.625680     0.375590     0.362482
    0.375580     0.625690     0.362482
    0.875580     0.625690     0.362482
    0.125680     0.875590     0.362482
    0.625680     0.875590     0.362482
