Generation:1
EA1
 1.0000000000000000
     8.1023927802898292    0.0000000000000000    0.0000000000000000
     0.0000000000000000    8.1023927802898292    0.0000000000000000
     0.0000000000000000    0.0000000000000000   18.2493874564835110
 O   Cu 
  17  40
Direct
  0.9599330400000000  0.7763727600000000  0.1961388000000000
  0.7866125400000000  0.1082393900000000  0.4034984000000000
  0.2740658400000000  0.8597403600000000  0.3707855000000000
  0.0512171600000000  0.8639680400000000  0.6818553500000000
  0.0337232600000000  0.1679058900000000  0.7456483500000000
  0.5020123800000000  0.1993988100000000  0.7526438900000000
  0.8567571800000000  0.4797914600000000  0.7380602300000000
  0.5122765900000000  0.2225602200000000  0.3007751500000000
  0.9265794200000000  0.2020566900000000  0.1996786100000000
  0.3316841800000000  0.5767776200000000  0.7341802300000000
  0.5742543900000000  0.5256290400000000  0.4069603300000000
  0.3988202900000000  0.1658234900000000  0.6853435900000000
  0.6770898300000000  0.8870548000000000  0.6937780700000000
  0.7337237400000000  0.4885724900000000  0.2516043200000000
  0.1349443900000000  0.4551616300000000  0.3738031300000000
  0.0873207500000000  0.2407847300000000  0.8141663400000000
  0.2930385800000000  0.4761689600000000  0.1920584600000000
  0.9193477500000000  0.6834125100000000  0.5444849600000000
  0.3072556400000000  0.9570027700000000  0.4718625900000000
  0.0075629300000000  0.1804295300000000  0.5591485400000000
  0.1198460500000000  0.9016788200000000  0.5750924200000000
  0.6045925300000000  0.1044244100000000  0.4876820500000000
  0.6171359900000000  0.8036376900000000  0.5009088600000000
  0.1461583500000000  0.4669933200000000  0.5486616500000000
  0.6504992500000000  0.5784021499999999  0.5954070200000000
  0.6933673600000000  0.9112222400000000  0.3615366500000000
  0.6823071100000000  0.3182038200000000  0.3925280500000000
  0.4440644000000000  0.7051843200000000  0.3801443700000000
  0.9114172900000000  0.9853194900000000  0.2222539100000000
  0.1144311500000000  0.3306264600000000  0.2075654000000000
  0.8372005500000000  0.0393298500000000  0.7337385300000000
  0.2124051500000000  0.0277538700000000  0.6962637600000000
  0.4039478200000000  0.0387334200000000  0.3392542500000000
  0.9181442300000000  0.9501037700000000  0.4681734600000000
  0.3871179400000000  0.4421172600000000  0.6385399300000000
  0.2305476900000000  0.4009250500000000  0.7809607200000001
  0.1602092900000000  0.2765009100000000  0.4434336600000000
  0.7272582600000000  0.2363181400000000  0.2496755400000000
  0.4880916900000000  0.4300720400000000  0.5012705900000000
  0.3240112900000000  0.3588978100000000  0.3264506500000000
  0.7959871800000000  0.7127988600000000  0.2647433800000000
  0.4905455300000000  0.7394252900000000  0.7117250899999999
  0.6695142400000000  0.3489977800000000  0.7343579800000000
  0.5097169700000000  0.5008129099999999  0.2245515500000000
  0.7922049000000000  0.9606229100000000  0.5939253500000000
  0.3268875900000000  0.2033960200000000  0.5512796700000000
  0.8408671400000000  0.4005623300000000  0.5067280100000000
  0.1113007600000000  0.6944485200000000  0.4321532300000000
  0.7968360000000000  0.6453585200000000  0.4156622400000000
  0.1619284400000000  0.6562089700000000  0.6633606000000000
  0.6606308200000000  0.2565756800000000  0.5999272500000000
  0.3567567100000000  0.6941213500000000  0.5526349300000000
  0.9351473800000000  0.4572894100000000  0.3187897700000000
  0.4712755400000000  0.9627372199999999  0.6036101699999999
  0.1307577900000000  0.6333963800000000  0.2022648100000000
  0.7933132600000000  0.6879803300000000  0.7108614300000000
  0.9183408300000000  0.4249558500000000  0.6394749300000000
EA2
 1.0000000000000000
     6.6161140409031693    0.0000000000000000    0.0000000000000000
     0.0000000000000000    9.0052817956878197    0.0000000000000000
     0.0000000000000000    0.0000000000000000   23.3876660934207479
 O   Cu 
  17  40
Direct
  0.3906919500000000  0.7044083100000000  0.6140838600000000
  0.9749696099999999  0.5193006999999999  0.3915005900000000
  0.8215423100000000  0.5840508500000000  0.6468844800000000
  0.1570458300000000  0.2164598200000000  0.5708225200000000
  0.9279060400000000  0.6781068299999999  0.8199478900000000
  0.4216583900000000  0.5942867400000000  0.7515810400000000
  0.2255978300000000  0.9844277000000000  0.2479821800000000
  0.8558146200000000  0.0237613400000000  0.4160985200000000
  0.9700658300000000  0.9745401200000000  0.6296379900000000
  0.7653357900000000  0.3314790200000000  0.8212484000000001
  0.3544186300000001  0.1990004300000000  0.7076344100000000
  0.7910828000000000  0.5291717300000000  0.5892705100000000
  0.2090561400000000  0.5714599500000000  0.2600231400000000
  0.5832235800000000  0.8078316600000000  0.3583530900000000
  0.2979701000000000  0.2618331400000000  0.3685889900000000
  0.6549570400000000  0.3318950600000000  0.5099604400000000
  0.7952923399999999  0.1843734300000000  0.3011289900000000
  0.1653175800000000  0.5674693700000000  0.4552421300000001
  0.3621535100000000  0.3917330500000000  0.7330893400000000
  0.4777397000000000  0.4466046800000000  0.3914713200000000
  0.6970070199999999  0.9959938000000000  0.3359042500000000
  0.7704463900000000  0.6509797400000000  0.3622874200000000
  0.0804714900000000  0.1490992600000000  0.4016000500000000
  0.4611365300000000  0.7159624400000000  0.4236211100000000
  0.9138541300000002  0.6718414900000000  0.5307830200000000
  0.5272384300000000  0.9772209599999999  0.2412319000000000
  0.9869326800000000  0.3806919600000000  0.5687800400000000
  0.9021756399999999  0.9885916000000001  0.7081315099999999
  0.9444786300000000  0.8802203500000000  0.7991322000000001
  0.4765998600000000  0.3259337500000000  0.8263371800000000
  0.2853052900000000  0.1224752600000000  0.3068470800000000
  0.8654948900000000  0.3456415300000000  0.3502082600000000
  0.5152529300000001  0.5847002000000000  0.2734004800000000
  0.1755087300000000  0.1318118400000000  0.6494332200000000
  0.8078050500000000  0.9405719900000001  0.5656825000000000
  0.5721562600000000  0.6222393200000000  0.6821982300000000
  0.1695585000000000  0.8309441000000000  0.6173198500000000
  0.0668041000000000  0.3494422100000000  0.8186293499999999
  0.6892970500000000  0.5972438500000000  0.7884613000000000
  0.1687229800000000  0.1214574600000000  0.7616459100000000
  0.1725894300000000  0.6134005900000000  0.7914894800000000
  0.6310716800000000  0.3275795800000000  0.2624204400000000
  0.9198475400000000  0.0101163800000000  0.2463450500000000
  0.9158046500000001  0.5393714800000000  0.2637321300000000
  0.8198876299999999  0.4393534100000000  0.4536446100000000
  0.3955367900000001  0.2783532600000000  0.5390912400000000
  0.7313490499999999  0.1662373000000000  0.4643410600000000
  0.2471966700000000  0.5681882700000001  0.5655466400000000
  0.5481999400000001  0.7574291800000000  0.5474260800000000
  0.7641621199999999  0.7718145100000000  0.2329966900000000
  0.1575519600000000  0.7788690600000000  0.2592851600000000
  0.8225781599999999  0.1371006000000000  0.7945883200000000
  0.4665578900000000  0.0130107700000000  0.5249958600000000
  0.7456924899999998  0.8737366500000000  0.4677473400000000
  0.4988703400000000  0.5223490600000000  0.4934370300000000
  0.2402367600000000  0.4091258200000000  0.3102053300000000
  0.6841394800000000  0.5217573200000000  0.1850634300000000
EA3
 1.0000000000000000
     7.3500672490484602    0.0000000000000000    0.0000000000000000
     0.0000000000000000    7.3500672490484602    0.0000000000000000
     0.0000000000000000    0.0000000000000000   19.5566951503092312
 O   Cu 
  17  40
Direct
  0.4511661500000000  0.6830537800000001  0.4181199500000000
  0.8814693400000000  0.9345553800000000  0.4993245200000000
  0.5343538300000000  0.0678567400000000  0.4401579900000001
  0.1025668300000000  0.3581349200000000  0.5819549400000000
  0.7908354800000000  0.7488578000000000  0.6831374600000000
  0.5752978000000001  0.3360530400000000  0.6079607000000000
  0.4057563100000001  0.9975052200000000  0.2220614000000000
  0.6143957100000000  0.0078058000000000  0.2132884900000000
  0.4051804300000000  0.6961093900000001  0.3394721900000000
  0.9729168100000000  0.5044304900000000  0.8496213700000000
  0.3402437800000000  0.0846374700000000  0.4157737700000000
  0.8432220900000000  0.5660105700000000  0.1850895400000000
  0.7713504000000000  0.3474913700000000  0.5788138000000000
  0.2935130000000000  0.7500860200000000  0.6496480000000000
  0.0680217600000000  0.0453734500000000  0.2497990400000000
  0.0672852800000000  0.1594114200000000  0.7242308000000000
  0.2243489900000000  0.6289004500000001  0.7065048100000000
  0.6764256500000000  0.8031510100000000  0.4460730700000000
  0.1910418800000000  0.5466421500000000  0.3358853500000000
  0.5625390500000000  0.0870908900000000  0.6373195100000000
  0.5404701300000000  0.7603861800000000  0.6685188100000000
  0.9157356200000000  0.4722328400000000  0.4023000700000000
  0.9249864100000000  0.5143206900000000  0.5237664800000000
  0.1885192099999999  0.2952688600000000  0.4395098500000000
  0.8188635000000000  0.0116152100000000  0.2720330900000000
  0.1622452900000000  0.8591953100000000  0.0308445300000000
  0.1190188800000000  0.3998767200000000  0.6856309000000000
  0.9179332700000000  0.6397451299999999  0.7670080300000000
  0.0180145900000000  0.2717957400000000  0.8138382100000000
  0.9985343600000000  0.9336966200000000  0.8282256599999999
  0.0199160400000000  0.0297758400000000  0.1428211900000000
  0.7200527500000000  0.7861275000000000  0.1870744000000000
  0.8074485400000000  0.2185973600000000  0.0384749100000000
  0.8990015099999999  0.5191969400000001  0.2755415700000000
  0.2452062700000000  0.8882883400000000  0.2976654100000000
  0.6836174699999999  0.4838248600000000  0.1179886800000000
  0.8391065300000000  0.8264827200000000  0.5869410500000000
  0.0109047800000000  0.6993934800000000  0.9227262099999999
  0.5136554300000000  0.0295005800000000  0.0125438100000000
  0.4844400700000000  0.7032351800000001  0.0517168100000000
  0.1763930700000000  0.5279964400000000  0.0253565500000000
  0.8044671300000000  0.5584721300000000  0.0097659400000000
  0.8891461300000000  0.9799674399999999  0.7065505100000000
  0.0389790700000000  0.2371352400000000  0.3192141600000000
  0.1274203900000000  0.9525653700000000  0.4575045900000000
  0.9516560599999999  0.7908875700000000  0.3606157200000000
  0.2265480600000000  0.9856978300000000  0.6804118200000000
  0.9620543000000000  0.1597192300000000  0.5418663800000000
  0.3493582100000000  0.3548167800000000  0.5655459800000000
  0.1710445300000000  0.1894630100000000  0.0376043100000000
  0.2123515000000000  0.6238632600000000  0.4606964600000000
  0.7410831400000000  0.1654691100000000  0.3879453000000000
  0.8105442100000000  0.8829129400000000  0.0505880400000000
  0.3605518200000000  0.9996398200000000  0.1235528000000000
  0.0022917600000000  0.3573722700000000  0.9396406200000000
  0.4700090500000000  0.3593514700000000  0.0374867800000000
  0.9555114900000000  0.0279677500000000  0.9462476800000000
EA4
 1.0000000000000000
     7.9092126225107364    0.0000000000000000    0.0000000000000000
     0.0000000000000000    7.9092126225107355    0.0000000000000000
     0.0000000000000000    0.0000000000000000   17.9092126225107364
 O   Cu 
  17  40
Direct
  0.7945886700000000  0.5196729700000000  0.1186403700000000
  0.0449544800000000  0.0878711400000000  0.2014953300000000
  0.2218506000000000  0.5991308800000000  0.7304336200000000
  0.8367109900000000  0.0508494200000000  0.5885686400000000
  0.7808456400000000  0.6990680600000000  0.3877514800000000
  0.4470137600000000  0.3327581600000000  0.1839217700000000
  0.5234938300000000  0.2472658800000000  0.7508765100000000
  0.6384709100000000  0.8384833100000000  0.7486954600000000
  0.3053054800000000  0.3302909600000000  0.3807119100000000
  0.3736605400000000  0.7483603200000000  0.5020785000000000
  0.3394597400000000  0.3629927000000000  0.5529407100000000
  0.6336927100000000  0.3228778000000000  0.4398586500000000
  0.7049658800000000  0.6060909600000000  0.5433513300000000
  0.8219660100000001  0.5503407800000000  0.0445726500000000
  0.0473575500000000  0.5690161000000000  0.0291202200000000
  0.1342470300000000  0.5273376200000000  0.0893194500000000
  0.6541180400000000  0.9144775500000000  0.2234797200000000
  0.2758013900000000  0.4996067700000000  0.6352804500000000
  0.3031802900000000  0.1517839800000000  0.6020409500000000
  0.7841562399999999  0.8245911800000000  0.5596187800000000
  0.4277258900000000  0.7247218600000001  0.7342172900000000
  0.3771866300000000  0.3735683400000000  0.2824151000000000
  0.7369426100000001  0.3250608400000000  0.7227980300000000
  0.4641723800000000  0.8929108200000000  0.2943972100000000
  0.8711875200000000  0.5330326000000000  0.4636481299999999
  0.5673410400000000  0.1342778000000000  0.2029137300000000
  0.8613899500000000  0.4846167100000000  0.6090836400000000
  0.6999138600000000  0.3472142100000000  0.3324476100000000
  0.2010037800000000  0.6925890600000000  0.2884849100000000
  0.1289489200000000  0.6790192000000000  0.5104238700000000
  0.0918309400000000  0.3571209500000000  0.5236055200000000
  0.4842566900000000  0.0302070000000000  0.7092513700000000
  0.4791076900000000  0.1404171700000000  0.3937041500000000
  0.2972254400000000  0.8618511300000000  0.4098268400000000
  0.1303279700000000  0.4911580700000000  0.3925580300000000
  0.8313582500000000  0.1674674300000000  0.4437947000000000
  0.9959607300000000  0.2105922700000000  0.6510786800000000
  0.8075614300000000  0.9590982900000000  0.6885913800000000
  0.6260313900000000  0.8773473100000000  0.4160970600000000
  0.3316345100000000  0.8394932700000000  0.5988330900000000
  0.7144438900000000  0.7107550900000000  0.1723709100000000
  0.2459670900000000  0.2039088100000000  0.1820705700000000
  0.0158240800000000  0.4604943800000000  0.7309435900000000
  0.8942892300000000  0.5965061200000000  0.3050237000000000
  0.5055644200000000  0.5016314300000000  0.4974676800000001
  0.9703726700000000  0.8517062300000000  0.2182773200000000
  0.9625291100000000  0.2840494600000000  0.2579011800000000
  0.7538378300000000  0.6374695400000000  0.7191759200000000
  0.2856678000000000  0.2744612600000000  0.7344603600000000
  0.0267525000000000  0.5482724500000000  0.1851070100000000
  0.9672527000000000  0.8732316099999999  0.4044108000000000
  0.0422484300000000  0.7327567300000000  0.6505760200000000
  0.1403462300000000  0.1552952700000000  0.4140079500000000
  0.7735784400000000  0.0416553700000000  0.3126353500000000
  0.1728169900000000  0.9846962800000001  0.7033210400000000
  0.1693977800000000  0.0035185100000000  0.2966668300000000
  0.0555066700000000  0.0083038600000000  0.5304885100000000
Generation:2
Generation:3
