EA139  14.332 20.595 22.793 90.00 90.00 90.00 Sym.group:    0
1.0000
   14.331826     0.000000     0.000000
    0.000000    20.594557     0.000000
    0.000000     0.000000    22.793299
   O  Cu
   8   24 
Direct
    0.402131     0.698681     0.512507
    0.716608     0.668074     0.482022
    0.674467     0.520247     0.485898
    0.399468     0.547069     0.515551
    0.625478     0.484407     0.499816
    0.571114     0.353353     0.502764
    0.260963     0.468363     0.521482
    0.373140     0.399152     0.504581
    0.631318     0.640144     0.516436
    0.476590     0.654227     0.479766
    0.175034     0.555147     0.501566
    0.166655     0.499145     0.502861
    0.875360     0.539053     0.492156
    0.209744     0.602908     0.507568
    0.595467     0.586970     0.531612
    0.495665     0.595283     0.467181
    0.725703     0.532352     0.511823
    0.353099     0.567501     0.488874
    0.760269     0.570191     0.510117
    0.330676     0.610811     0.488705
    0.735902     0.438605     0.499149
    0.498522     0.353351     0.503717
    0.698669     0.399165     0.500309
    0.746785     0.314611     0.501120
    0.878047     0.453658     0.497027
    0.536729     0.486188     0.539788
    0.296736     0.400131     0.524163
    0.421707     0.327909     0.480268
    0.212428     0.392238     0.482943
    0.185578     0.443453     0.480931
    0.433798     0.414258     0.501693
    0.536150     0.483356     0.465604
