===== USPEX WARNING @ 18:53:28 28-Feb-2025 ===== 
The structure after relaxation cannot satisfy distance constraint
1.00
21.6967            0            0
0      21.6967            0
0            0      15.8904
 O  Cu 
8  24
Direct
0.5         0.5     0.38882
0.45699      0.2865     0.55561
0.54301      0.7135     0.55561
0.2865     0.54301     0.55561
0.7135     0.45699     0.55561
0.5         0.5     0.55148
0.5         0.5     0.50658
0.5         0.5     0.44936
0.36351     0.33122     0.48286
0.63649     0.66878     0.48286
0.33122     0.63649     0.48286
0.66878     0.36351     0.48286
0.45441     0.40627     0.41399
0.54559     0.59373     0.41399
0.40627     0.54559     0.41399
0.59373     0.45441     0.41399
0.3984     0.35685     0.41761
0.6016     0.64315     0.41761
0.35685      0.6016     0.41761
0.64315      0.3984     0.41761
0.40023     0.28605     0.59337
0.59977     0.71395     0.59337
0.28605     0.59977     0.59337
0.71395     0.40023     0.59337
0.49492     0.38554      0.5266
0.50508     0.61447      0.5266
0.38554     0.50508      0.5266
0.61447     0.49492      0.5266
0.41895     0.38286     0.53589
0.58105     0.61715     0.53589
0.38286     0.58105     0.53589
0.61715     0.41895     0.53589


Struture before relaxation, for checking
1.00
21.6967            0            0
0      21.6967            0
0            0      15.8904
 O  Cu 
8  24
Direct
0.5         0.5     0.38882
0.45699      0.2865     0.55561
0.54301      0.7135     0.55561
0.2865     0.54301     0.55561
0.7135     0.45699     0.55561
0.5         0.5     0.55148
0.5         0.5     0.50658
0.5         0.5     0.44936
0.36351     0.33122     0.48286
0.63649     0.66878     0.48286
0.33122     0.63649     0.48286
0.66878     0.36351     0.48286
0.45441     0.40627     0.41399
0.54559     0.59373     0.41399
0.40627     0.54559     0.41399
0.59373     0.45441     0.41399
0.3984     0.35685      0.4176
0.6016     0.64315      0.4176
0.35685      0.6016      0.4176
0.64315      0.3984      0.4176
0.40023     0.28605     0.59337
0.59977     0.71395     0.59337
0.28605     0.59977     0.59337
0.71395     0.40023     0.59337
0.49492     0.38554      0.5266
0.50508     0.61446      0.5266
0.38554     0.50508      0.5266
0.61446     0.49492      0.5266
0.41895     0.38285     0.53589
0.58105     0.61715     0.53589
0.38285     0.58105     0.53589
0.61715     0.41895     0.53589


