EA131   8.593  8.593 21.019 90.080 90.080 90.080 Sym.group: no SG
1.0000
    8.593017     0.000000     0.000000
   -0.011983     8.593000     0.000000
   -0.029353    -0.029394    21.018959
  21   40 
Selective dynamics
Direct
    0.700000     1.000000     0.429088  T  T  T
    0.700000     0.600000     0.542637  T  T  T
    0.946777     0.579317     0.457056  T  T  T
    0.900000     0.200000     0.429088  T  T  T
    0.700000     0.300000     0.536507  T  T  T
    0.000610     0.000610     0.004757  F  F  F
    0.500610     0.000610     0.004757  F  F  F
    0.000610     0.500610     0.004757  F  F  F
    0.500610     0.500610     0.004757  F  F  F
    0.250790     0.250800     0.107041  F  F  F
    0.750790     0.250800     0.107041  F  F  F
    0.250790     0.750800     0.107041  F  F  F
    0.750790     0.750800     0.107041  F  F  F
    0.000610     0.000610     0.209175  F  F  F
    0.500610     0.000610     0.209175  F  F  F
    0.000610     0.500610     0.209175  F  F  F
    0.500610     0.500610     0.209175  F  F  F
    0.250790     0.250800     0.311459  F  F  F
    0.750790     0.250800     0.311459  F  F  F
    0.250790     0.750800     0.311459  F  F  F
    0.750790     0.750800     0.311459  F  F  F
    0.200000     0.500000     0.559806  T  T  T
    0.199627     0.070916     0.454664  T  T  T
    0.396837     0.529146     0.454664  T  T  T
    0.396837     0.070916     0.454664  T  T  T
    0.657857     0.529146     0.454664  T  T  T
    0.199627     0.331936     0.454664  T  T  T
    0.955447     0.815647     0.439958  T  T  T
    0.174447     0.815647     0.439958  T  T  T
    0.125670     0.125670     0.055888  F  F  F
    0.625670     0.125670     0.055888  F  F  F
    0.375590     0.375590     0.055892  F  F  F
    0.875590     0.375590     0.055892  F  F  F
    0.125670     0.625670     0.055888  F  F  F
    0.625670     0.625670     0.055888  F  F  F
    0.375590     0.875590     0.055892  F  F  F
    0.875590     0.875590     0.055892  F  F  F
    0.375580     0.125690     0.158064  F  F  F
    0.875580     0.125690     0.158064  F  F  F
    0.125680     0.375590     0.158064  F  F  F
    0.625680     0.375590     0.158064  F  F  F
    0.375580     0.625690     0.158064  F  F  F
    0.875580     0.625690     0.158064  F  F  F
    0.125680     0.875590     0.158064  F  F  F
    0.625680     0.875590     0.158064  F  F  F
    0.125670     0.125670     0.260306  F  F  F
    0.625670     0.125670     0.260306  F  F  F
    0.375590     0.375590     0.260313  F  F  F
    0.875590     0.375590     0.260313  F  F  F
    0.125670     0.625670     0.260306  F  F  F
    0.625670     0.625670     0.260306  F  F  F
    0.375590     0.875590     0.260313  F  F  F
    0.875590     0.875590     0.260313  F  F  F
    0.375580     0.125690     0.362482  F  F  F
    0.875580     0.125690     0.362482  F  F  F
    0.125680     0.375590     0.362482  F  F  F
    0.625680     0.375590     0.362482  F  F  F
    0.375580     0.625690     0.362482  F  F  F
    0.875580     0.625690     0.362482  F  F  F
    0.125680     0.875590     0.362482  F  F  F
    0.625680     0.875590     0.362482  F  F  F
