EA1
 1.0000000000000000
     8.8067380330879086    0.0000000000000000    0.0000000000000000
     0.0000000000000000    9.7004762121776906    0.0000000000000000
     0.0000000000000000    0.0000000000000000   15.3494275886323130
 O   Cu 
  24  24
Direct
  0.7074989097447458  0.7932453107794452  0.6742549537350195
  0.7074989097447458  0.7932453107794452  0.3257450462649805
  0.1165201331706190  0.5165203557208619  0.6742549537350195
  0.3240190429153649  0.8097656665003070  0.3257450462649805
  0.3240190429153649  0.8097656665003070  0.6742549537350195
  0.2925010902552542  0.2067546892205548  0.6742549537350195
  0.1165201331706190  0.5165203557208619  0.3257450462649805
  0.6759809570846350  0.1902343334996930  0.6742549537350195
  0.2925010902552542  0.2067546892205548  0.3257450462649805
  0.8834798668293811  0.4834796442791381  0.6742549537350195
  0.6759809570846350  0.1902343334996930  0.3257450462649805
  0.8834798668293811  0.4834796442791381  0.3257450462649805
  0.5518470708064110  0.9383344145591562  0.5000000000000000
  0.1077907917502716  0.7599312154328102  0.5000000000000000
  0.0559437209438604  0.3215968008736539  0.5000000000000000
  0.4481529291935889  0.0616655854408438  0.5000000000000000
  0.8922092082497283  0.2400687845671898  0.5000000000000000
  0.9440562790561396  0.6784031991263459  0.5000000000000000
  0.6236289914470518  0.8882757183574246  0.5000000000000000
  0.1914333756969725  0.7913393623097302  0.5000000000000000
  0.0678043842499206  0.4030636439523055  0.5000000000000000
  0.3763710085529482  0.1117242816425752  0.5000000000000000
  0.8085666243030274  0.2086606376902697  0.5000000000000000
  0.9321956157500794  0.5969363560476943  0.5000000000000000
  1.0000000000000000  0.7137644900820235  0.6324770889884066
  1.0000000000000000  0.7137644900820235  0.3675229110115935
  0.0460873484609679  0.7862355099179766  0.6324770889884065
  0.5460873484609680  1.0000000000000000  0.3675229110115935
  0.5460873484609680  1.0000000000000000  0.6324770889884066
  0.0000000000000000  0.2862355099179765  0.6324770889884065
  0.0460873484609679  0.7862355099179766  0.3675229110115935
  0.4539126515390320  0.0000000000000000  0.6324770889884065
  0.0000000000000000  0.2862355099179765  0.3675229110115934
  0.9539126515390324  0.2137644900820233  0.6324770889884065
  0.4539126515390320  0.0000000000000000  0.3675229110115934
  0.9539126515390324  0.2137644900820233  0.3675229110115935
  0.6838887212720113  0.7009266349064707  0.5889672586110754
  0.6838887212720113  0.7009266349064707  0.4110327413889248
  0.2163891802955477  0.5441165250842289  0.5889672586110754
  0.4002779015675590  0.7450431599906998  0.4110327413889247
  0.4002779015675590  0.7450431599906998  0.5889672586110754
  0.3161112787279888  0.2990733650935292  0.5889672586110754
  0.2163891802955477  0.5441165250842289  0.4110327413889247
  0.5997220984324410  0.2549568400093001  0.5889672586110754
  0.3161112787279888  0.2990733650935292  0.4110327413889247
  0.7836108197044522  0.4558834749157710  0.5889672586110754
  0.5997220984324410  0.2549568400093001  0.4110327413889247
  0.7836108197044522  0.4558834749157710  0.4110327413889247
EA2
 1.0000000000000000
    15.7450239725830450    0.0000000000000000    0.0000000000000000
     0.0000000000000000   15.7450239725830450    0.0000000000000000
     0.0000000000000000    0.0000000000000000   10.7013299712170102
 O   Cu 
  24  24
Direct
  0.5675987250018241  0.8347069034593049  0.5216777474046830
  0.4324012749981759  0.1652930965406952  0.5216777474046829
  0.8347069034593049  0.4324012749981760  0.5216777474046830
  0.1652930965406952  0.5675987250018241  0.5216777474046829
  0.6281000122936002  0.7567378540046986  0.4976598554569739
  0.3718999877063998  0.2432621459953013  0.4976598554569739
  0.7567378540046986  0.3718999877063998  0.4976598554569739
  0.2432621459953013  0.6281000122936002  0.4976598554569739
  0.8398708177035131  0.9186592689173536  0.4846868234117517
  0.1601291822964869  0.0813407310826463  0.4846868234117516
  0.9186592689173536  0.1601291822964869  0.4846868234117516
  0.0813407310826463  0.8398708177035131  0.4846868234117516
  0.9638688946079247  0.6794525322688746  0.5139264530309792
  0.0361311053920753  0.3205474677311254  0.5139264530309791
  0.6794525322688746  0.0361311053920753  0.5139264530309791
  0.3205474677311254  0.9638688946079247  0.5139264530309792
  0.6886080169651617  0.5073370698295948  0.4975451723437169
  0.3113919830348383  0.4926629301704052  0.4975451723437168
  0.5073370698295948  0.3113919830348383  0.4975451723437168
  0.4926629301704052  0.6886080169651617  0.4975451723437169
  0.6537141029608727  0.5482556472820892  0.5136981344972642
  0.3462858970391272  0.4517443527179108  0.5136981344972641
  0.5482556472820892  0.3462858970391272  0.5136981344972642
  0.4517443527179108  0.6537141029608727  0.5136981344972642
  0.6613630980049636  0.6780899414586135  0.4933647495945580
  0.3386369019950363  0.3219100585413865  0.4933647495945579
  0.6780899414586135  0.3386369019950363  0.4933647495945579
  0.3219100585413865  0.6613630980049636  0.4933647495945579
  0.6441761011354499  0.8760230604390179  0.5045568256208527
  0.3558238988645501  0.1239769395609821  0.5045568256208526
  0.8760230604390179  0.3558238988645501  0.5045568256208527
  0.1239769395609821  0.6441761011354499  0.5045568256208527
  0.8158038222999721  0.8135803975870857  0.4672316444262840
  0.1841961777000279  0.1864196024129143  0.4672316444262838
  0.8135803975870857  0.1841961777000279  0.4672316444262839
  0.1864196024129143  0.8158038222999721  0.4672316444262839
  0.6643896659563092  0.9914052523602833  0.4726182698776571
  0.3356103340436908  0.0085947476397166  0.4726182698776570
  0.9914052523602833  0.3356103340436908  0.4726182698776571
  0.0085947476397166  0.6643896659563092  0.4726182698776570
  0.9066979509457715  0.8275985398264263  0.5327683555737162
  0.0933020490542285  0.1724014601735738  0.5327683555737160
  0.8275985398264263  0.0933020490542285  0.5327683555737162
  0.1724014601735738  0.9066979509457715  0.5327683555737162
  1.0000000000000000  0.8276276980254985  0.5004647455440526
  0.0000000000000000  0.1723723019745014  0.5004647455440524
  0.8276276980254984  0.0000000000000000  0.5004647455440525
  0.1723723019745015  1.0000000000000000  0.5004647455440526
EA3
 1.0000000000000000
    13.6124729576051013    0.0000000000000000    0.0000000000000000
     0.0000000000000000   13.6124729576051013    0.0000000000000000
     0.0000000000000000    0.0000000000000000   23.6124729576051031
 O   Cu 
  24  24
Direct
  0.5000000000000000  0.8090169943749475  0.2117524923788045
  0.5000000000000000  0.1909830056250526  0.2117524923788045
  0.0000000000000000  0.5000000000000000  0.6781467568823432
  1.0000000000000000  0.5000000000000000  0.3218532431176569
  1.0000000000000000  0.5000000000000000  0.6781467568823433
  0.5000000000000000  0.8090169943749475  0.7882475076211958
  0.5000000000000000  0.1909830056250526  0.7882475076211956
  0.8090169943749475  1.0000000000000000  0.5000000000000001
  0.8090169943749475  0.0000000000000000  0.5000000000000001
  0.0000000000000000  0.5000000000000000  0.3218532431176569
  0.1909830056250526  0.0000000000000000  0.5000000000000001
  0.1909830056250526  1.0000000000000000  0.5000000000000001
  0.5000000000000000  0.7144434422581593  0.2999696169407975
  0.5000000000000000  0.2855565577418407  0.2999696169407975
  0.1530232217617728  0.5000000000000000  0.6236255755132484
  0.8469767782382273  0.5000000000000000  0.3763744244867518
  0.8469767782382273  0.5000000000000000  0.6236255755132485
  0.5000000000000000  0.7144434422581593  0.7000303830592027
  0.5000000000000000  0.2855565577418407  0.7000303830592027
  0.7144434422581593  0.8469767782382273  0.5000000000000001
  0.7144434422581593  0.1530232217617728  0.5000000000000001
  0.1530232217617728  0.5000000000000000  0.3763744244867517
  0.2855565577418407  0.1530232217617728  0.5000000000000001
  0.2855565577418407  0.8469767782382273  0.5000000000000001
  0.5000000000000000  0.6592228589609396  0.3514787436055238
  0.5000000000000000  0.3407771410390604  0.3514787436055238
  0.2423720024152690  0.5000000000000000  0.5917911845036240
  0.7576279975847311  0.5000000000000000  0.4082088154963761
  0.7576279975847311  0.5000000000000000  0.5917911845036240
  0.5000000000000000  0.6592228589609396  0.6485212563944763
  0.5000000000000000  0.3407771410390604  0.6485212563944763
  0.6592228589609396  0.7576279975847311  0.5000000000000001
  0.6592228589609396  0.2423720024152690  0.5000000000000001
  0.2423720024152690  0.5000000000000000  0.4082088154963761
  0.3407771410390604  0.2423720024152690  0.5000000000000001
  0.3407771410390604  0.7576279975847311  0.5000000000000001
  0.5000000000000000  0.5988235220062070  0.4078185522765317
  0.5000000000000000  0.4011764779937930  0.4078185522765317
  0.3401001825059839  0.5000000000000000  0.5569712678252752
  0.6598998174940162  0.5000000000000000  0.4430287321747250
  0.6598998174940162  0.5000000000000000  0.5569712678252752
  0.5000000000000000  0.5988235220062070  0.5921814477234685
  0.5000000000000000  0.4011764779937930  0.5921814477234685
  0.5988235220062070  0.6598998174940162  0.5000000000000001
  0.5988235220062070  0.3401001825059839  0.5000000000000001
  0.3401001825059839  0.5000000000000000  0.4430287321747250
  0.4011764779937930  0.3401001825059839  0.5000000000000001
  0.4011764779937930  0.6598998174940162  0.5000000000000001
EA4
 1.0000000000000000
     8.0530795089154790    0.0000000000000000    0.0000000000000000
     0.0000000000000000    7.7707864532046900    0.0000000000000000
     0.0000000000000000    0.0000000000000000   22.9898365290440196
 O   Cu 
  24  24
Direct
  0.5999852287198474  0.6477979305137939  0.2378176752326707
  0.3739182041422002  0.5179832759509939  0.2378176752326707
  0.4907215693481589  0.4050696521135214  0.2378176752326707
  0.6304386742727027  0.4852995208711584  0.2378176752326707
  0.4414468593690947  0.6679976020331092  0.2378176752326707
  0.7672237701108449  0.9220238569347574  0.4535810236276572
  0.0830836473130223  0.3980011929306336  0.4535810236276572
  0.5109584819777470  0.0813448655883350  0.4535810236276572
  0.9337803309343280  0.4052086828181494  0.4535810236276572
  0.2414643055160619  0.9175693832107014  0.4535810236276572
  0.5073021071704008  0.5448295962965154  0.4863783690409653
  0.5073021071704008  0.5448295962965154  0.6523090141784380
  0.8354362663069518  0.9712119974776764  0.6812289838922688
  0.0000000000000000  0.3997579752771188  0.6812289838922688
  0.4836719919879952  0.0000000000000000  0.6812289838922688
  1.0000000000000000  0.3531780087277816  0.6812289838922688
  0.2174022775570569  1.0000000000000000  0.6812289838922688
  0.6062634368176830  0.6900576537308643  0.5158969888599338
  0.3448701150912681  0.4876187368573943  0.5158969888599338
  0.5096113043083480  0.3670565226867380  0.5158969888599338
  0.6711612615675088  0.4921706539602570  0.5158969888599338
  0.4046044180671959  0.6872444142473232  0.5158969888599338
  0.5073021071704008  0.5448295962965154  0.4480780490689326
  0.5073021071704008  0.5448295962965154  0.4148220466813748
  0.7236214030229750  0.6682154633934525  0.6109023615371183
  0.2623140013283061  0.5767766376436606  0.6109023615371183
  0.4022782399005861  0.3132400282551486  0.6109023615371183
  0.6873818934097923  0.3697523304598990  0.6109023615371183
  0.4609149981903443  0.7961635217304162  0.6109023615371183
  0.7767097465349024  0.6926573231985143  0.3544742557004831
  0.2055016707774198  0.5893408854350278  0.3544742557004831
  0.3731918262427439  0.2611280205509315  0.3544742557004831
  0.7262178317092931  0.3249810906853292  0.3544742557004831
  0.4548894605876446  0.8560406616127740  0.3544742557004831
  0.7672170037419872  0.6388933685594408  0.7825125901315875
  0.2436753544892163  0.6270544479995045  0.7825125901315872
  0.3503777230163450  0.3104063639620834  0.7825125901315872
  0.6739442567807333  0.3177232192582338  0.7825125901315872
  0.5012961978237221  0.8300705817033144  0.7825125901315875
  0.5876134929283050  0.9115239781606573  0.3029230888957460
  0.2343467456440650  0.2970883270654150  0.3029230888957459
  0.6503109168568434  0.1992468921878012  0.3029230888957460
  0.8686417737736234  0.5789890084643324  0.3029230888957460
  0.1955976066491671  0.7372997756043710  0.3029230888957460
  0.5073021071704008  0.5448295962965154  0.3582020164162547
  0.5073021071704008  0.5448295962965154  0.2905253056472659
  0.5073021071704008  0.5448295962965154  0.7404194280750495
  0.5073021071704008  0.5448295962965154  0.2174874098684125
EA5
 1.0000000000000000
     6.4038697219389737    0.0000000000000000    0.0000000000000000
     0.0000000000000000    6.2433113378943599    0.0000000000000000
     0.0000000000000000    0.0000000000000000   29.6472518998313710
 O   Cu 
  24  24
Direct
  0.5000000000000000  0.4739524581991566  0.4196191434027295
  0.1453169763322939  0.7640767528563311  0.7904417728807924
  0.5000000000000000  0.9392756981178572  0.7904417728807924
  0.0577175037015309  0.3704082962608691  0.7904417728807924
  0.8546830236677061  0.7640767528563311  0.7904417728807924
  0.3031657717022689  0.0547107055209191  0.7904417728807924
  0.9422824962984691  0.3704082962608692  0.7904417728807924
  0.6968342282977310  0.0547107055209190  0.7904417728807924
  0.2718868385306931  0.6605448961143819  0.7520132168828377
  0.5000000000000000  0.7732234925592378  0.7520132168828377
  0.2155475403082651  0.4073583881272790  0.7520132168828377
  0.7281131614693069  0.6605448961143819  0.7520132168828377
  0.3734067460064485  0.2043185731757682  0.7520132168828377
  0.7844524596917348  0.4073583881272791  0.7520132168828377
  0.6265932539935514  0.2043185731757681  0.7520132168828377
  0.5000000000000000  0.4739524581991566  0.2495305360920173
  0.5000000000000000  0.4739524581991566  0.4521033694312531
  0.0990311320975809  0.8019377358048383  0.7222532186767702
  0.5000000000000000  1.0000000000000000  0.7222532186767702
  0.0000000000000000  0.3568958678922096  0.7222532186767702
  0.9009688679024191  0.8019377358048383  0.7222532186767702
  0.2774790660436855  0.0000000000000001  0.7222532186767702
  1.0000000000000000  0.3568958678922097  0.7222532186767702
  0.7225209339563144  0.0000000000000000  0.7222532186767702
  0.5000000000000000  0.4739524581991566  0.3824571066730790
  0.3068206427738189  0.6319696764409868  0.2809221647371706
  0.5000000000000000  0.7273923986292213  0.2809221647371706
  0.2591092816797016  0.4175567659528259  0.2809221647371706
  0.6931793572261812  0.6319696764409869  0.2809221647371706
  0.3927935447559194  0.2456109619886246  0.2809221647371706
  0.7408907183202984  0.4175567659528259  0.2809221647371706
  0.6072064552440805  0.2456109619886245  0.2809221647371706
  0.5000000000000000  0.4739524581991566  0.8313503046793880
  0.2749194178237492  0.6580643011332865  0.5576795392288798
  0.5000000000000000  0.7692449271140609  0.5576795392288798
  0.2193291048333619  0.4082437022259461  0.5576795392288798
  0.7250805821762508  0.6580643011332865  0.5576795392288798
  0.3750897005463297  0.2079031367807849  0.5576795392288798
  0.7806708951666381  0.4082437022259461  0.5576795392288798
  0.6249102994536702  0.2079031367807848  0.5576795392288798
  0.5000000000000000  0.4739524581991566  0.1686496953206122
  0.2399568668026554  0.6866630351508287  0.4795277151739086
  0.5000000000000000  0.8151137351238860  0.4795277151739086
  0.1757315168161266  0.3980369322281370  0.4795277151739086
  0.7600431331973445  0.6866630351508287  0.4795277151739086
  0.3556869485386541  0.1665767687561394  0.4795277151739086
  0.8242684831838734  0.3980369322281370  0.4795277151739086
  0.6443130514613458  0.1665767687561394  0.4795277151739086
