EA0    21.669 19.833 19.903 90.00 90.00 90.00 Sym.group:    0
1.0000
   21.668616     0.000000     0.000000
    0.000000    19.832928     0.000000
    0.000000     0.000000    19.903212
  24   24 
Direct
    0.454646     0.365007     0.532851
    0.644792     0.438625     0.593060
    0.643052     0.340434     0.475238
    0.554571     0.387367     0.606167
    0.359776     0.379119     0.571348
    0.547657     0.537206     0.300914
    0.346405     0.333886     0.417336
    0.698693     0.464239     0.486059
    0.510213     0.420818     0.366544
    0.615248     0.387615     0.399495
    0.380297     0.525352     0.604987
    0.454686     0.684373     0.554011
    0.394988     0.662126     0.455253
    0.486538     0.459518     0.639014
    0.503748     0.700079     0.448345
    0.328286     0.518018     0.567326
    0.499555     0.645454     0.636485
    0.610030     0.591976     0.610684
    0.562504     0.652178     0.373680
    0.309005     0.556538     0.481879
    0.283999     0.430499     0.454201
    0.547828     0.539225     0.661443
    0.701643     0.458125     0.415053
    0.677161     0.517824     0.523756
    0.560723     0.453152     0.645486
    0.297538     0.367968     0.483237
    0.640154     0.374623     0.555885
    0.655152     0.566577     0.463619
    0.499562     0.342067     0.461154
    0.488615     0.376438     0.583662
    0.579137     0.434794     0.332884
    0.484320     0.529694     0.294153
    0.301448     0.369062     0.417685
    0.703391     0.401526     0.448779
    0.672923     0.483654     0.556612
    0.558810     0.599909     0.325195
    0.528440     0.556214     0.617374
    0.346373     0.536495     0.492340
    0.575563     0.559538     0.595062
    0.528686     0.602879     0.597046
    0.327445     0.474865     0.455425
    0.346228     0.492975     0.512613
    0.528957     0.600537     0.376563
    0.425931     0.635863     0.485760
    0.466512     0.475220     0.594004
    0.424078     0.466138     0.557707
    0.471994     0.652276     0.515314
    0.472698     0.651932     0.457313
