EA1
 1.0000000000000000
     7.5947312796005875    0.0000000000000000    0.0000000000000000
     0.0000000000000000    7.5947312796005875    0.0000000000000000
     0.0000000000000000    0.0000000000000000   19.6158519632602193
 O   Cu 
  19  40
Direct
  0.7759807700000000  0.1965593400000000  0.7949649400000000
  0.9398042400000000  0.9398696700000000  0.1666112900000000
  0.5638422800000000  0.1833507000000000  0.1915251000000000
  0.5969015800000000  0.8153112400000000  0.1184767700000000
  0.8156356500000000  0.5978309300000000  0.1181545500000000
  0.1819903700000000  0.5630499600000000  0.1919134700000000
  0.2704666100000000  0.6557983800000000  0.3316613100000000
  0.6568432400000001  0.2619189100000000  0.3318836700000000
  0.3192624100000000  0.3191195500000000  0.7483827199999999
  0.7154294600000000  0.7159486900000001  0.0792604700000000
  0.5574351900000000  0.5580308800000000  0.5467628600000000
  0.1958808700000000  0.7763165200000000  0.7944751500000000
  0.8733134800000000  0.3543913500000000  0.8226532400000001
  0.7091494100000000  0.8426956300000000  0.2953881500000000
  0.2798517300000000  0.0198858400000000  0.2731202300000000
  0.8469619800000000  0.6971447200000001  0.2926714100000000
  0.0084033800000000  0.2853437000000000  0.2729916300000000
  0.3535517500000000  0.8731389200000000  0.8225163599999998
  0.7488751800000000  0.7491431200000001  0.7226892000000000
  0.0798066700000000  0.8591171800000000  0.4783417300000000
  0.0098918600000000  0.7064534000000000  0.1653441600000000
  0.7481358299999999  0.4809878900000000  0.3132282000000000
  0.5461146000000000  0.8178686100000000  0.7701935800000000
  0.5451882900000000  0.2622589100000000  0.7727688900000000
  0.0834870500000000  0.3036122600000000  0.4625431799999999
  0.7064911400000000  0.0102787400000000  0.1649951200000000
  0.8225396600000000  0.0518507900000000  0.6043263400000000
  0.8586700000000000  0.0795838500000000  0.4789229100000000
  0.0501088300000000  0.8240253599999999  0.6039924000000000
  0.0399415700000000  0.2746916000000000  0.5883888400000000
  0.3030449300000000  0.0844467800000000  0.4621725200000000
  0.1648994400000000  0.1653044300000000  0.6977901100000000
  0.9313381700000000  0.9318671700000000  0.7139875100000000
  0.1910361600000000  0.9357098400000000  0.3594714400000000
  0.9383113800000000  0.1870951400000000  0.3600415300000000
  0.1539940900000000  0.4805224200000000  0.2788253300000000
  0.2737886200000000  0.0404975000000000  0.5882448400000000
  0.4909583600000000  0.7444028800000000  0.3146486000000000
  0.5997706200000000  0.2204592100000000  0.4246762299999999
  0.2617143500000000  0.5453359500000000  0.7721930299999999
  0.0691042000000000  0.0739211100000000  0.2253517900000000
  0.8518025100000000  0.8514091900000000  0.3880022900000000
  0.2617956100000000  0.8434577299999999  0.6969191900000000
  0.8431645900000000  0.2625199300000000  0.6973827500000001
  0.8639290200000002  0.5335238700000000  0.4329550000000000
  0.2187323600000000  0.5985645900000000  0.4239925100000000
  0.5247805100000000  0.1955970000000000  0.6482285500000000
  0.5670536800000000  0.8585875900000000  0.6389577600000000
  0.1954612000000000  0.5266077500000000  0.6475661300000000
  0.8579674800000000  0.5672150300000000  0.6389312900000000
  0.5639181800000000  0.0601205900000000  0.5340663500000000
  0.5335673000000000  0.8652142200000000  0.4334974599999999
  0.7510430400000000  0.7512735400000000  0.5260496200000000
  0.3651215100000000  0.3654215400000000  0.5414462200000000
  0.7309633900000000  0.3643997200000000  0.5399735300000000
  0.3636576100000000  0.7315791900000000  0.5402134100000000
  0.8178916899999999  0.5468404400000000  0.7703181800000000
  0.4799314300000000  0.1545510400000000  0.2779337800000000
  0.0586627400000000  0.5653372400000000  0.5335985800000000
EA2
 1.0000000000000000
     7.1711898150734541    0.0000000000000000    0.0000000000000000
     0.0000000000000000   10.2047075204053765    0.0000000000000000
     0.0000000000000000    0.0000000000000000   21.4068062628270432
 O   Cu 
  19  40
Direct
  0.3554979000000000  0.2553420800000000  0.5461360600000000
  0.3952112000000000  0.3683470800000000  0.4179937200000000
  0.8759502300000001  0.5449966500000000  0.4363395000000000
  0.7621044600000000  0.2421986800000000  0.4090882499999999
  0.6365420900000001  0.6788773100000000  0.5823195600000000
  0.1754306700000000  0.5176075200000000  0.5609156600000000
  0.3937946800000000  0.9762972300000000  0.5869966700000000
  0.4348949600000000  0.0743956600000000  0.7840670699999999
  0.9165774900000000  0.6129587200000000  0.7240239200000000
  0.0221739400000000  0.2305570600000000  0.2588718400000000
  0.6276794999999999  0.8757269100000000  0.2614756600000000
  0.3649201600000000  0.4643719900000000  0.2497555100000000
  0.8255027699999999  0.8861339300000001  0.2333097400000000
  0.0944754900000000  0.7481459000000000  0.3116311800000000
  0.1521251300000000  0.8594549000000000  0.4464268900000000
  0.5295483400000000  0.7299827700000000  0.4166282300000000
  0.7579427500000000  0.3740861700000000  0.6314324800000000
  0.7626913400000001  0.0782307900000000  0.6483208100000000
  0.3623425800000000  0.2068299400000000  0.8000858199999999
  0.4048835900000000  0.5968995000000000  0.5792231000000000
  0.9176755200000000  0.8871442400000001  0.4827036900000001
  0.2785413900000000  0.7429097800000000  0.3770017199999999
  0.4832547200000000  0.5480366800000001  0.4210895800000000
  0.5706517000000001  0.3191055700000000  0.5822866900000000
  0.4680831100000000  0.1060629400000000  0.5052263200000000
  0.5900668400000000  0.8894371599999999  0.4652815500000000
  0.7123854400000000  0.9826059199999999  0.5677656800000001
  0.7911533000000001  0.5339057200000000  0.3496686600000000
  0.9449866500000000  0.2472077300000000  0.6603883100000000
  0.1691784100000000  0.9265973299999999  0.3017776100000000
  0.5741094100000000  0.0851955800000000  0.7089222900000000
  0.3647630800000000  0.4021358400000000  0.3318964500000000
  0.4950889500000000  0.1878128700000000  0.3883591000000000
  0.2455480400000000  0.3736047000000000  0.6320483300000000
  0.7782225200000001  0.6435714700000000  0.6521956300000000
  0.7615251500000000  0.6160983100000000  0.5107511700000000
  0.8895454000000000  0.2416285800000000  0.3345487500000000
  0.9431112800000000  0.4520251500000000  0.5856201700000000
  0.2880294600000000  0.0040267000000000  0.4046709900000000
  0.2712726900000000  0.4148631400000000  0.4942695600000000
  0.2356140100000000  0.9667456700000000  0.7488970599999999
  0.2230875800000000  0.2388869200000000  0.7278821100000000
  0.0454479200000000  0.7709249900000000  0.7174668100000000
  0.9257841000000000  0.0558936400000000  0.2463557300000000
  0.9532136500000000  0.4324913100000000  0.2577289100000000
  0.2300697400000000  0.1605139200000000  0.3089224900000000
  0.2503403800000000  0.1299409000000000  0.6239109600000000
  0.9722966600000000  0.9931538900000000  0.6780574300000000
  0.0555075500000000  0.4582443500000000  0.7166696000000000
  0.6128072400000000  0.7719942600000000  0.3348451300000000
  0.2587234300000000  0.8767392700000000  0.6464109900000000
  0.2202053800000000  0.6020601799999999  0.2783001200000000
  0.5022266900000000  0.0067552400000000  0.3129332500000000
  0.8744111800000001  0.6822898200000000  0.2599995100000000
  0.6221019100000000  0.5084821100000000  0.2530271000000000
  0.7794975300000000  0.0935802600000000  0.4607104300000001
  0.1187209400000000  0.5197424800000000  0.4004947200000000
  0.2713173500000000  0.9028605700000001  0.5197665299999999
  0.7782921300000000  0.3770613200000000  0.4763252900000000
EA3
 1.0000000000000000
     8.5026672421800455    0.0000000000000000    0.0000000000000000
     0.0000000000000000    8.5026672421800455    0.0000000000000000
     0.0000000000000000    0.0000000000000000   18.5026672421800455
 O   Cu 
  19  40
Direct
  0.6443104200000001  0.0923773700000000  0.3652469000000000
  0.5907930000000000  0.4903458500000000  0.7484690300000000
  0.4540998600000000  0.4619896500000000  0.3004083700000000
  0.4543284300000000  0.7803771300000000  0.3931974600000000
  0.4527459400000000  0.1675506800000000  0.6296875000000000
  0.7514239300000000  0.4529544600000000  0.3974257900000000
  0.2686996300000000  0.5012613200000000  0.6551463199999999
  0.7074793500000000  0.7040653600000000  0.1618137000000000
  0.5620414000000000  0.8659951100000001  0.5449920300000000
  0.9559803200000001  0.9507060999999999  0.2761148500000000
  0.8554502100000000  0.8607140600000001  0.4703929399999999
  0.9731337799999999  0.3831215600000000  0.2235852000000000
  0.3732556900000000  0.9659330699999999  0.2124417100000000
  0.0981343900000000  0.0803167600000000  0.3860021700000000
  0.0896724800000000  0.0334024400000000  0.7165433800000000
  0.9294180500000000  0.2352156400000000  0.1854791500000000
  0.0880195400000000  0.6325200300000000  0.3694841900000000
  0.2210798600000000  0.9161187900000000  0.1799036400000000
  0.9377918100000000  0.5541155500000000  0.5239223300000000
  0.5293820600000000  0.8206407300000000  0.1800912600000000
  0.5317634500000000  0.8864800700000000  0.7466831900000001
  0.7053701500000000  0.8733029000000000  0.6263824800000000
  0.6504238300000000  0.2029639000000000  0.4600524800000000
  0.4172040000000000  0.8844812700000000  0.6249925600000000
  0.5375504200000000  0.2741493900000000  0.3325906200000000
  0.5065608200000000  0.3132499400000000  0.7009084300000000
  0.3501738400000000  0.8312772200000000  0.4919501800000000
  0.8996469400000000  0.6516504900000000  0.6174657800000000
  0.8763929300000000  0.0602573900000000  0.5264972600000000
  0.3890318100000000  0.1375305100000000  0.5298266000000000
  0.8566569500000000  0.4127618200000000  0.3108327700000000
  0.0588057600000000  0.4465239900000000  0.6801086100000000
  0.1425825000000000  0.5330471100000000  0.4656430500000000
  0.3701697900000000  0.3631328100000000  0.4419689200000000
  0.5786930300000001  0.5917009400000000  0.3739240800000000
  0.4028188300000000  0.8702051400000000  0.3037745300000000
  0.6412178100000000  0.8700057200000000  0.4347389400000000
  0.2363310900000000  0.3757559000000000  0.5673519500000000
  0.8718484500000000  0.0870773700000000  0.3591761600000000
  0.8253448100000000  0.6411871400000000  0.4404870000000000
  0.8298588800000000  0.8336421899999999  0.2180651800000000
  0.0670134600000000  0.0673777400000000  0.2002949700000000
  0.2422365900000000  0.8684023100000000  0.7279266400000000
  0.7851070500000000  0.3943098300000000  0.6971716700000000
  0.9313430500000000  0.8739159800000000  0.7045378799999999
  0.1179498200000000  0.2022589800000000  0.4757288900000000
  0.9559448500000000  0.1704491800000000  0.6594359500000000
  0.1001322200000000  0.8558778200000000  0.3660955600000000
  0.7201592100000000  0.0948689800000000  0.7260974300000000
  0.3332170100000000  0.0881648800000000  0.3957127800000000
  0.6702595400000000  0.1900507600000000  0.5974845100000000
  0.1472768800000000  0.9852254400000000  0.6031076700000000
  0.4187204200000000  0.6327706800000000  0.7129196200000000
  0.7293649900000000  0.6715820000000000  0.7253960800000000
  0.8298755799999999  0.5323705399999999  0.1856237800000000
  0.2702346600000000  0.5383106600000001  0.3373876200000000
  0.9072812800000000  0.3458509900000000  0.5600547200000000
  0.0723793700000000  0.8335248300000000  0.5008835000000000
  0.2115684300000000  0.6903341700000000  0.5997783000000000
EA4
 1.0000000000000000
     9.0396449076522014    0.0000000000000000    0.0000000000000000
     0.0000000000000000    7.6523303763546986    0.0000000000000000
     0.0000000000000000    0.0000000000000000   18.6742889049091865
 O   Cu 
  19  40
Direct
  0.5541636100000000  0.3037258700000000  0.4255982900000000
  0.5932805200000000  0.3349498400000000  0.2139083000000000
  0.4705127100000000  0.7902270500000000  0.2121362400000000
  0.9133483900000000  0.7098885400000000  0.6629789100000000
  0.0163640800000000  0.3576558000000000  0.5946433900000000
  0.1003753400000000  0.6610091299999999  0.3859412800000000
  0.9704030100000001  0.2746704800000000  0.3967673700000000
  0.2937477700000000  0.2805798700000000  0.7395584300000000
  0.5884594800000000  0.7610660299999999  0.7795982800000000
  0.5030308999999999  0.0083120500000000  0.5741565800000000
  0.3058244800000000  0.7821901500000000  0.2102617900000000
  0.7789263199999999  0.9622687400000000  0.3261310500000000
  0.2804091200000000  0.1331617200000000  0.3204775000000000
  0.3002233400000000  0.8011244800000000  0.6999941600000000
  0.7532565800000000  0.1764290800000000  0.7249570700000000
  0.6879637199999999  0.6509797899999999  0.5479789300000000
  0.4003461200000000  0.3946424300000000  0.6869181000000000
  0.4470369000000000  0.7176347900000000  0.3840219100000000
  0.7575731800000000  0.3462804900000000  0.2232829700000000
  0.0987268700000000  0.7741096800000000  0.6904035900000000
  0.9122515500000000  0.0037201700000000  0.7250204900000000
  0.3561117400000000  0.6498563700000000  0.4749850600000001
  0.1793448400000000  0.9931243199999999  0.2416915400000000
  0.6353523500000000  0.4644306000000000  0.4903243700000000
  0.4972978399999999  0.4709955000000000  0.3503798200000000
  0.9040426200000001  0.9918588000000000  0.2360491300000000
  0.4740034800000000  0.6017641800000000  0.7280657699999999
  0.9255151899999999  0.5133948000000000  0.4389826900000001
  0.1061963200000000  0.8227254800000000  0.4850199800000000
  0.1342854000000000  0.1546227800000000  0.5448580500000000
  0.9367422500000000  0.9287296700000000  0.5892450400000000
  0.8711947200000000  0.5373147600000000  0.5718090800000000
  0.6994754000000000  0.0709337200000000  0.5411348000000000
  0.3480694200000000  0.9898728800000000  0.5021610000000000
  0.7941977000000000  0.5819098500000000  0.2654826600000000
  0.1618491400000000  0.5032266600000000  0.5393713500000000
  0.9176940500000000  0.0872763500000000  0.4655734100000000
  0.8083703000000000  0.7977365100000000  0.4835579300000000
  0.0479317400000000  0.4774296300000000  0.3082875600000000
  0.3637511400000000  0.3166156000000000  0.4866681800000000
  0.2489556400000000  0.6820471500000000  0.3016809500000000
  0.8437954800000000  0.2732560600000001  0.3137432900000000
  0.7563383700000000  0.7125619100000000  0.7262233000000000
  0.1368732500000000  0.2983118000000000  0.6744346700000000
  0.6615603000000000  0.0975185600000000  0.3998134800000000
  0.3697093300000000  0.9422816000000001  0.3642576400000000
  0.3082291800000000  0.0401454900000000  0.7177540400000000
  0.6227458000000000  0.9897681100000000  0.7427085100000000
  0.0279089100000000  0.7144927000000000  0.2184565100000000
  0.0513268700000000  0.2647628400000000  0.2117002000000000
  0.2906088500000000  0.3541869600000000  0.2727613900000000
  0.2994741100000000  0.7391447300000000  0.5971289800000000
  0.8513088800000000  0.2400715400000000  0.6416910200000000
  0.9355097400000000  0.7983884600000000  0.3541913300000000
  0.1698448200000000  0.1454417600000000  0.4139675300000000
  0.4641863300000000  0.2162846000000000  0.6236864600000001
  0.5910719500000000  0.7974527800000000  0.6226948600000000
  0.6317348400000000  0.7927321200000000  0.3442344800000000
  0.5259605300000000  0.5604590100000000  0.2200328100000000
