EA1
 1.0000000000000000
    10.6922554501769351    0.0000000000000000    0.0000000000000000
     0.0000000000000000   10.9086984953683892    0.0000000000000000
     0.0000000000000000    0.0000000000000000   12.9608086912572045
 O   Cu 
  12  24
Direct
  0.5389449295145805  0.5661162079617346  0.6142216030568539
  0.5778898590291608  0.5000000000000000  0.3857783969431461
  0.4610550704854197  0.5661162079617347  0.6142216030568539
  0.5389449295145805  0.5661162079617346  0.3857783969431461
  0.5389449295145805  0.4338837920382654  0.3857783969431461
  0.5778898590291608  0.5000000000000000  0.6142216030568539
  0.4221101409708393  0.5000000000000000  0.6142216030568539
  0.4610550704854197  0.5661162079617347  0.3857783969431461
  0.4610550704854197  0.4338837920382653  0.3857783969431461
  0.5389449295145805  0.4338837920382654  0.6142216030568539
  0.4610550704854197  0.4338837920382654  0.6142216030568539
  0.4221101409708393  0.5000000000000000  0.3857783969431461
  0.6164436667983110  1.0000000000000000  0.5000000000000000
  1.0000000000000000  0.3488423112562283  0.5000000000000000
  0.6164436667983110  0.0000000000000000  0.5000000000000000
  0.8835563332016894  0.8488423112562283  0.5000000000000001
  0.1164436667983110  0.8488423112562283  0.5000000000000000
  1.0000000000000000  0.6511576887437717  0.5000000000000000
  0.3835563332016892  1.0000000000000000  0.5000000000000000
  0.0000000000000000  0.3488423112562283  0.5000000000000000
  0.8835563332016894  0.1511576887437717  0.5000000000000000
  0.1164436667983110  0.1511576887437716  0.4999999999999999
  0.0000000000000002  0.6511576887437717  0.5000000000000000
  0.3835563332016892  0.0000000000000000  0.5000000000000000
  0.8052112276786889  0.3272825307172472  0.5772692249269499
  0.5000000000000001  0.8454349385655056  0.4227307750730501
  0.8052112276786889  0.6727174692827528  0.5772692249269500
  0.1947887723213112  0.6727174692827529  0.4227307750730501
  0.5000000000000001  0.8454349385655056  0.5772692249269499
  0.5000000000000001  0.1545650614344944  0.5772692249269499
  0.8052112276786889  0.6727174692827528  0.4227307750730501
  0.8052112276786889  0.3272825307172472  0.4227307750730501
  0.1947887723213112  0.3272825307172473  0.4227307750730500
  0.1947887723213112  0.6727174692827529  0.5772692249269499
  0.1947887723213112  0.3272825307172471  0.5772692249269499
  0.5000000000000001  0.1545650614344944  0.4227307750730501
EA2
 1.0000000000000000
     8.1002926744021266    0.0000000000000000    0.0000000000000000
     0.0000000000000000    8.1002926744021266    0.0000000000000000
     0.0000000000000000    0.0000000000000000   18.1002926744021266
 O   Cu 
  12  24
Direct
  0.5295862284816770  0.8689021753505085  0.6680037979881670
  0.4704137715183230  0.1310978246494915  0.6680037979881670
  0.4704137715183230  0.8689021753505085  0.3319962020118329
  0.5295862284816770  0.1310978246494915  0.3319962020118329
  0.8754084001935648  0.5295862284816770  0.6650921143826994
  0.8754084001935648  0.4704137715183230  0.3349078856173006
  0.1245915998064352  0.4704137715183229  0.6650921143826994
  0.1245915998064352  0.5295862284816770  0.3349078856173006
  0.8689021753505085  0.8754084001935648  0.5132405102030336
  0.1310978246494915  0.8754084001935648  0.4867594897969663
  0.8689021753505085  0.1245915998064352  0.4867594897969663
  0.1310978246494915  0.1245915998064352  0.5132405102030335
  1.0000000000000000  0.8160930334301134  0.7088327781022491
  0.0000000000000000  0.1839069665698866  0.7088327781022491
  0.0000000000000000  0.8160930334301132  0.2911672218977510
  1.0000000000000000  0.1839069665698867  0.2911672218977510
  0.9666417073551204  1.0000000000000000  0.6414588221959825
  0.9666417073551204  0.0000000000000000  0.3585411778040176
  0.0333582926448795  0.0000000000000000  0.6414588221959824
  0.0333582926448795  1.0000000000000000  0.3585411778040176
  0.8160930334301133  0.9666417073551204  0.7237613728163014
  0.1839069665698866  0.9666417073551204  0.2762386271836986
  0.8160930334301133  0.0333582926448795  0.2762386271836986
  0.1839069665698866  0.0333582926448795  0.7237613728163014
  0.5263544126332133  0.6053113347411617  0.5733150766565509
  0.4736455873667867  0.3946886652588383  0.5733150766565509
  0.4736455873667867  0.6053113347411617  0.4266849233434492
  0.5263544126332133  0.3946886652588383  0.4266849233434492
  0.6638242466378220  0.5263544126332133  0.5471292176695989
  0.6638242466378220  0.4736455873667867  0.4528707823304012
  0.3361757533621779  0.4736455873667867  0.5471292176695989
  0.3361757533621779  0.5263544126332133  0.4528707823304012
  0.6053113347411617  0.6638242466378220  0.5117941991011502
  0.3946886652588383  0.6638242466378220  0.4882058008988498
  0.6053113347411617  0.3361757533621779  0.4882058008988498
  0.3946886652588383  0.3361757533621779  0.5117941991011502
EA3
 1.0000000000000000
     5.6827716885894244    0.0000000000000000    0.0000000000000000
     0.0000000000000000    6.2397743848372125    0.0000000000000000
     0.0000000000000000    0.0000000000000000   14.4075668533719750
 O   Cu 
  12  24
Direct
  0.9497886564315650  0.5000000000000001  0.4333035375977483
  0.0502113435684351  0.5000000000000001  0.4333035375977481
  0.5000000000000000  0.5000000000000001  0.6128383961812136
  1.0000000000000000  0.8667783538894980  0.5511803355322242
  0.0000000000000000  0.8667783538894980  0.5511803355322242
  0.0000000000000000  0.1332216461105022  0.5511803355322242
  1.0000000000000000  0.1332216461105022  0.5511803355322242
  0.5000000000000000  0.7778579297479006  0.5735019791761259
  0.5000000000000000  0.2221420702520996  0.5735019791761259
  0.5000000000000000  0.5000000000000001  0.4818368255696990
  0.5000000000000000  0.5870078465716688  0.4375690076238904
  0.5000000000000000  0.4129921534283313  0.4375690076238904
  0.9745114746615932  0.6676843405720220  0.4569255147171622
  0.0254885253384069  0.6676843405720218  0.4569255147171622
  0.0254885253384069  0.3323156594279783  0.4569255147171621
  0.9745114746615932  0.3323156594279784  0.4569255147171622
  0.8340780368492344  0.5000000000000001  0.5218488251486110
  0.1659219631507655  0.5000000000000001  0.5218488251486110
  0.5000000000000000  0.9725685742473752  0.5167616495508832
  0.5000000000000000  0.0274314257526249  0.5167616495508832
  0.8586959693915900  0.5000000000000001  0.3470398611289310
  0.1413040306084101  0.5000000000000001  0.3470398611289310
  0.8998201618624563  0.0000000000000002  0.4282526563289217
  0.1001798381375437  0.0000000000000002  0.4282526563289217
  0.1001798381375437  0.0000000000000001  0.4282526563289217
  0.8998201618624563  0.0000000000000001  0.4282526563289217
  0.7200329007669026  0.5000000000000001  0.4207469186587999
  0.2799670992330973  0.5000000000000001  0.4207469186587999
  0.5000000000000000  0.8917242760249992  0.3832194332194440
  0.5000000000000000  0.1082757239750010  0.3832194332194440
  0.5000000000000000  0.7862745272274131  0.6529601388710690
  0.5000000000000000  0.2137254727725870  0.6529601388710690
  0.7691990001239906  0.9330777012104451  0.6400452478768898
  0.2308009998760095  0.9330777012104451  0.6400452478768898
  0.2308009998760095  0.0669222987895551  0.6400452478768898
  0.7691990001239906  0.0669222987895551  0.6400452478768898
EA4
 1.0000000000000000
     8.5375922477985657    0.0000000000000000    0.0000000000000000
     0.0000000000000000    8.4996157952800466    0.0000000000000000
     0.0000000000000000    0.0000000000000000   17.1995489308616989
 O   Cu 
  12  24
Direct
  1.0000000000000000  0.5000000000000000  0.5000000000000000
  0.0000000000000000  0.5000000000000000  0.5000000000000000
  0.7502563617546131  0.8089501248744034  0.6424992016627283
  0.7502563617546131  0.1910498751255966  0.3575007983372717
  0.2497436382453869  0.1910498751255966  0.6424992016627283
  0.2497436382453869  0.8089501248744034  0.3575007983372717
  0.6691849812536467  0.8284763333811620  0.5134958478631614
  0.6691849812536467  0.1715236666188379  0.4865041521368387
  0.3308150187463533  0.1715236666188379  0.5134958478631614
  0.3308150187463533  0.8284763333811620  0.4865041521368387
  0.5000000000000000  0.5000000000000000  0.7055306302675726
  0.5000000000000000  0.5000000000000000  0.2944693697324273
  0.7999446684740145  0.7147743868968658  0.7092947018495154
  0.7999446684740145  0.2852256131031343  0.2907052981504847
  0.2000553315259855  0.2852256131031342  0.7092947018495154
  0.2000553315259855  0.7147743868968658  0.2907052981504847
  0.9052226441040769  0.5076783326663246  0.5930531020855940
  0.9052226441040769  0.4923216673336756  0.4069468979144059
  0.0947773558959230  0.4923216673336754  0.5930531020855940
  0.0947773558959230  0.5076783326663244  0.4069468979144059
  0.6477145985053457  0.5000000000000000  0.5000000000000000
  0.3522854014946543  0.5000000000000000  0.5000000000000000
  0.9825259258030437  1.0000000000000000  0.5641989317862511
  0.9825259258030437  0.0000000000000000  0.4358010682137489
  0.0174740741969563  0.0000000000000000  0.5641989317862510
  0.0174740741969563  1.0000000000000000  0.4358010682137489
  0.6313223498592406  0.7297790668584123  0.7060898784952118
  0.6313223498592406  0.2702209331415877  0.2939101215047883
  0.3686776501407594  0.2702209331415877  0.7060898784952117
  0.3686776501407594  0.7297790668584123  0.2939101215047883
  0.6275136291867806  0.6477340867986729  0.5219609108734538
  0.6275136291867806  0.3522659132013270  0.4780390891265462
  0.3724863708132195  0.3522659132013270  0.5219609108734536
  0.3724863708132195  0.6477340867986729  0.4780390891265462
  0.5000000000000000  0.5000000000000000  0.6248409563204997
  0.5000000000000000  0.5000000000000000  0.3751590436795001
EA5
 1.0000000000000000
    11.3519191676126159    0.0000000000000000    0.0000000000000000
     0.0000000000000000   11.2661374659016058    0.0000000000000000
     0.0000000000000000    0.0000000000000000   18.2272069474124478
 O   Cu 
  12  24
Direct
  0.9211913063636591  0.7729936076427123  0.5515501931073488
  0.3724848550874231  0.9879864392396620  0.5515501931073487
  0.1121743119887117  0.8192671110050126  0.4484498068926513
  0.9999999999999999  0.5285985978564341  0.5515501931073487
  0.0788086936363406  0.2270063923572877  0.4484498068926512
  0.3184981505376293  0.0296884662662044  0.5515501931073487
  0.6275151449125767  0.0120135607603381  0.4484498068926513
  0.8878256880112880  0.1807328889949874  0.5515501931073487
  0.9999999999999999  0.4714014021435659  0.4484498068926513
  0.6815018494623706  0.9703115337337956  0.4484498068926513
  0.4999999999999999  0.5000000000000000  0.5217882140066126
  0.4999999999999999  0.5000000000000000  0.4782117859933875
  0.4999999999999999  0.5000000000000000  0.6961221058608921
  0.4999999999999999  0.5000000000000000  0.3038778941391079
  0.9170731835450103  0.7184099928770158  0.6193054819332349
  0.4227321096269958  0.9671727859130794  0.6193054819332349
  0.1649667064000559  0.8321879868324612  0.3806945180667651
  0.0351726339654721  0.5703186674362453  0.6193054819332349
  0.0829268164549895  0.2815900071229841  0.3806945180667651
  0.2899887792625774  0.0762865406061206  0.6193054819332349
  0.5772678903730041  0.0328272140869206  0.3806945180667651
  0.8350332935999440  0.1678120131675388  0.6193054819332349
  0.9648273660345278  0.4296813325637547  0.3806945180667651
  0.7100112207374223  0.9237134593938793  0.3806945180667651
  0.7837228234715354  0.9103277421637640  0.7256847955682094
  0.2003792183083104  0.8986892522111833  0.7256847955682094
  0.0250288700188151  0.6450927610269738  0.2743152044317906
  0.0311013497071880  0.3360757666520264  0.7256847955682094
  0.2162771765284644  0.0896722578362359  0.2743152044317906
  0.5098254785317808  0.0000000000000000  0.7256847955682094
  0.7996207816916894  0.1013107477888166  0.2743152044317906
  0.9749711299811848  0.3549072389730262  0.7256847955682094
  0.9688986502928117  0.6639242333479736  0.2743152044317906
  0.4901745214682190  1.0000000000000000  0.2743152044317906
  0.4999999999999999  0.5000000000000000  0.6137507336450285
  0.4999999999999999  0.5000000000000000  0.3862492663549715
